Al4C3 I-43d polymorph (findsym-output, f
   1.00000000000000     
     5.9384037662055933    0.0000000000000000    0.0000000000000000
     0.0000000000000000    5.9384037662055933    0.0000000000000000
     0.0000000000000000    0.0000000000000000    5.9384037662055933
   Al   C 
    16    12
Direct
  0.3154161878220081  0.3154161878220081  0.3154161878220081
  0.1845838121779919  0.6845838121779917  0.8154161878220083
  0.6845838121779917  0.8154161878220083  0.1845838121779919
  0.8154161878220083  0.1845838121779919  0.6845838121779917
  0.5654161878220083  0.5654161878220083  0.5654161878220083
  0.9345838121779917  0.4345838121779919  0.0654161878220081
  0.0654161878220081  0.9345838121779917  0.4345838121779919
  0.4345838121779919  0.0654161878220081  0.9345838121779917
  0.8154161878220083  0.8154161878220083  0.8154161878220083
  0.6845838121779917  0.1845838121779919  0.3154161878220081
  0.1845838121779919  0.3154161878220081  0.6845838121779917
  0.3154161878220081  0.6845838121779917  0.1845838121779919
  0.0654161878220081  0.0654161878220081  0.0654161878220081
  0.4345838121779919  0.9345838121779917  0.5654161878220083
  0.5654161878220083  0.4345838121779919  0.9345838121779917
  0.9345838121779917  0.5654161878220083  0.4345838121779919
  0.3750000000000000 -0.0000000000000000  0.2500000000000000
  0.1250000000000000 -0.0000000000000000  0.7500000000000000
  0.6250000000000000  0.5000000000000000  0.2500000000000000
  0.8750000000000000  0.5000000000000000  0.7500000000000000
  0.2500000000000000  0.3750000000000000  0.0000000000000000
  0.7500000000000000  0.1250000000000000  0.0000000000000000
  0.2500000000000000  0.6250000000000000  0.5000000000000000
  0.7500000000000000  0.8750000000000000  0.5000000000000000
 -0.0000000000000000  0.2500000000000000  0.3750000000000000
 -0.0000000000000000  0.7500000000000000  0.1250000000000000
  0.5000000000000000  0.2500000000000000  0.6250000000000000
  0.5000000000000000  0.7500000000000000  0.8750000000000000
 
  0.00000000E+00  0.00000000E+00  0.00000000E+00
  0.00000000E+00  0.00000000E+00  0.00000000E+00
  0.00000000E+00  0.00000000E+00  0.00000000E+00
  0.00000000E+00  0.00000000E+00  0.00000000E+00
  0.00000000E+00  0.00000000E+00  0.00000000E+00
  0.00000000E+00  0.00000000E+00  0.00000000E+00
  0.00000000E+00  0.00000000E+00  0.00000000E+00
  0.00000000E+00  0.00000000E+00  0.00000000E+00
  0.00000000E+00  0.00000000E+00  0.00000000E+00
  0.00000000E+00  0.00000000E+00  0.00000000E+00
  0.00000000E+00  0.00000000E+00  0.00000000E+00
  0.00000000E+00  0.00000000E+00  0.00000000E+00
  0.00000000E+00  0.00000000E+00  0.00000000E+00
  0.00000000E+00  0.00000000E+00  0.00000000E+00
  0.00000000E+00  0.00000000E+00  0.00000000E+00
  0.00000000E+00  0.00000000E+00  0.00000000E+00
  0.00000000E+00  0.00000000E+00  0.00000000E+00
  0.00000000E+00  0.00000000E+00  0.00000000E+00
  0.00000000E+00  0.00000000E+00  0.00000000E+00
  0.00000000E+00  0.00000000E+00  0.00000000E+00
  0.00000000E+00  0.00000000E+00  0.00000000E+00
  0.00000000E+00  0.00000000E+00  0.00000000E+00
  0.00000000E+00  0.00000000E+00  0.00000000E+00
  0.00000000E+00  0.00000000E+00  0.00000000E+00
  0.00000000E+00  0.00000000E+00  0.00000000E+00
  0.00000000E+00  0.00000000E+00  0.00000000E+00
  0.00000000E+00  0.00000000E+00  0.00000000E+00
  0.00000000E+00  0.00000000E+00  0.00000000E+00
