Al4C3 anti-CaFe2O4 - r2SCAN H(P) scan @ 
           1
     2.818756    0.000000    0.000000
     0.000000    8.611322    0.000000
     0.000000    0.000000    9.989276
   Al   C 
    16    12
Direct configuration=     1
   0.25000000  0.42271355  0.58635438
   0.75000000  0.57728645  0.41364562
   0.25000000  0.92271355  0.91364562
   0.75000000  0.07728645  0.08635438
   0.25000000  0.48174904  0.20617752
   0.75000000  0.51825096  0.79382248
   0.25000000  0.98174904  0.29382248
   0.75000000  0.01825096  0.70617752
   0.25000000  0.14619431  0.51534591
   0.75000000  0.85380569  0.48465409
   0.25000000  0.64619431  0.98465409
   0.75000000  0.35380569  0.01534591
   0.75000000  0.26801898  0.30085742
   0.25000000  0.73198102  0.69914258
   0.25000000  0.23198102  0.80085742
   0.75000000  0.76801898  0.19914258
   0.75000000  0.75167718  0.85921315
   0.25000000  0.24832282  0.14078685
   0.75000000  0.25167718  0.64078685
   0.25000000  0.74832282  0.35921315
   0.25000000  0.92869292  0.61098569
   0.75000000  0.57130708  0.11098569
   0.25000000  0.42869292  0.88901431
   0.75000000  0.07130708  0.38901431
   0.75000000  0.09419451  0.88843562
   0.25000000  0.90580549  0.11156438
   0.75000000  0.59419451  0.61156438
   0.25000000  0.40580549  0.38843562
Al4C3 anti-CaFe2O4 - r2SCAN H(P) scan @ 
           1
     2.787754    0.000000    0.000000
     0.000000    8.516611    0.000000
     0.000000    0.000000    9.879410
   Al   C 
    16    12
Direct configuration=     2
   0.25000000  0.42283412  0.58628671
   0.75000000  0.57716588  0.41371329
   0.25000000  0.92283412  0.91371329
   0.75000000  0.07716588  0.08628671
   0.25000000  0.48167321  0.20589523
   0.75000000  0.51832679  0.79410477
   0.25000000  0.98167321  0.29410477
   0.75000000  0.01832679  0.70589523
   0.25000000  0.14597955  0.51541017
   0.75000000  0.85402045  0.48458983
   0.25000000  0.64597955  0.98458983
   0.75000000  0.35402045  0.01541017
   0.75000000  0.26821844  0.30077004
   0.25000000  0.73178156  0.69922996
   0.25000000  0.23178156  0.80077004
   0.75000000  0.76821844  0.19922996
   0.75000000  0.75129427  0.85914033
   0.25000000  0.24870573  0.14085967
   0.75000000  0.25129427  0.64085967
   0.25000000  0.74870573  0.35914033
   0.25000000  0.92873886  0.61160473
   0.75000000  0.57126114  0.11160473
   0.25000000  0.42873886  0.88839527
   0.75000000  0.07126114  0.38839527
   0.75000000  0.09369014  0.88811354
   0.25000000  0.90630986  0.11188646
   0.75000000  0.59369014  0.61188646
   0.25000000  0.40630986  0.38811354
Al4C3 anti-CaFe2O4 - r2SCAN H(P) scan @ 
           1
     2.807178    0.000000    0.000000
     0.000000    8.575953    0.000000
     0.000000    0.000000    9.948248
   Al   C 
    16    12
Direct configuration=     3
   0.25000000  0.42275773  0.58632958
   0.75000000  0.57724227  0.41367042
   0.25000000  0.92275773  0.91367042
   0.75000000  0.07724227  0.08632958
   0.25000000  0.48172125  0.20607407
   0.75000000  0.51827875  0.79392593
   0.25000000  0.98172125  0.29392593
   0.75000000  0.01827875  0.70607407
   0.25000000  0.14611561  0.51536946
   0.75000000  0.85388439  0.48463054
   0.25000000  0.64611561  0.98463054
   0.75000000  0.35388439  0.01536946
   0.75000000  0.26809208  0.30082540
   0.25000000  0.73190792  0.69917460
   0.25000000  0.23190792  0.80082540
   0.75000000  0.76809208  0.19917460
   0.75000000  0.75153686  0.85918646
   0.25000000  0.24846314  0.14081354
   0.75000000  0.25153686  0.64081354
   0.25000000  0.74846314  0.35918646
   0.25000000  0.92870975  0.61121255
   0.75000000  0.57129025  0.11121255
   0.25000000  0.42870975  0.88878745
   0.75000000  0.07129025  0.38878745
   0.75000000  0.09400967  0.88831759
   0.25000000  0.90599033  0.11168241
   0.75000000  0.59400967  0.61168241
   0.25000000  0.40599033  0.38831759
Al4C3 anti-CaFe2O4 - r2SCAN H(P) scan @ 
           1
     2.807003    0.000000    0.000000
     0.000000    8.575417    0.000000
     0.000000    0.000000    9.947625
   Al   C 
    16    12
Direct configuration=     4
   0.25000000  0.42275842  0.58632920
   0.75000000  0.57724158  0.41367080
   0.25000000  0.92275842  0.91367080
   0.75000000  0.07724158  0.08632920
   0.25000000  0.48172082  0.20607247
   0.75000000  0.51827918  0.79392753
   0.25000000  0.98172082  0.29392753
   0.75000000  0.01827918  0.70607247
   0.25000000  0.14611438  0.51536982
   0.75000000  0.85388562  0.48463018
   0.25000000  0.64611438  0.98463018
   0.75000000  0.35388562  0.01536982
   0.75000000  0.26809321  0.30082490
   0.25000000  0.73190679  0.69917510
   0.25000000  0.23190679  0.80082490
   0.75000000  0.76809321  0.19917510
   0.75000000  0.75153468  0.85918605
   0.25000000  0.24846532  0.14081395
   0.75000000  0.25153468  0.64081395
   0.25000000  0.74846532  0.35918605
   0.25000000  0.92871002  0.61121607
   0.75000000  0.57128998  0.11121607
   0.25000000  0.42871002  0.88878393
   0.75000000  0.07128998  0.38878393
   0.75000000  0.09400680  0.88831575
   0.25000000  0.90599320  0.11168425
   0.75000000  0.59400680  0.61168425
   0.25000000  0.40599320  0.38831575
Al4C3 anti-CaFe2O4 - r2SCAN H(P) scan @ 
           1
     2.807073    0.000000    0.000000
     0.000000    8.575631    0.000000
     0.000000    0.000000    9.947874
   Al   C 
    16    12
Direct configuration=     5
   0.25000000  0.42276299  0.58644153
   0.75000000  0.57723701  0.41355847
   0.25000000  0.92276299  0.91355847
   0.75000000  0.07723701  0.08644153
   0.25000000  0.48162810  0.20610014
   0.75000000  0.51837190  0.79389986
   0.25000000  0.98162810  0.29389986
   0.75000000  0.01837190  0.70610014
   0.25000000  0.14615432  0.51536522
   0.75000000  0.85384568  0.48463478
   0.25000000  0.64615432  0.98463478
   0.75000000  0.35384568  0.01536522
   0.75000000  0.26832838  0.30068168
   0.25000000  0.73167162  0.69931832
   0.25000000  0.23167162  0.80068168
   0.75000000  0.76832838  0.19931832
   0.75000000  0.75137291  0.85916598
   0.25000000  0.24862709  0.14083402
   0.75000000  0.25137291  0.64083402
   0.25000000  0.74862709  0.35916598
   0.25000000  0.92865301  0.61134735
   0.75000000  0.57134699  0.11134735
   0.25000000  0.42865301  0.88865265
   0.75000000  0.07134699  0.38865265
   0.75000000  0.09383517  0.88831940
   0.25000000  0.90616483  0.11168060
   0.75000000  0.59383517  0.61168060
   0.25000000  0.40616483  0.38831940
Al4C3 anti-CaFe2O4 - r2SCAN H(P) scan @ 
           1
     2.807090    0.000000    0.000000
     0.000000    8.575684    0.000000
     0.000000    0.000000    9.947935
   Al   C 
    16    12
Direct configuration=     6
   0.25000000  0.42276411  0.58646919
   0.75000000  0.57723589  0.41353081
   0.25000000  0.92276411  0.91353081
   0.75000000  0.07723589  0.08646919
   0.25000000  0.48160526  0.20610696
   0.75000000  0.51839474  0.79389304
   0.25000000  0.98160526  0.29389304
   0.75000000  0.01839474  0.70610696
   0.25000000  0.14616416  0.51536409
   0.75000000  0.85383584  0.48463591
   0.25000000  0.64616416  0.98463591
   0.75000000  0.35383584  0.01536409
   0.75000000  0.26838629  0.30064641
   0.25000000  0.73161371  0.69935359
   0.25000000  0.23161371  0.80064641
   0.75000000  0.76838629  0.19935359
   0.75000000  0.75133307  0.85916104
   0.25000000  0.24866693  0.14083896
   0.75000000  0.25133307  0.64083896
   0.25000000  0.74866693  0.35916104
   0.25000000  0.92863898  0.61137968
   0.75000000  0.57136102  0.11137968
   0.25000000  0.42863898  0.88862032
   0.75000000  0.07136102  0.38862032
   0.75000000  0.09379290  0.88832030
   0.25000000  0.90620710  0.11167970
   0.75000000  0.59379290  0.61167970
   0.25000000  0.40620710  0.38832030
Al4C3 anti-CaFe2O4 - r2SCAN H(P) scan @ 
           1
     2.807257    0.000000    0.000000
     0.000000    8.576193    0.000000
     0.000000    0.000000    9.948526
   Al   C 
    16    12
Direct configuration=     7
   0.25000000  0.42274000  0.58653084
   0.75000000  0.57726000  0.41346916
   0.25000000  0.92274000  0.91346916
   0.75000000  0.07726000  0.08653084
   0.25000000  0.48166955  0.20598742
   0.75000000  0.51833045  0.79401258
   0.25000000  0.98166955  0.29401258
   0.75000000  0.01833045  0.70598742
   0.25000000  0.14612305  0.51524929
   0.75000000  0.85387695  0.48475071
   0.25000000  0.64612305  0.98475071
   0.75000000  0.35387695  0.01524929
   0.75000000  0.26845299  0.30061381
   0.25000000  0.73154701  0.69938619
   0.25000000  0.23154701  0.80061381
   0.75000000  0.76845299  0.19938619
   0.75000000  0.75114879  0.85918946
   0.25000000  0.24885121  0.14081054
   0.75000000  0.25114879  0.64081054
   0.25000000  0.74885121  0.35918946
   0.25000000  0.92845973  0.61152418
   0.75000000  0.57154027  0.11152418
   0.25000000  0.42845973  0.88847582
   0.75000000  0.07154027  0.38847582
   0.75000000  0.09365030  0.88838501
   0.25000000  0.90634970  0.11161499
   0.75000000  0.59365030  0.61161499
   0.25000000  0.40634970  0.38838501
Al4C3 anti-CaFe2O4 - r2SCAN H(P) scan @ 
           1
     2.807234    0.000000    0.000000
     0.000000    8.576123    0.000000
     0.000000    0.000000    9.948444
   Al   C 
    16    12
Direct configuration=     8
   0.25000000  0.42274335  0.58652228
   0.75000000  0.57725665  0.41347772
   0.25000000  0.92274335  0.91347772
   0.75000000  0.07725665  0.08652228
   0.25000000  0.48166063  0.20600402
   0.75000000  0.51833937  0.79399598
   0.25000000  0.98166063  0.29399598
   0.75000000  0.01833937  0.70600402
   0.25000000  0.14612876  0.51526523
   0.75000000  0.85387124  0.48473477
   0.25000000  0.64612876  0.98473477
   0.75000000  0.35387124  0.01526523
   0.75000000  0.26844372  0.30061834
   0.25000000  0.73155628  0.69938166
   0.25000000  0.23155628  0.80061834
   0.75000000  0.76844372  0.19938166
   0.75000000  0.75117438  0.85918551
   0.25000000  0.24882562  0.14081449
   0.75000000  0.25117438  0.64081449
   0.25000000  0.74882562  0.35918551
   0.25000000  0.92848462  0.61150411
   0.75000000  0.57151538  0.11150411
   0.25000000  0.42848462  0.88849589
   0.75000000  0.07151538  0.38849589
   0.75000000  0.09367010  0.88837602
   0.25000000  0.90632990  0.11162398
   0.75000000  0.59367010  0.61162398
   0.25000000  0.40632990  0.38837602
Al4C3 anti-CaFe2O4 - r2SCAN H(P) scan @ 
           1
     2.807252    0.000000    0.000000
     0.000000    8.576179    0.000000
     0.000000    0.000000    9.948510
   Al   C 
    16    12
Direct configuration=     9
   0.25000000  0.42270300  0.58649996
   0.75000000  0.57729700  0.41350004
   0.25000000  0.92270300  0.91350004
   0.75000000  0.07729700  0.08649996
   0.25000000  0.48167089  0.20598785
   0.75000000  0.51832911  0.79401215
   0.25000000  0.98167089  0.29401215
   0.75000000  0.01832911  0.70598785
   0.25000000  0.14612605  0.51517742
   0.75000000  0.85387395  0.48482258
   0.25000000  0.64612605  0.98482258
   0.75000000  0.35387395  0.01517742
   0.75000000  0.26856960  0.30063602
   0.25000000  0.73143040  0.69936398
   0.25000000  0.23143040  0.80063602
   0.75000000  0.76856960  0.19936398
   0.75000000  0.75101951  0.85924117
   0.25000000  0.24898049  0.14075883
   0.75000000  0.25101951  0.64075883
   0.25000000  0.74898049  0.35924117
   0.25000000  0.92834981  0.61148661
   0.75000000  0.57165019  0.11148661
   0.25000000  0.42834981  0.88851339
   0.75000000  0.07165019  0.38851339
   0.75000000  0.09360903  0.88833495
   0.25000000  0.90639097  0.11166505
   0.75000000  0.59360903  0.61166505
   0.25000000  0.40639097  0.38833495
Al4C3 anti-CaFe2O4 - r2SCAN H(P) scan @ 
           1
     2.807255    0.000000    0.000000
     0.000000    8.576186    0.000000
     0.000000    0.000000    9.948518
   Al   C 
    16    12
Direct configuration=    10
   0.25000000  0.42269790  0.58649714
   0.75000000  0.57730210  0.41350286
   0.25000000  0.92269790  0.91350286
   0.75000000  0.07730210  0.08649714
   0.25000000  0.48167219  0.20598581
   0.75000000  0.51832781  0.79401419
   0.25000000  0.98167219  0.29401419
   0.75000000  0.01832781  0.70598581
   0.25000000  0.14612570  0.51516634
   0.75000000  0.85387430  0.48483366
   0.25000000  0.64612570  0.98483366
   0.75000000  0.35387430  0.01516634
   0.75000000  0.26858548  0.30063825
   0.25000000  0.73141452  0.69936175
   0.25000000  0.23141452  0.80063825
   0.75000000  0.76858548  0.19936175
   0.75000000  0.75099997  0.85924819
   0.25000000  0.24900003  0.14075181
   0.75000000  0.25099997  0.64075181
   0.25000000  0.74900003  0.35924819
   0.25000000  0.92833280  0.61148440
   0.75000000  0.57166720  0.11148440
   0.25000000  0.42833280  0.88851560
   0.75000000  0.07166720  0.38851560
   0.75000000  0.09360132  0.88832976
   0.25000000  0.90639868  0.11167024
   0.75000000  0.59360132  0.61167024
   0.25000000  0.40639868  0.38832976
Al4C3 anti-CaFe2O4 - r2SCAN H(P) scan @ 
           1
     2.807295    0.000000    0.000000
     0.000000    8.576310    0.000000
     0.000000    0.000000    9.948662
   Al   C 
    16    12
Direct configuration=    11
   0.25000000  0.42261706  0.58646998
   0.75000000  0.57738294  0.41353002
   0.25000000  0.92261706  0.91353002
   0.75000000  0.07738294  0.08646998
   0.25000000  0.48172000  0.20594684
   0.75000000  0.51828000  0.79405316
   0.25000000  0.98172000  0.29405316
   0.75000000  0.01828000  0.70594684
   0.25000000  0.14612474  0.51518593
   0.75000000  0.85387526  0.48481407
   0.25000000  0.64612474  0.98481407
   0.75000000  0.35387526  0.01518593
   0.75000000  0.26865243  0.30063865
   0.25000000  0.73134757  0.69936135
   0.25000000  0.23134757  0.80063865
   0.75000000  0.76865243  0.19936135
   0.75000000  0.75096280  0.85928990
   0.25000000  0.24903720  0.14071010
   0.75000000  0.25096280  0.64071010
   0.25000000  0.74903720  0.35928990
   0.25000000  0.92832329  0.61147783
   0.75000000  0.57167671  0.11147783
   0.25000000  0.42832329  0.88852217
   0.75000000  0.07167671  0.38852217
   0.75000000  0.09355016  0.88830048
   0.25000000  0.90644984  0.11169952
   0.75000000  0.59355016  0.61169952
   0.25000000  0.40644984  0.38830048
