Al4C3 Pnma (CIF findsym, P21/n21/m21/a) 
   1.00000000000000     
     9.4177867347680682    0.0000000000000000    0.0000000000000000
     0.0000000000000000    3.2358278868246453    0.0000000000000000
     0.0000000000000000    0.0000000000000000    9.9280767620217514
   Al   C 
    16    12
Direct
  0.2652727849536408  0.2500000000000000  0.2673205931919886
  0.7652727849536409  0.2500000000000000  0.2326794068080113
  0.7347272150463591  0.7500000000000000  0.7326794068080114
  0.2347272150463592  0.7500000000000000  0.7673205931919886
  0.4686795848458785  0.2500000000000000  0.8919967169837040
  0.9686795848458785  0.2500000000000000  0.6080032830162960
  0.5313204151541215  0.7500000000000000  0.1080032830162958
  0.0313204151541215  0.7500000000000000  0.3919967169837041
  0.5068838323600543  0.2500000000000000  0.6024501887817659
  0.0068838323600544  0.2500000000000000  0.8975498112182341
  0.4931161676399456  0.7500000000000000  0.3975498112182340
  0.9931161676399457  0.7500000000000000  0.1024501887817660
  0.2405745464783052  0.2500000000000000  0.5604813961210613
  0.7405745464783053  0.2500000000000000  0.9395186038789387
  0.7594254535216947  0.7500000000000000  0.4395186038789389
  0.2594254535216948  0.7500000000000000  0.0604813961210611
  0.3845787976722571  0.2500000000000000  0.4244882778499087
  0.8845787976722572  0.2500000000000000  0.0755117221500913
  0.6154212023277428  0.7500000000000000  0.5755117221500912
  0.1154212023277428  0.7500000000000000  0.9244882778499088
  0.3909572756526874  0.2500000000000000  0.0842603370835497
  0.8909572756526875  0.2500000000000000  0.4157396629164504
  0.6090427243473125  0.7500000000000000  0.9157396629164504
  0.1090427243473127  0.7500000000000000  0.5842603370835496
  0.3492866014752801  0.2500000000000000  0.7348198469676103
  0.8492866014752800  0.2500000000000000  0.7651801530323897
  0.6507133985247200  0.7500000000000000  0.2651801530323897
  0.1507133985247200  0.7500000000000000  0.2348198469676102
 
  0.00000000E+00  0.00000000E+00  0.00000000E+00
  0.00000000E+00  0.00000000E+00  0.00000000E+00
  0.00000000E+00  0.00000000E+00  0.00000000E+00
  0.00000000E+00  0.00000000E+00  0.00000000E+00
  0.00000000E+00  0.00000000E+00  0.00000000E+00
  0.00000000E+00  0.00000000E+00  0.00000000E+00
  0.00000000E+00  0.00000000E+00  0.00000000E+00
  0.00000000E+00  0.00000000E+00  0.00000000E+00
  0.00000000E+00  0.00000000E+00  0.00000000E+00
  0.00000000E+00  0.00000000E+00  0.00000000E+00
  0.00000000E+00  0.00000000E+00  0.00000000E+00
  0.00000000E+00  0.00000000E+00  0.00000000E+00
  0.00000000E+00  0.00000000E+00  0.00000000E+00
  0.00000000E+00  0.00000000E+00  0.00000000E+00
  0.00000000E+00  0.00000000E+00  0.00000000E+00
  0.00000000E+00  0.00000000E+00  0.00000000E+00
  0.00000000E+00  0.00000000E+00  0.00000000E+00
  0.00000000E+00  0.00000000E+00  0.00000000E+00
  0.00000000E+00  0.00000000E+00  0.00000000E+00
  0.00000000E+00  0.00000000E+00  0.00000000E+00
  0.00000000E+00  0.00000000E+00  0.00000000E+00
  0.00000000E+00  0.00000000E+00  0.00000000E+00
  0.00000000E+00  0.00000000E+00  0.00000000E+00
  0.00000000E+00  0.00000000E+00  0.00000000E+00
  0.00000000E+00  0.00000000E+00  0.00000000E+00
  0.00000000E+00  0.00000000E+00  0.00000000E+00
  0.00000000E+00  0.00000000E+00  0.00000000E+00
  0.00000000E+00  0.00000000E+00  0.00000000E+00
