       N       E                     dE             d eps       ncg     rms          rms(c)
DAV:   1    -0.249413692343E+03   -0.24941E+03   -0.49081E+00  7134   0.107E+01    0.757E+00
DAV:   2    -0.233161026908E+03    0.16253E+02   -0.14798E+00  7152   0.613E+00    0.564E+00
DAV:   3    -0.233523695933E+03   -0.36267E+00   -0.22603E-01  8526   0.216E+00    0.457E+00
DAV:   4    -0.233561400075E+03   -0.37704E-01   -0.14265E-01  8484   0.120E+00    0.910E-01
DAV:   5    -0.233560663474E+03    0.73660E-03   -0.12088E-02  8232   0.370E-01    0.350E-01
DAV:   6    -0.233560677971E+03   -0.14497E-04   -0.35892E-03  8346   0.197E-01    0.702E-02
DAV:   7    -0.233560682076E+03   -0.41048E-05   -0.19607E-04  8418   0.513E-02    0.460E-02
DAV:   8    -0.233560685559E+03   -0.34830E-05   -0.48309E-05  8130   0.266E-02
   1 F= -.21439068E+03 E0= -.21439068E+03  d E =-.214391E+03
       N       E                     dE             d eps       ncg     rms          rms(c)
DAV:   1    -0.233006242653E+03    0.55444E+00   -0.27190E+00  8064   0.674E+00    0.169E+00
DAV:   2    -0.232959427915E+03    0.46815E-01   -0.20411E-01  8532   0.143E+00    0.863E-01
DAV:   3    -0.232958170022E+03    0.12579E-02   -0.32343E-02  8352   0.520E-01    0.330E-01
DAV:   4    -0.232958262264E+03   -0.92242E-04   -0.12967E-03  8448   0.149E-01    0.143E-01
DAV:   5    -0.232958359657E+03   -0.97392E-04   -0.23812E-04  8478   0.716E-02    0.965E-02
DAV:   6    -0.232958345020E+03    0.14637E-04   -0.13138E-04  8280   0.369E-02    0.390E-02
DAV:   7    -0.232958353822E+03   -0.88015E-05   -0.17299E-05  4464   0.143E-02
   2 F= -.21438510E+03 E0= -.21438510E+03  d E =0.557993E-02
       N       E                     dE             d eps       ncg     rms          rms(c)
DAV:   1    -0.233328508590E+03   -0.37016E+00   -0.69757E-01  8100   0.337E+00    0.867E-01
DAV:   2    -0.233317463406E+03    0.11045E-01   -0.53593E-02  8508   0.728E-01    0.443E-01
DAV:   3    -0.233317429158E+03    0.34248E-04   -0.85236E-03  8340   0.265E-01    0.168E-01
DAV:   4    -0.233317499593E+03   -0.70435E-04   -0.34837E-04  8418   0.770E-02    0.724E-02
DAV:   5    -0.233317549985E+03   -0.50392E-04   -0.65151E-05  8376   0.373E-02    0.490E-02
DAV:   6    -0.233317555196E+03   -0.52106E-05   -0.36513E-05  6990   0.194E-02
   3 F= -.21444095E+03 E0= -.21444095E+03  d E =-.502696E-01
       N       E                     dE             d eps       ncg     rms          rms(c)
DAV:   1    -0.233313637619E+03    0.39124E-02   -0.97223E-05  8148   0.420E-02    0.159E-02
DAV:   2    -0.233313629511E+03    0.81076E-05   -0.10646E-05  4086   0.103E-02
   4 F= -.21444094E+03 E0= -.21444094E+03  d E =-.502579E-01
       N       E                     dE             d eps       ncg     rms          rms(c)
DAV:   1    -0.233314495245E+03   -0.85763E-03   -0.16042E-05  4104   0.149E-02    0.281E-03
DAV:   2    -0.233314495352E+03   -0.10711E-06   -0.14418E-06  3960   0.460E-03
   5 F= -.21444093E+03 E0= -.21444093E+03  d E =-.502563E-01
       N       E                     dE             d eps       ncg     rms          rms(c)
DAV:   1    -0.233316018989E+03   -0.15237E-02   -0.14122E-05  4146   0.165E-02    0.448E-03
DAV:   2    -0.233316019963E+03   -0.97406E-06   -0.13434E-06  3882   0.495E-03
   6 F= -.21444094E+03 E0= -.21444094E+03  d E =-.502577E-01
       N       E                     dE             d eps       ncg     rms          rms(c)
DAV:   1    -0.233315366220E+03    0.65277E-03   -0.42445E-06  3834   0.766E-03    0.197E-03
DAV:   2    -0.233315365724E+03    0.49630E-06   -0.38230E-07  3810   0.243E-03
   7 F= -.21444094E+03 E0= -.21444094E+03  d E =-.502582E-01
       N       E                     dE             d eps       ncg     rms          rms(c)
DAV:   1    -0.233321942699E+03   -0.65765E-02   -0.49610E-02  7158   0.927E-01    0.395E-02
DAV:   2    -0.233322001055E+03   -0.58355E-04   -0.94927E-04  8916   0.115E-01    0.302E-02
DAV:   3    -0.233321995079E+03    0.59761E-05   -0.35899E-05  7200   0.250E-02
   8 F= -.21444231E+03 E0= -.21444231E+03  d E =-.137307E-02
       N       E                     dE             d eps       ncg     rms          rms(c)
DAV:   1    -0.233324260091E+03   -0.22590E-02   -0.81004E-03  7398   0.375E-01    0.202E-02
DAV:   2    -0.233324268070E+03   -0.79792E-05   -0.13008E-04  8940   0.443E-02    0.164E-02
DAV:   3    -0.233324268434E+03   -0.36391E-06   -0.76445E-06  4638   0.120E-02
   9 F= -.21444242E+03 E0= -.21444242E+03  d E =-.148770E-02
       N       E                     dE             d eps       ncg     rms          rms(c)
DAV:   1    -0.233326574656E+03   -0.23066E-02   -0.16878E-02  7164   0.527E-01    0.262E-02
DAV:   2    -0.233326601953E+03   -0.27298E-04   -0.46768E-04  8814   0.793E-02    0.214E-02
DAV:   3    -0.233326594412E+03    0.75417E-05   -0.15378E-05  5340   0.177E-02
  10 F= -.21444262E+03 E0= -.21444262E+03  d E =-.193809E-03
       N       E                     dE             d eps       ncg     rms          rms(c)
DAV:   1    -0.233326844126E+03   -0.24217E-03   -0.21267E-04  7686   0.598E-02    0.663E-03
DAV:   2    -0.233326843473E+03    0.65320E-06   -0.20648E-06  4266   0.756E-03
  11 F= -.21444261E+03 E0= -.21444261E+03  d E =-.190216E-03
       N       E                     dE             d eps       ncg     rms          rms(c)
DAV:   1    -0.233327371766E+03   -0.52764E-03   -0.14248E-02  7176   0.493E-01    0.193E-02
DAV:   2    -0.233327372266E+03   -0.50019E-06   -0.15833E-04  8796   0.488E-02    0.146E-02
DAV:   3    -0.233327368363E+03    0.39036E-05   -0.95391E-06  4932   0.141E-02
  12 F= -.21444273E+03 E0= -.21444273E+03  d E =-.116175E-03
       N       E                     dE             d eps       ncg     rms          rms(c)
DAV:   1    -0.233327450360E+03   -0.78094E-04   -0.51469E-04  7530   0.948E-02    0.536E-03
DAV:   2    -0.233327449930E+03    0.43079E-06   -0.31607E-06  5178   0.772E-03
  13 F= -.21444273E+03 E0= -.21444273E+03  d E =-.116789E-03
       N       E                     dE             d eps       ncg     rms          rms(c)
DAV:   1    -0.233326549251E+03    0.90111E-03   -0.45133E-03  7188   0.266E-01    0.137E-02
DAV:   2    -0.233326551030E+03   -0.17791E-05   -0.11088E-04  8688   0.387E-02    0.106E-02
DAV:   3    -0.233326548672E+03    0.23587E-05   -0.47546E-06  4302   0.967E-03
  14 F= -.21444277E+03 E0= -.21444277E+03  d E =-.424985E-04
