Al4C3 Pnma (CIF findsym, P21/n21/m21/a) 
   1.00000000000000     
     9.4651319314143390    0.0000000000000000    0.0000000000000000
     0.0000000000000000    3.2520950748519151    0.0000000000000000
     0.0000000000000000    0.0000000000000000    9.9779872940666010
   Al   C 
    16    12
Direct
  0.2652225517329523  0.2500000000000000  0.2672082257958574
  0.7652225517329525  0.2500000000000000  0.2327917742041426
  0.7347774482670475  0.7500000000000000  0.7327917742041425
  0.2347774482670477  0.7500000000000000  0.7672082257958575
  0.4680993169227196  0.2500000000000000  0.8918208779090959
  0.9680993169227199  0.2500000000000000  0.6081791220909041
  0.5319006830772801  0.7500000000000000  0.1081791220909041
  0.0319006830772803  0.7500000000000000  0.3918208779090959
  0.5072495395412123  0.2500000000000000  0.6031148118985578
  0.0072495395412123  0.2500000000000000  0.8968851881014422
  0.4927504604587876  0.7500000000000000  0.3968851881014422
  0.9927504604587877  0.7500000000000000  0.1031148118985578
  0.2400724187812541  0.2500000000000000  0.5597656910067743
  0.7400724187812540  0.2500000000000000  0.9402343089932257
  0.7599275812187460  0.7500000000000000  0.4402343089932257
  0.2599275812187459  0.7500000000000000  0.0597656910067744
  0.3845897368240073  0.2500000000000000  0.4243457526306896
  0.8845897368240072  0.2500000000000000  0.0756542473693104
  0.6154102631759928  0.7500000000000000  0.5756542473693105
  0.1154102631759927  0.7500000000000000  0.9243457526306895
  0.3913934025203550  0.2500000000000000  0.0845682985243603
  0.8913934025203553  0.2500000000000000  0.4154317014756396
  0.6086065974796447  0.7500000000000000  0.9154317014756397
  0.1086065974796449  0.7500000000000000  0.5845682985243603
  0.3490535386047285  0.2500000000000000  0.7345253022464164
  0.8490535386047284  0.2500000000000000  0.7654746977535836
  0.6509464613952716  0.7500000000000000  0.2654746977535836
  0.1509464613952715  0.7500000000000000  0.2345253022464164
 
  0.00000000E+00  0.00000000E+00  0.00000000E+00
  0.00000000E+00  0.00000000E+00  0.00000000E+00
  0.00000000E+00  0.00000000E+00  0.00000000E+00
  0.00000000E+00  0.00000000E+00  0.00000000E+00
  0.00000000E+00  0.00000000E+00  0.00000000E+00
  0.00000000E+00  0.00000000E+00  0.00000000E+00
  0.00000000E+00  0.00000000E+00  0.00000000E+00
  0.00000000E+00  0.00000000E+00  0.00000000E+00
  0.00000000E+00  0.00000000E+00  0.00000000E+00
  0.00000000E+00  0.00000000E+00  0.00000000E+00
  0.00000000E+00  0.00000000E+00  0.00000000E+00
  0.00000000E+00  0.00000000E+00  0.00000000E+00
  0.00000000E+00  0.00000000E+00  0.00000000E+00
  0.00000000E+00  0.00000000E+00  0.00000000E+00
  0.00000000E+00  0.00000000E+00  0.00000000E+00
  0.00000000E+00  0.00000000E+00  0.00000000E+00
  0.00000000E+00  0.00000000E+00  0.00000000E+00
  0.00000000E+00  0.00000000E+00  0.00000000E+00
  0.00000000E+00  0.00000000E+00  0.00000000E+00
  0.00000000E+00  0.00000000E+00  0.00000000E+00
  0.00000000E+00  0.00000000E+00  0.00000000E+00
  0.00000000E+00  0.00000000E+00  0.00000000E+00
  0.00000000E+00  0.00000000E+00  0.00000000E+00
  0.00000000E+00  0.00000000E+00  0.00000000E+00
  0.00000000E+00  0.00000000E+00  0.00000000E+00
  0.00000000E+00  0.00000000E+00  0.00000000E+00
  0.00000000E+00  0.00000000E+00  0.00000000E+00
  0.00000000E+00  0.00000000E+00  0.00000000E+00
