Al4C3 Pnma-VII - r2SCAN H(P) scan @ 10 G
           1
     9.465132    0.000000    0.000000
     0.000000    3.252095    0.000000
     0.000000    0.000000    9.977987
   Al   C 
    16    12
Direct configuration=     1
   0.26522255  0.25000000  0.26720823
   0.76522255  0.25000000  0.23279177
   0.73477745  0.75000000  0.73279177
   0.23477745  0.75000000  0.76720823
   0.46809932  0.25000000  0.89182088
   0.96809932  0.25000000  0.60817912
   0.53190068  0.75000000  0.10817912
   0.03190068  0.75000000  0.39182088
   0.50724954  0.25000000  0.60311481
   0.00724954  0.25000000  0.89688519
   0.49275046  0.75000000  0.39688519
   0.99275046  0.75000000  0.10311481
   0.24007242  0.25000000  0.55976569
   0.74007242  0.25000000  0.94023431
   0.75992758  0.75000000  0.44023431
   0.25992758  0.75000000  0.05976569
   0.38458974  0.25000000  0.42434575
   0.88458974  0.25000000  0.07565425
   0.61541026  0.75000000  0.57565425
   0.11541026  0.75000000  0.92434575
   0.39139340  0.25000000  0.08456830
   0.89139340  0.25000000  0.41543170
   0.60860660  0.75000000  0.91543170
   0.10860660  0.75000000  0.58456830
   0.34905354  0.25000000  0.73452530
   0.84905354  0.25000000  0.76547470
   0.65094646  0.75000000  0.26547470
   0.15094646  0.75000000  0.23452530
Al4C3 Pnma-VII - r2SCAN H(P) scan @ 10 G
           1
     9.365880    0.000000    0.000000
     0.000000    3.217993    0.000000
     0.000000    0.000000    9.873358
   Al   C 
    16    12
Direct configuration=     2
   0.26515324  0.25000000  0.26699547
   0.76515324  0.25000000  0.23300453
   0.73484676  0.75000000  0.73300453
   0.23484676  0.75000000  0.76699547
   0.46831914  0.25000000  0.89204044
   0.96831914  0.25000000  0.60795956
   0.53168086  0.75000000  0.10795956
   0.03168086  0.75000000  0.39204044
   0.50694413  0.25000000  0.60239982
   0.00694413  0.25000000  0.89760018
   0.49305587  0.75000000  0.39760018
   0.99305587  0.75000000  0.10239982
   0.24052892  0.25000000  0.56037892
   0.74052892  0.25000000  0.93962108
   0.75947108  0.75000000  0.43962108
   0.25947108  0.75000000  0.06037892
   0.38449626  0.25000000  0.42434267
   0.88449626  0.25000000  0.07565733
   0.61550374  0.75000000  0.57565733
   0.11550374  0.75000000  0.92434267
   0.39125278  0.25000000  0.08419960
   0.89125278  0.25000000  0.41580040
   0.60874722  0.75000000  0.91580040
   0.10874722  0.75000000  0.58419960
   0.34901238  0.25000000  0.73457371
   0.84901238  0.25000000  0.76542629
   0.65098762  0.75000000  0.26542629
   0.15098762  0.75000000  0.23457371
Al4C3 Pnma-VII - r2SCAN H(P) scan @ 10 G
           1
     9.416595    0.000000    0.000000
     0.000000    3.235418    0.000000
     0.000000    0.000000    9.926820
   Al   C 
    16    12
Direct configuration=     3
   0.26518903  0.25000000  0.26710533
   0.76518903  0.25000000  0.23289467
   0.73481097  0.75000000  0.73289467
   0.23481097  0.75000000  0.76710533
   0.46820563  0.25000000  0.89192706
   0.96820563  0.25000000  0.60807294
   0.53179437  0.75000000  0.10807294
   0.03179437  0.75000000  0.39192706
   0.50710184  0.25000000  0.60276903
   0.00710184  0.25000000  0.89723097
   0.49289816  0.75000000  0.39723097
   0.99289816  0.75000000  0.10276903
   0.24029319  0.25000000  0.56006226
   0.74029319  0.25000000  0.93993774
   0.75970681  0.75000000  0.43993774
   0.25970681  0.75000000  0.06006226
   0.38454453  0.25000000  0.42434426
   0.88454453  0.25000000  0.07565574
   0.61545547  0.75000000  0.57565574
   0.11545547  0.75000000  0.92434426
   0.39132540  0.25000000  0.08438999
   0.89132540  0.25000000  0.41561001
   0.60867460  0.75000000  0.91561001
   0.10867460  0.75000000  0.58438999
   0.34903363  0.25000000  0.73454871
   0.84903363  0.25000000  0.76545129
   0.65096637  0.75000000  0.26545129
   0.15096637  0.75000000  0.23454871
Al4C3 Pnma-VII - r2SCAN H(P) scan @ 10 G
           1
     9.415944    0.000000    0.000000
     0.000000    3.235195    0.000000
     0.000000    0.000000    9.926134
   Al   C 
    16    12
Direct configuration=     4
   0.26518858  0.25000000  0.26710393
   0.76518858  0.25000000  0.23289607
   0.73481142  0.75000000  0.73289607
   0.23481142  0.75000000  0.76710393
   0.46820708  0.25000000  0.89192851
   0.96820708  0.25000000  0.60807149
   0.53179292  0.75000000  0.10807149
   0.03179292  0.75000000  0.39192851
   0.50709983  0.25000000  0.60276432
   0.00709983  0.25000000  0.89723568
   0.49290017  0.75000000  0.39723568
   0.99290017  0.75000000  0.10276432
   0.24029620  0.25000000  0.56006630
   0.74029620  0.25000000  0.93993370
   0.75970380  0.75000000  0.43993370
   0.25970380  0.75000000  0.06006630
   0.38454392  0.25000000  0.42434424
   0.88454392  0.25000000  0.07565576
   0.61545608  0.75000000  0.57565576
   0.11545608  0.75000000  0.92434424
   0.39132447  0.25000000  0.08438756
   0.89132447  0.25000000  0.41561244
   0.60867553  0.75000000  0.91561244
   0.10867553  0.75000000  0.58438756
   0.34903336  0.25000000  0.73454903
   0.84903336  0.25000000  0.76545097
   0.65096664  0.75000000  0.26545097
   0.15096664  0.75000000  0.23454903
Al4C3 Pnma-VII - r2SCAN H(P) scan @ 10 G
           1
     9.416088    0.000000    0.000000
     0.000000    3.235244    0.000000
     0.000000    0.000000    9.926286
   Al   C 
    16    12
Direct configuration=     5
   0.26518868  0.25000000  0.26710424
   0.76518868  0.25000000  0.23289576
   0.73481132  0.75000000  0.73289576
   0.23481132  0.75000000  0.76710424
   0.46820676  0.25000000  0.89192819
   0.96820676  0.25000000  0.60807181
   0.53179324  0.75000000  0.10807181
   0.03179324  0.75000000  0.39192819
   0.50710027  0.25000000  0.60276537
   0.00710027  0.25000000  0.89723463
   0.49289973  0.75000000  0.39723463
   0.99289973  0.75000000  0.10276537
   0.24029553  0.25000000  0.56006540
   0.74029553  0.25000000  0.93993460
   0.75970447  0.75000000  0.43993460
   0.25970447  0.75000000  0.06006540
   0.38454405  0.25000000  0.42434425
   0.88454405  0.25000000  0.07565575
   0.61545595  0.75000000  0.57565575
   0.11545595  0.75000000  0.92434425
   0.39132467  0.25000000  0.08438810
   0.89132467  0.25000000  0.41561190
   0.60867533  0.75000000  0.91561190
   0.10867533  0.75000000  0.58438810
   0.34903342  0.25000000  0.73454896
   0.84903342  0.25000000  0.76545104
   0.65096658  0.75000000  0.26545104
   0.15096658  0.75000000  0.23454896
Al4C3 Pnma-VII - r2SCAN H(P) scan @ 10 G
           1
     9.416342    0.000000    0.000000
     0.000000    3.235331    0.000000
     0.000000    0.000000    9.926553
   Al   C 
    16    12
Direct configuration=     6
   0.26518886  0.25000000  0.26710479
   0.76518886  0.25000000  0.23289521
   0.73481114  0.75000000  0.73289521
   0.23481114  0.75000000  0.76710479
   0.46820619  0.25000000  0.89192762
   0.96820619  0.25000000  0.60807238
   0.53179381  0.75000000  0.10807238
   0.03179381  0.75000000  0.39192762
   0.50710106  0.25000000  0.60276720
   0.00710106  0.25000000  0.89723280
   0.49289894  0.75000000  0.39723280
   0.99289894  0.75000000  0.10276720
   0.24029436  0.25000000  0.56006383
   0.74029436  0.25000000  0.93993617
   0.75970564  0.75000000  0.43993617
   0.25970564  0.75000000  0.06006383
   0.38454429  0.25000000  0.42434426
   0.88454429  0.25000000  0.07565574
   0.61545571  0.75000000  0.57565574
   0.11545571  0.75000000  0.92434426
   0.39132503  0.25000000  0.08438904
   0.89132503  0.25000000  0.41561096
   0.60867497  0.75000000  0.91561096
   0.10867497  0.75000000  0.58438904
   0.34903353  0.25000000  0.73454884
   0.84903353  0.25000000  0.76545116
   0.65096647  0.75000000  0.26545116
   0.15096647  0.75000000  0.23454884
Al4C3 Pnma-VII - r2SCAN H(P) scan @ 10 G
           1
     9.416233    0.000000    0.000000
     0.000000    3.235294    0.000000
     0.000000    0.000000    9.926439
   Al   C 
    16    12
Direct configuration=     7
   0.26518878  0.25000000  0.26710455
   0.76518878  0.25000000  0.23289545
   0.73481122  0.75000000  0.73289545
   0.23481122  0.75000000  0.76710455
   0.46820643  0.25000000  0.89192786
   0.96820643  0.25000000  0.60807214
   0.53179357  0.75000000  0.10807214
   0.03179357  0.75000000  0.39192786
   0.50710072  0.25000000  0.60276641
   0.00710072  0.25000000  0.89723359
   0.49289928  0.75000000  0.39723359
   0.99289928  0.75000000  0.10276641
   0.24029486  0.25000000  0.56006451
   0.74029486  0.25000000  0.93993549
   0.75970514  0.75000000  0.43993549
   0.25970514  0.75000000  0.06006451
   0.38454419  0.25000000  0.42434425
   0.88454419  0.25000000  0.07565575
   0.61545581  0.75000000  0.57565575
   0.11545581  0.75000000  0.92434425
   0.39132488  0.25000000  0.08438864
   0.89132488  0.25000000  0.41561136
   0.60867512  0.75000000  0.91561136
   0.10867512  0.75000000  0.58438864
   0.34903348  0.25000000  0.73454889
   0.84903348  0.25000000  0.76545111
   0.65096652  0.75000000  0.26545111
   0.15096652  0.75000000  0.23454889
Al4C3 Pnma-VII - r2SCAN H(P) scan @ 10 G
           1
     9.417107    0.000000    0.000000
     0.000000    3.235594    0.000000
     0.000000    0.000000    9.927360
   Al   C 
    16    12
Direct configuration=     8
   0.26531381  0.25000000  0.26705262
   0.76531381  0.25000000  0.23294738
   0.73468619  0.75000000  0.73294738
   0.23468619  0.75000000  0.76705262
   0.46838781  0.25000000  0.89198975
   0.96838781  0.25000000  0.60801025
   0.53161219  0.75000000  0.10801025
   0.03161219  0.75000000  0.39198975
   0.50692012  0.25000000  0.60252875
   0.00692012  0.25000000  0.89747125
   0.49307988  0.75000000  0.39747125
   0.99307988  0.75000000  0.10252875
   0.24036043  0.25000000  0.56028165
   0.74036043  0.25000000  0.93971835
   0.75963957  0.75000000  0.43971835
   0.25963957  0.75000000  0.06028165
   0.38449674  0.25000000  0.42435901
   0.88449674  0.25000000  0.07564099
   0.61550326  0.75000000  0.57564099
   0.11550326  0.75000000  0.92435901
   0.39118476  0.25000000  0.08434669
   0.89118476  0.25000000  0.41565331
   0.60881524  0.75000000  0.91565331
   0.10881524  0.75000000  0.58434669
   0.34918875  0.25000000  0.73462960
   0.84918875  0.25000000  0.76537040
   0.65081125  0.75000000  0.26537040
   0.15081125  0.75000000  0.23462960
Al4C3 Pnma-VII - r2SCAN H(P) scan @ 10 G
           1
     9.417466    0.000000    0.000000
     0.000000    3.235718    0.000000
     0.000000    0.000000    9.927738
   Al   C 
    16    12
Direct configuration=     9
   0.26536515  0.25000000  0.26703130
   0.76536515  0.25000000  0.23296870
   0.73463485  0.75000000  0.73296870
   0.23463485  0.75000000  0.76703130
   0.46846229  0.25000000  0.89201516
   0.96846229  0.25000000  0.60798484
   0.53153771  0.75000000  0.10798484
   0.03153771  0.75000000  0.39201516
   0.50684597  0.25000000  0.60243116
   0.00684597  0.25000000  0.89756884
   0.49315403  0.75000000  0.39756884
   0.99315403  0.75000000  0.10243116
   0.24038735  0.25000000  0.56037081
   0.74038735  0.25000000  0.93962919
   0.75961265  0.75000000  0.43962919
   0.25961265  0.75000000  0.06037081
   0.38447726  0.25000000  0.42436507
   0.88447726  0.25000000  0.07563493
   0.61552274  0.75000000  0.57563493
   0.11552274  0.75000000  0.92436507
   0.39112722  0.25000000  0.08432947
   0.89112722  0.25000000  0.41567053
   0.60887278  0.75000000  0.91567053
   0.10887278  0.75000000  0.58432947
   0.34925251  0.25000000  0.73466273
   0.84925251  0.25000000  0.76533727
   0.65074749  0.75000000  0.26533727
   0.15074749  0.75000000  0.23466273
Al4C3 Pnma-VII - r2SCAN H(P) scan @ 10 G
           1
     9.417820    0.000000    0.000000
     0.000000    3.235839    0.000000
     0.000000    0.000000    9.928112
   Al   C 
    16    12
Direct configuration=    10
   0.26534772  0.25000000  0.26712134
   0.76534772  0.25000000  0.23287866
   0.73465228  0.75000000  0.73287866
   0.23465228  0.75000000  0.76712134
   0.46851375  0.25000000  0.89197474
   0.96851375  0.25000000  0.60802526
   0.53148625  0.75000000  0.10802526
   0.03148625  0.75000000  0.39197474
   0.50685448  0.25000000  0.60236278
   0.00685448  0.25000000  0.89763722
   0.49314552  0.75000000  0.39763722
   0.99314552  0.75000000  0.10236278
   0.24052091  0.25000000  0.56038424
   0.74052091  0.25000000  0.93961576
   0.75947909  0.75000000  0.43961576
   0.25947909  0.75000000  0.06038424
   0.38450111  0.25000000  0.42444708
   0.88450111  0.25000000  0.07555292
   0.61549889  0.75000000  0.57555292
   0.11549889  0.75000000  0.92444708
   0.39107076  0.25000000  0.08429554
   0.89107076  0.25000000  0.41570446
   0.60892924  0.75000000  0.91570446
   0.10892924  0.75000000  0.58429554
   0.34925342  0.25000000  0.73473234
   0.84925342  0.25000000  0.76526766
   0.65074658  0.75000000  0.26526766
   0.15074658  0.75000000  0.23473234
Al4C3 Pnma-VII - r2SCAN H(P) scan @ 10 G
           1
     9.417862    0.000000    0.000000
     0.000000    3.235854    0.000000
     0.000000    0.000000    9.928156
   Al   C 
    16    12
Direct configuration=    11
   0.26534566  0.25000000  0.26713201
   0.76534566  0.25000000  0.23286799
   0.73465434  0.75000000  0.73286799
   0.23465434  0.75000000  0.76713201
   0.46851985  0.25000000  0.89196995
   0.96851985  0.25000000  0.60803005
   0.53148015  0.75000000  0.10803005
   0.03148015  0.75000000  0.39196995
   0.50685549  0.25000000  0.60235468
   0.00685549  0.25000000  0.89764532
   0.49314451  0.75000000  0.39764532
   0.99314451  0.75000000  0.10235468
   0.24053674  0.25000000  0.56038583
   0.74053674  0.25000000  0.93961417
   0.75946326  0.75000000  0.43961417
   0.25946326  0.75000000  0.06038583
   0.38450394  0.25000000  0.42445680
   0.88450394  0.25000000  0.07554320
   0.61549606  0.75000000  0.57554320
   0.11549606  0.75000000  0.92445680
   0.39106407  0.25000000  0.08429152
   0.89106407  0.25000000  0.41570848
   0.60893593  0.75000000  0.91570848
   0.10893593  0.75000000  0.58429152
   0.34925352  0.25000000  0.73474059
   0.84925352  0.25000000  0.76525941
   0.65074648  0.75000000  0.26525941
   0.15074648  0.75000000  0.23474059
Al4C3 Pnma-VII - r2SCAN H(P) scan @ 10 G
           1
     9.417930    0.000000    0.000000
     0.000000    3.235877    0.000000
     0.000000    0.000000    9.928228
   Al   C 
    16    12
Direct configuration=    12
   0.26530681  0.25000000  0.26723515
   0.76530681  0.25000000  0.23276485
   0.73469319  0.75000000  0.73276485
   0.23469319  0.75000000  0.76723515
   0.46862380  0.25000000  0.89197840
   0.96862380  0.25000000  0.60802160
   0.53137620  0.75000000  0.10802160
   0.03137620  0.75000000  0.39197840
   0.50689110  0.25000000  0.60238275
   0.00689110  0.25000000  0.89761725
   0.49310890  0.75000000  0.39761725
   0.99310890  0.75000000  0.10238275
   0.24056106  0.25000000  0.56044604
   0.74056106  0.25000000  0.93955396
   0.75943894  0.75000000  0.43955396
   0.25943894  0.75000000  0.06044604
   0.38458793  0.25000000  0.42449953
   0.88458793  0.25000000  0.07550047
   0.61541207  0.75000000  0.57550047
   0.11541207  0.75000000  0.92449953
   0.39098671  0.25000000  0.08426564
   0.89098671  0.25000000  0.41573436
   0.60901329  0.75000000  0.91573436
   0.10901329  0.75000000  0.58426564
   0.34924769  0.25000000  0.73477681
   0.84924769  0.25000000  0.76522319
   0.65075231  0.75000000  0.26522319
   0.15075231  0.75000000  0.23477681
Al4C3 Pnma-VII - r2SCAN H(P) scan @ 10 G
           1
     9.417944    0.000000    0.000000
     0.000000    3.235882    0.000000
     0.000000    0.000000    9.928242
   Al   C 
    16    12
Direct configuration=    13
   0.26529912  0.25000000  0.26725558
   0.76529912  0.25000000  0.23274442
   0.73470088  0.75000000  0.73274442
   0.23470088  0.75000000  0.76725558
   0.46864438  0.25000000  0.89198008
   0.96864438  0.25000000  0.60801992
   0.53135562  0.75000000  0.10801992
   0.03135562  0.75000000  0.39198008
   0.50689816  0.25000000  0.60238831
   0.00689816  0.25000000  0.89761169
   0.49310184  0.75000000  0.39761169
   0.99310184  0.75000000  0.10238831
   0.24056587  0.25000000  0.56045796
   0.74056587  0.25000000  0.93954204
   0.75943413  0.75000000  0.43954204
   0.25943413  0.75000000  0.06045796
   0.38460456  0.25000000  0.42450799
   0.88460456  0.25000000  0.07549201
   0.61539544  0.75000000  0.57549201
   0.11539544  0.75000000  0.92450799
   0.39097139  0.25000000  0.08426051
   0.89097139  0.25000000  0.41573949
   0.60902861  0.75000000  0.91573949
   0.10902861  0.75000000  0.58426051
   0.34924653  0.25000000  0.73478399
   0.84924653  0.25000000  0.76521601
   0.65075347  0.75000000  0.26521601
   0.15075347  0.75000000  0.23478399
Al4C3 Pnma-VII - r2SCAN H(P) scan @ 10 G
           1
     9.417787    0.000000    0.000000
     0.000000    3.235828    0.000000
     0.000000    0.000000    9.928077
   Al   C 
    16    12
Direct configuration=    14
   0.26527278  0.25000000  0.26732059
   0.76527278  0.25000000  0.23267941
   0.73472722  0.75000000  0.73267941
   0.23472722  0.75000000  0.76732059
   0.46867958  0.25000000  0.89199672
   0.96867958  0.25000000  0.60800328
   0.53132042  0.75000000  0.10800328
   0.03132042  0.75000000  0.39199672
   0.50688383  0.25000000  0.60245019
   0.00688383  0.25000000  0.89754981
   0.49311617  0.75000000  0.39754981
   0.99311617  0.75000000  0.10245019
   0.24057455  0.25000000  0.56048140
   0.74057455  0.25000000  0.93951860
   0.75942545  0.75000000  0.43951860
   0.25942545  0.75000000  0.06048140
   0.38457880  0.25000000  0.42448828
   0.88457880  0.25000000  0.07551172
   0.61542120  0.75000000  0.57551172
   0.11542120  0.75000000  0.92448828
   0.39095728  0.25000000  0.08426034
   0.89095728  0.25000000  0.41573966
   0.60904272  0.75000000  0.91573966
   0.10904272  0.75000000  0.58426034
   0.34928660  0.25000000  0.73481985
   0.84928660  0.25000000  0.76518015
   0.65071340  0.75000000  0.26518015
   0.15071340  0.75000000  0.23481985
