       N       E                     dE             d eps       ncg     rms          rms(c)
DAV:   1     0.314095360363E+03    0.31410E+03   -0.47115E+04  7128   0.148E+03
DAV:   2    -0.155949940111E+03   -0.47005E+03   -0.44518E+03  9120   0.236E+02
DAV:   3    -0.183876235821E+03   -0.27926E+02   -0.27644E+02  8916   0.559E+01
DAV:   4    -0.184292391501E+03   -0.41616E+00   -0.41511E+00  8784   0.752E+00
DAV:   5    -0.184299604053E+03   -0.72126E-02   -0.72077E-02  8580   0.994E-01    0.267E+01
DAV:   6    -0.160316063976E+03    0.23984E+02   -0.71601E+01  8286   0.247E+01    0.898E+00
DAV:   7    -0.159618455573E+03    0.69761E+00   -0.62974E+00  8388   0.785E+00    0.558E+00
DAV:   8    -0.159496312858E+03    0.12214E+00   -0.33246E-01  8556   0.227E+00    0.966E-01
DAV:   9    -0.159484781418E+03    0.11531E-01   -0.59519E-02  8556   0.945E-01    0.383E-01
DAV:  10    -0.159484420155E+03    0.36126E-03   -0.18730E-02  8484   0.461E-01    0.180E-01
DAV:  11    -0.159484360659E+03    0.59495E-04   -0.15534E-03  8592   0.155E-01    0.115E-01
DAV:  12    -0.159484375619E+03   -0.14960E-04   -0.40371E-04  8460   0.705E-02    0.233E-02
DAV:  13    -0.159484369924E+03    0.56944E-05   -0.73220E-05  8016   0.300E-02
   1 F= -.86617541E+02 E0= -.86617541E+02  d E =-.866175E+02
       N       E                     dE             d eps       ncg     rms          rms(c)
DAV:   1    -0.159503820208E+03   -0.19445E-01   -0.31893E-03  7716   0.228E-01    0.184E-02
DAV:   2    -0.159503811521E+03    0.86867E-05   -0.70174E-05  8916   0.319E-02
   2 F= -.86617550E+02 E0= -.86617550E+02  d E =-.907948E-05
