Al4C3 Pnma - H(P) scan @ 50 GPa (ISIF=8)
           1
     8.288293    0.000000    0.000000
     0.000000    2.859310    0.000000
     0.000000    0.000000    9.852446
   Al   C 
    16    12
Direct configuration=     1
   0.26293545  0.25000000  0.29820204
   0.23706455  0.75000000  0.79820204
   0.73706455  0.75000000  0.70179796
   0.76293545  0.25000000  0.20179796
   0.34689075  0.25000000  0.01120119
   0.15310925  0.75000000  0.51120119
   0.65310925  0.75000000  0.98879881
   0.84689075  0.25000000  0.48879881
   0.52254763  0.25000000  0.79422271
   0.97745237  0.75000000  0.29422271
   0.47745237  0.75000000  0.20577729
   0.02254763  0.25000000  0.70577729
   0.06897056  0.25000000  0.08949562
   0.43102944  0.75000000  0.58949562
   0.93102944  0.75000000  0.91050438
   0.56897056  0.25000000  0.41050438
   0.25925427  0.25000000  0.64193151
   0.24074573  0.75000000  0.14193151
   0.74074573  0.75000000  0.35806849
   0.75925427  0.25000000  0.85806849
   0.60434528  0.25000000  0.60820828
   0.89565472  0.75000000  0.10820828
   0.39565472  0.75000000  0.39179172
   0.10434528  0.25000000  0.89179172
   0.06414186  0.25000000  0.38915105
   0.43585814  0.75000000  0.88915105
   0.93585814  0.75000000  0.61084895
   0.56414186  0.25000000  0.11084895
Al4C3 Pnma - H(P) scan @ 50 GPa (ISIF=8)
           1
     8.289029    0.000000    0.000000
     0.000000    2.859565    0.000000
     0.000000    0.000000    9.853322
   Al   C 
    16    12
Direct configuration=     2
   0.26293127  0.25000000  0.29819342
   0.23706873  0.75000000  0.79819342
   0.73706873  0.75000000  0.70180658
   0.76293127  0.25000000  0.20180658
   0.34690304  0.25000000  0.01121671
   0.15309696  0.75000000  0.51121671
   0.65309696  0.75000000  0.98878329
   0.84690304  0.25000000  0.48878329
   0.52250091  0.25000000  0.79425364
   0.97749909  0.75000000  0.29425364
   0.47749909  0.75000000  0.20574636
   0.02250091  0.25000000  0.70574636
   0.06895905  0.25000000  0.08948059
   0.43104095  0.75000000  0.58948059
   0.93104095  0.75000000  0.91051941
   0.56895905  0.25000000  0.41051941
   0.25922352  0.25000000  0.64192263
   0.24077648  0.75000000  0.14192263
   0.74077648  0.75000000  0.35807737
   0.75922352  0.25000000  0.85807737
   0.60435317  0.25000000  0.60818299
   0.89564683  0.75000000  0.10818299
   0.39564683  0.75000000  0.39181701
   0.10435317  0.25000000  0.89181701
   0.06417601  0.25000000  0.38912724
   0.43582399  0.75000000  0.88912724
   0.93582399  0.75000000  0.61087276
   0.56417601  0.25000000  0.11087276
