Al4C3 Pnma (POSCAR.III, symmetrized via 
   1.00000000000000     
     8.3473012277626673    0.0000000000000000    0.0000000000000000
     0.0000000000000000    2.8148740561523100    0.0000000000000000
     0.0000000000000000    0.0000000000000000    9.1011151770193095
   Al   C 
    16    12
Direct
  0.7356619418944871  0.2500000000000000  0.7119663142479767
  0.7643380581055129  0.7500000000000000  0.2119663142479767
  0.2643380581055130  0.7500000000000000  0.2880336857520234
  0.2356619418944870  0.2500000000000000  0.7880336857520233
  0.6053262780674268  0.2500000000000000  0.4685945658424470
  0.8946737219325732  0.7500000000000000  0.9685945658424471
  0.3946737219325733  0.7500000000000000  0.5314054341575529
  0.1053262780674268  0.2500000000000000  0.0314054341575530
  0.1398161959855309  0.2500000000000000  0.5177502619658495
  0.3601838040144691  0.7500000000000000  0.0177502619658498
  0.8601838040144690  0.7500000000000000  0.4822497380341502
  0.6398161959855310  0.2500000000000000  0.9822497380341505
  0.9962386827394215  0.2500000000000000  0.2780326565547552
  0.5037613172605785  0.7500000000000000  0.7780326565547552
  0.0037613172605786  0.7500000000000000  0.7219673434452448
  0.4962386827394214  0.2500000000000000  0.2219673434452448
  0.9289054586277858  0.2500000000000000  0.6175002297372956
  0.5710945413722142  0.7500000000000000  0.1175002297372954
  0.0710945413722212  0.7500000000000000  0.3824997702627046
  0.4289054586277860  0.2500000000000000  0.8824997702627044
  0.3885566502755458  0.2500000000000000  0.4032670893265251
  0.1114433497244543  0.7500000000000000  0.9032670893265176
  0.6114433497244544  0.7500000000000000  0.5967329106734824
  0.8885566502755456  0.2500000000000000  0.0967329106734822
  0.7737542081918178  0.2500000000000000  0.3518919872665119
  0.7262457918081822  0.7500000000000000  0.8518919872665119
  0.2262457918081821  0.7500000000000000  0.6481080127334881
  0.2737542081918179  0.2500000000000000  0.1481080127334881
 
  0.00000000E+00  0.00000000E+00  0.00000000E+00
  0.00000000E+00  0.00000000E+00  0.00000000E+00
  0.00000000E+00  0.00000000E+00  0.00000000E+00
  0.00000000E+00  0.00000000E+00  0.00000000E+00
  0.00000000E+00  0.00000000E+00  0.00000000E+00
  0.00000000E+00  0.00000000E+00  0.00000000E+00
  0.00000000E+00  0.00000000E+00  0.00000000E+00
  0.00000000E+00  0.00000000E+00  0.00000000E+00
  0.00000000E+00  0.00000000E+00  0.00000000E+00
  0.00000000E+00  0.00000000E+00  0.00000000E+00
  0.00000000E+00  0.00000000E+00  0.00000000E+00
  0.00000000E+00  0.00000000E+00  0.00000000E+00
  0.00000000E+00  0.00000000E+00  0.00000000E+00
  0.00000000E+00  0.00000000E+00  0.00000000E+00
  0.00000000E+00  0.00000000E+00  0.00000000E+00
  0.00000000E+00  0.00000000E+00  0.00000000E+00
  0.00000000E+00  0.00000000E+00  0.00000000E+00
  0.00000000E+00  0.00000000E+00  0.00000000E+00
  0.00000000E+00  0.00000000E+00  0.00000000E+00
  0.00000000E+00  0.00000000E+00  0.00000000E+00
  0.00000000E+00  0.00000000E+00  0.00000000E+00
  0.00000000E+00  0.00000000E+00  0.00000000E+00
  0.00000000E+00  0.00000000E+00  0.00000000E+00
  0.00000000E+00  0.00000000E+00  0.00000000E+00
  0.00000000E+00  0.00000000E+00  0.00000000E+00
  0.00000000E+00  0.00000000E+00  0.00000000E+00
  0.00000000E+00  0.00000000E+00  0.00000000E+00
  0.00000000E+00  0.00000000E+00  0.00000000E+00
