       N       E                     dE             d eps       ncg     rms          rms(c)
DAV:   1    -0.225758917965E+03   -0.22576E+03   -0.46582E+00  8316   0.104E+01    0.918E+00
DAV:   2    -0.210769168780E+03    0.14990E+02   -0.12934E+00  9042   0.626E+00    0.661E+00
DAV:   3    -0.211170922452E+03   -0.40175E+00   -0.20540E-01  9624   0.211E+00    0.510E+00
DAV:   4    -0.211209805292E+03   -0.38883E-01   -0.11306E-01  9786   0.122E+00    0.101E+00
DAV:   5    -0.211211725611E+03   -0.19203E-02   -0.73077E-03  9456   0.338E-01    0.447E-01
DAV:   6    -0.211212355467E+03   -0.62986E-03   -0.18012E-03  9684   0.158E-01    0.165E-01
DAV:   7    -0.211212401967E+03   -0.46501E-04   -0.76527E-05  9828   0.367E-02    0.109E-01
DAV:   8    -0.211212394896E+03    0.70715E-05   -0.12457E-04  9972   0.484E-02    0.536E-02
DAV:   9    -0.211212400384E+03   -0.54878E-05   -0.56683E-05  9090   0.310E-02
   1 F= -.76904054E+02 E0= -.76904054E+02  d E =-.769041E+02
       N       E                     dE             d eps       ncg     rms          rms(c)
DAV:   1    -0.207773969159E+03    0.34384E+01   -0.35000E+00  8556   0.809E+00    0.135E+00
DAV:   2    -0.207759351493E+03    0.14618E-01   -0.10891E-01  9954   0.127E+00    0.825E-01
DAV:   3    -0.207759255915E+03    0.95578E-04   -0.18035E-02  9678   0.442E-01    0.346E-01
DAV:   4    -0.207759751026E+03   -0.49511E-03   -0.94133E-04  9876   0.122E-01    0.158E-01
DAV:   5    -0.207759865389E+03   -0.11436E-03   -0.23563E-04  9546   0.598E-02    0.105E-01
DAV:   6    -0.207759988124E+03   -0.12273E-03   -0.46348E-05  9396   0.350E-02    0.290E-02
DAV:   7    -0.207759989416E+03   -0.12920E-05   -0.11313E-05  5052   0.139E-02
   2 F= -.76787028E+02 E0= -.76787028E+02  d E =0.117026E+00
       N       E                     dE             d eps       ncg     rms          rms(c)
DAV:   1    -0.210277076299E+03   -0.25171E+01   -0.17551E+00  8526   0.566E+00    0.958E-01
DAV:   2    -0.210269594068E+03    0.74822E-02   -0.55342E-02  9966   0.903E-01    0.595E-01
DAV:   3    -0.210268810325E+03    0.78374E-03   -0.92004E-03  9666   0.314E-01    0.257E-01
DAV:   4    -0.210268685172E+03    0.12515E-03   -0.45514E-04  9912   0.862E-02    0.116E-01
DAV:   5    -0.210268616533E+03    0.68640E-04   -0.13035E-04  9432   0.441E-02    0.750E-02
DAV:   6    -0.210268533077E+03    0.83456E-04   -0.24104E-05  6402   0.252E-02    0.194E-02
DAV:   7    -0.210268528477E+03    0.46002E-05   -0.72625E-06  5010   0.110E-02
   3 F= -.76926418E+02 E0= -.76926418E+02  d E =-.223642E-01
       N       E                     dE             d eps       ncg     rms          rms(c)
DAV:   1    -0.210277352840E+03   -0.88198E-02   -0.25939E-05  6276   0.223E-02    0.557E-03
DAV:   2    -0.210277351142E+03    0.16974E-05   -0.11811E-06  4692   0.490E-03
   4 F= -.76926420E+02 E0= -.76926420E+02  d E =-.223666E-01
       N       E                     dE             d eps       ncg     rms          rms(c)
DAV:   1    -0.210391794655E+03   -0.11444E+00   -0.22688E-01  8334   0.198E+00    0.110E-01
DAV:   2    -0.210391721593E+03    0.73062E-04   -0.38960E-03 10056   0.250E-01    0.739E-02
DAV:   3    -0.210391638108E+03    0.83485E-04   -0.32827E-04 10302   0.814E-02    0.403E-02
DAV:   4    -0.210391644550E+03   -0.64417E-05   -0.14039E-04  9762   0.437E-02    0.170E-02
DAV:   5    -0.210391646145E+03   -0.15950E-05   -0.78562E-06  5106   0.130E-02
   5 F= -.76928884E+02 E0= -.76928884E+02  d E =-.246327E-02
       N       E                     dE             d eps       ncg     rms          rms(c)
DAV:   1    -0.210389094704E+03    0.25498E-02   -0.13463E-04  7788   0.483E-02    0.365E-03
DAV:   2    -0.210389093553E+03    0.11504E-05   -0.32902E-06  4518   0.700E-03
   6 F= -.76928889E+02 E0= -.76928889E+02  d E =-.246815E-02
       N       E                     dE             d eps       ncg     rms          rms(c)
DAV:   1    -0.210406665381E+03   -0.17571E-01   -0.90546E-02  8328   0.124E+00    0.654E-02
DAV:   2    -0.210406644122E+03    0.21259E-04   -0.12963E-03  9984   0.145E-01    0.425E-02
DAV:   3    -0.210406595932E+03    0.48190E-04   -0.73823E-05  9810   0.370E-02    0.234E-02
DAV:   4    -0.210406583825E+03    0.12107E-04   -0.61311E-05  9234   0.299E-02    0.682E-03
DAV:   5    -0.210406584970E+03   -0.11447E-05   -0.78794E-06  4830   0.109E-02
   7 F= -.76929315E+02 E0= -.76929315E+02  d E =-.425908E-03
       N       E                     dE             d eps       ncg     rms          rms(c)
DAV:   1    -0.210403335384E+03    0.32484E-02   -0.33323E-03  8334   0.237E-01    0.127E-02
DAV:   2    -0.210403337135E+03   -0.17514E-05   -0.45823E-05  9486   0.273E-02
   8 F= -.76929343E+02 E0= -.76929343E+02  d E =-.454365E-03
       N       E                     dE             d eps       ncg     rms          rms(c)
DAV:   1    -0.210390214521E+03    0.13121E-01   -0.31270E-02  8316   0.730E-01    0.358E-02
DAV:   2    -0.210390219851E+03   -0.53300E-05   -0.59264E-04  9954   0.958E-02    0.245E-02
DAV:   3    -0.210390216988E+03    0.28635E-05   -0.28433E-05  7512   0.240E-02
   9 F= -.76929548E+02 E0= -.76929548E+02  d E =-.205188E-03
       N       E                     dE             d eps       ncg     rms          rms(c)
DAV:   1    -0.210393033030E+03   -0.28132E-02   -0.14470E-03  8364   0.157E-01    0.851E-03
DAV:   2    -0.210393037389E+03   -0.43589E-05   -0.38181E-05  8028   0.235E-02
  10 F= -.76929575E+02 E0= -.76929575E+02  d E =-.232497E-03
       N       E                     dE             d eps       ncg     rms          rms(c)
DAV:   1    -0.210411124070E+03   -0.18091E-01   -0.18354E-02  8316   0.539E-01    0.297E-02
DAV:   2    -0.210411111302E+03    0.12768E-04   -0.33898E-04 10062   0.739E-02    0.199E-02
DAV:   3    -0.210411102427E+03    0.88753E-05   -0.20810E-05  6996   0.210E-02
  11 F= -.76929649E+02 E0= -.76929649E+02  d E =-.733393E-04
       N       E                     dE             d eps       ncg     rms          rms(c)
DAV:   1    -0.210406992548E+03    0.41188E-02   -0.10275E-03  8340   0.128E-01    0.680E-03
DAV:   2    -0.210406996199E+03   -0.36513E-05   -0.26489E-05  7272   0.205E-02
  12 F= -.76929662E+02 E0= -.76929662E+02  d E =-.862379E-04
       N       E                     dE             d eps       ncg     rms          rms(c)
DAV:   1    -0.210401349134E+03    0.56434E-02   -0.22001E-03  8436   0.189E-01    0.116E-02
DAV:   2    -0.210401357202E+03   -0.80680E-05   -0.60553E-05  9942   0.306E-02
  13 F= -.76929691E+02 E0= -.76929691E+02  d E =-.291481E-04
