  28  28   0   0
  0.7456934E+01  0.2681697E-09  0.8192608E-09  0.9503561E-09  0.5000000E-15
  1.000000000000000E-004
  CAR 
 Al4C3 anti-CaFe2O4 - r2SCAN H(P) scan @ 
     23.85219276     -6.32370604  301     14.20847843      1.00000000
     -6.324  0.0000E+00  0.0000E+00
     -6.223  0.0000E+00  0.0000E+00
     -6.123  0.0000E+00  0.0000E+00
     -6.022  0.0000E+00  0.0000E+00
     -5.921  0.0000E+00  0.0000E+00
     -5.821  0.0000E+00  0.0000E+00
     -5.720  0.0000E+00  0.0000E+00
     -5.620  0.0000E+00  0.0000E+00
     -5.519  0.0000E+00  0.0000E+00
     -5.418  0.0000E+00  0.0000E+00
     -5.318  0.0000E+00  0.0000E+00
     -5.217  0.1647E-16  0.1657E-17
     -5.117  0.8369E-09  0.8418E-10
     -5.016  0.1819E-04  0.1829E-05
     -4.915  0.4907E-03  0.5118E-04
     -4.815  0.2225E-02  0.2750E-03
     -4.714  0.4388E-02  0.7164E-03
     -4.614  0.4563E-02  0.1175E-02
     -4.513  0.3622E-02  0.1540E-02
     -4.413  0.5440E-02  0.2087E-02
     -4.312  0.9469E-02  0.3039E-02
     -4.211  0.9253E-02  0.3970E-02
     -4.111  0.4600E-02  0.4433E-02
     -4.010  0.6693E-02  0.5106E-02
     -3.910  0.1027E-01  0.6139E-02
     -3.809  0.9668E-02  0.7111E-02
     -3.708  0.5705E-02  0.7685E-02
     -3.608  0.1102E-01  0.8794E-02
     -3.507  0.1348E-01  0.1015E-01
     -3.407  0.1141E-01  0.1130E-01
     -3.306  0.1200E-01  0.1250E-01
     -3.206  0.9785E-02  0.1349E-01
     -3.105  0.8294E-02  0.1432E-01
     -3.004  0.1163E-01  0.1549E-01
     -2.904  0.1678E-01  0.1718E-01
     -2.803  0.1129E-01  0.1832E-01
     -2.703  0.1233E-01  0.1956E-01
     -2.602  0.1228E-01  0.2079E-01
     -2.501  0.1724E-01  0.2253E-01
     -2.401  0.1926E-01  0.2446E-01
     -2.300  0.1858E-01  0.2633E-01
     -2.200  0.8415E-02  0.2718E-01
     -2.099  0.1307E-01  0.2849E-01
     -1.998  0.1625E-01  0.3013E-01
     -1.898  0.1382E-01  0.3152E-01
     -1.797  0.1365E-01  0.3289E-01
     -1.697  0.2600E-01  0.3551E-01
     -1.596  0.2152E-01  0.3767E-01
     -1.496  0.1808E-01  0.3949E-01
     -1.395  0.2078E-01  0.4158E-01
     -1.294  0.2075E-01  0.4367E-01
     -1.194  0.1909E-01  0.4559E-01
     -1.093  0.1851E-01  0.4745E-01
     -0.993  0.1640E-01  0.4910E-01
     -0.892  0.1326E-01  0.5043E-01
     -0.791  0.2219E-01  0.5266E-01
     -0.691  0.4041E-01  0.5673E-01
     -0.590  0.2428E-01  0.5917E-01
     -0.490  0.2418E-01  0.6160E-01
     -0.389  0.2871E-01  0.6449E-01
     -0.289  0.2927E-01  0.6743E-01
     -0.188  0.3253E-01  0.7071E-01
     -0.087  0.2662E-01  0.7338E-01
      0.013  0.2852E-01  0.7625E-01
      0.114  0.4502E-01  0.8078E-01
      0.214  0.2883E-01  0.8368E-01
      0.315  0.3350E-01  0.8705E-01
      0.416  0.3520E-01  0.9059E-01
      0.516  0.3577E-01  0.9419E-01
      0.617  0.3412E-01  0.9762E-01
      0.717  0.3363E-01  0.1010E+00
      0.818  0.1622E-01  0.1026E+00
      0.919  0.2090E-01  0.1047E+00
      1.019  0.1285E-01  0.1060E+00
      1.120  0.1531E-01  0.1076E+00
      1.220  0.1317E-01  0.1089E+00
      1.321  0.1266E-01  0.1102E+00
      1.421  0.7204E-02  0.1109E+00
      1.522  0.1925E-01  0.1128E+00
      1.623  0.9825E-02  0.1138E+00
      1.723  0.6204E-02  0.1144E+00
      1.824  0.1125E-01  0.1156E+00
      1.924  0.1117E-01  0.1167E+00
      2.025  0.7126E-02  0.1174E+00
      2.126  0.4962E-02  0.1179E+00
      2.226  0.8388E-02  0.1188E+00
      2.327  0.8037E-02  0.1196E+00
      2.427  0.3586E-02  0.1199E+00
      2.528  0.7432E-03  0.1200E+00
      2.628  0.2145E-05  0.1200E+00
      2.729  0.5838E-06  0.1200E+00
      2.830  0.3521E-03  0.1200E+00
      2.930  0.1081E-02  0.1201E+00
      3.031  0.3147E-02  0.1205E+00
      3.131  0.4045E-02  0.1209E+00
      3.232  0.6621E-02  0.1215E+00
      3.333  0.5771E-02  0.1221E+00
      3.433  0.6682E-02  0.1228E+00
      3.534  0.1073E-01  0.1239E+00
      3.634  0.1131E-01  0.1250E+00
      3.735  0.1481E-01  0.1265E+00
      3.836  0.1367E-01  0.1279E+00
      3.936  0.2490E-01  0.1304E+00
      4.037  0.3697E-01  0.1341E+00
      4.137  0.2965E-01  0.1371E+00
      4.238  0.2893E-01  0.1400E+00
      4.338  0.2695E-01  0.1427E+00
      4.439  0.3007E-01  0.1457E+00
      4.540  0.3066E-01  0.1488E+00
      4.640  0.3571E-01  0.1524E+00
      4.741  0.3086E-01  0.1555E+00
      4.841  0.3208E-01  0.1587E+00
      4.942  0.4446E-01  0.1632E+00
      5.043  0.4561E-01  0.1678E+00
      5.143  0.2443E-01  0.1702E+00
      5.244  0.3110E-01  0.1734E+00
      5.344  0.4038E-01  0.1774E+00
      5.445  0.2627E-01  0.1801E+00
      5.545  0.2111E-01  0.1822E+00
      5.646  0.2999E-01  0.1852E+00
      5.747  0.2787E-01  0.1880E+00
      5.847  0.4002E-01  0.1920E+00
      5.948  0.2776E-01  0.1948E+00
      6.048  0.3061E-01  0.1979E+00
      6.149  0.2808E-01  0.2007E+00
      6.250  0.2529E-01  0.2033E+00
      6.350  0.3330E-01  0.2066E+00
      6.451  0.4367E-01  0.2110E+00
      6.551  0.3831E-01  0.2149E+00
      6.652  0.3097E-01  0.2180E+00
      6.753  0.3244E-01  0.2213E+00
      6.853  0.3394E-01  0.2247E+00
      6.954  0.2473E-01  0.2272E+00
      7.054  0.3612E-01  0.2308E+00
      7.155  0.2931E-01  0.2337E+00
      7.255  0.2820E-01  0.2366E+00
      7.356  0.3689E-01  0.2403E+00
      7.457  0.4480E-01  0.2448E+00
      7.557  0.3162E-01  0.2480E+00
      7.658  0.4070E-01  0.2521E+00
      7.758  0.3214E-01  0.2553E+00
      7.859  0.4406E-01  0.2597E+00
      7.960  0.3772E-01  0.2635E+00
      8.060  0.3749E-01  0.2673E+00
      8.161  0.4235E-01  0.2716E+00
      8.261  0.4968E-01  0.2766E+00
      8.362  0.3615E-01  0.2802E+00
      8.462  0.3719E-01  0.2839E+00
      8.563  0.2797E-01  0.2867E+00
      8.664  0.3724E-01  0.2905E+00
      8.764  0.3591E-01  0.2941E+00
      8.865  0.3096E-01  0.2972E+00
      8.965  0.4311E-01  0.3016E+00
      9.066  0.3622E-01  0.3052E+00
      9.167  0.3087E-01  0.3083E+00
      9.267  0.3932E-01  0.3123E+00
      9.368  0.2506E-01  0.3148E+00
      9.468  0.4175E-01  0.3190E+00
      9.569  0.4520E-01  0.3235E+00
      9.670  0.5116E-01  0.3287E+00
      9.770  0.4178E-01  0.3329E+00
      9.871  0.2810E-01  0.3357E+00
      9.971  0.3975E-01  0.3397E+00
     10.072  0.4316E-01  0.3440E+00
     10.172  0.5100E-01  0.3492E+00
     10.273  0.4916E-01  0.3541E+00
     10.374  0.3499E-01  0.3576E+00
     10.474  0.3370E-01  0.3610E+00
     10.575  0.3506E-01  0.3645E+00
     10.675  0.2900E-01  0.3675E+00
     10.776  0.3599E-01  0.3711E+00
     10.877  0.5751E-01  0.3769E+00
     10.977  0.6410E-01  0.3833E+00
     11.078  0.5914E-01  0.3893E+00
     11.178  0.5200E-01  0.3945E+00
     11.279  0.3968E-01  0.3985E+00
     11.379  0.5880E-01  0.4044E+00
     11.480  0.4589E-01  0.4090E+00
     11.581  0.6698E-01  0.4158E+00
     11.681  0.7319E-01  0.4231E+00
     11.782  0.5307E-01  0.4285E+00
     11.882  0.6528E-01  0.4350E+00
     11.983  0.4111E-01  0.4392E+00
     12.084  0.4335E-01  0.4435E+00
     12.184  0.4526E-01  0.4481E+00
     12.285  0.3387E-01  0.4515E+00
     12.385  0.3528E-01  0.4550E+00
     12.486  0.3454E-01  0.4585E+00
     12.587  0.3456E-01  0.4620E+00
     12.687  0.1124E-01  0.4631E+00
     12.788  0.1959E-01  0.4651E+00
     12.888  0.1830E-01  0.4669E+00
     12.989  0.1696E-01  0.4686E+00
     13.089  0.2084E-01  0.4707E+00
     13.190  0.2250E-01  0.4730E+00
     13.291  0.2209E-01  0.4752E+00
     13.391  0.1253E-01  0.4765E+00
     13.492  0.2624E-02  0.4767E+00
     13.592  0.3247E-02  0.4771E+00
     13.693  0.5104E-02  0.4776E+00
     13.794  0.6778E-02  0.4783E+00
     13.894  0.9832E-02  0.4792E+00
     13.995  0.6887E-02  0.4799E+00
     14.095  0.6570E-03  0.4800E+00
     14.196  0.3545E-06  0.4800E+00
     14.296  0.1918E-12  0.4800E+00
     14.397  0.0000E+00  0.4800E+00
     14.498  0.0000E+00  0.4800E+00
     14.598  0.0000E+00  0.4800E+00
     14.699  0.7232E-12  0.4800E+00
     14.799  0.1170E-05  0.4800E+00
     14.900  0.1284E-02  0.4801E+00
     15.001  0.6738E-02  0.4808E+00
     15.101  0.1387E-01  0.4822E+00
     15.202  0.9467E-02  0.4832E+00
     15.302  0.1194E-01  0.4844E+00
     15.403  0.1537E-01  0.4859E+00
     15.504  0.1446E-01  0.4874E+00
     15.604  0.1658E-01  0.4890E+00
     15.705  0.2338E-01  0.4914E+00
     15.805  0.1541E-01  0.4929E+00
     15.906  0.1017E-01  0.4939E+00
     16.006  0.9763E-02  0.4949E+00
     16.107  0.1589E-01  0.4965E+00
     16.208  0.1621E-01  0.4982E+00
     16.308  0.2013E-01  0.5002E+00
     16.409  0.3478E-01  0.5037E+00
     16.509  0.3111E-01  0.5068E+00
     16.610  0.2146E-01  0.5090E+00
     16.711  0.2718E-01  0.5117E+00
     16.811  0.1949E-01  0.5137E+00
     16.912  0.2286E-01  0.5160E+00
     17.012  0.2043E-01  0.5180E+00
     17.113  0.3140E-01  0.5212E+00
     17.213  0.2553E-01  0.5237E+00
     17.314  0.2382E-01  0.5261E+00
     17.415  0.1746E-01  0.5279E+00
     17.515  0.1669E-01  0.5296E+00
     17.616  0.2222E-01  0.5318E+00
     17.716  0.3018E-01  0.5348E+00
     17.817  0.2372E-01  0.5372E+00
     17.918  0.2250E-01  0.5395E+00
     18.018  0.3068E-01  0.5426E+00
     18.119  0.3014E-01  0.5456E+00
     18.219  0.2615E-01  0.5482E+00
     18.320  0.2973E-01  0.5512E+00
     18.421  0.3286E-01  0.5545E+00
     18.521  0.3982E-01  0.5585E+00
     18.622  0.3402E-01  0.5620E+00
     18.722  0.2684E-01  0.5647E+00
     18.823  0.3333E-01  0.5680E+00
     18.923  0.4555E-01  0.5726E+00
     19.024  0.3882E-01  0.5765E+00
     19.125  0.3481E-01  0.5800E+00
     19.225  0.2803E-01  0.5828E+00
     19.326  0.3334E-01  0.5862E+00
     19.426  0.3307E-01  0.5895E+00
     19.527  0.2359E-01  0.5919E+00
     19.628  0.3116E-01  0.5950E+00
     19.728  0.2983E-01  0.5980E+00
     19.829  0.2079E-01  0.6001E+00
     19.929  0.2803E-01  0.6029E+00
     20.030  0.2965E-01  0.6059E+00
     20.130  0.3943E-01  0.6099E+00
     20.231  0.2395E-01  0.6123E+00
     20.332  0.2877E-01  0.6152E+00
     20.432  0.3617E-01  0.6188E+00
     20.533  0.2726E-01  0.6216E+00
     20.633  0.1768E-01  0.6233E+00
     20.734  0.1675E-01  0.6250E+00
     20.835  0.1983E-01  0.6270E+00
     20.935  0.3772E-01  0.6308E+00
     21.036  0.2267E-01  0.6331E+00
     21.136  0.2500E-01  0.6356E+00
     21.237  0.2002E-01  0.6376E+00
     21.338  0.2692E-01  0.6403E+00
     21.438  0.1722E-01  0.6421E+00
     21.539  0.2612E-01  0.6447E+00
     21.639  0.2793E-01  0.6475E+00
     21.740  0.1063E-01  0.6486E+00
     21.840  0.2054E-01  0.6506E+00
     21.941  0.1204E-01  0.6518E+00
     22.042  0.2068E-01  0.6539E+00
     22.142  0.1620E-01  0.6555E+00
     22.243  0.1902E-01  0.6575E+00
     22.343  0.1512E-01  0.6590E+00
     22.444  0.7817E-02  0.6598E+00
     22.545  0.2246E-02  0.6600E+00
     22.645  0.7365E-04  0.6600E+00
     22.746  0.3349E-08  0.6600E+00
     22.846  0.6577E-16  0.6600E+00
     22.947  0.0000E+00  0.6600E+00
     23.048  0.0000E+00  0.6600E+00
     23.148  0.0000E+00  0.6600E+00
     23.249  0.0000E+00  0.6600E+00
     23.349  0.0000E+00  0.6600E+00
     23.450  0.0000E+00  0.6600E+00
     23.550  0.0000E+00  0.6600E+00
     23.651  0.0000E+00  0.6600E+00
     23.752  0.0000E+00  0.6600E+00
     23.852  0.0000E+00  0.6600E+00
