       N       E                     dE             d eps       ncg     rms          rms(c)
DAV:   1    -0.222508449123E+03   -0.22251E+03   -0.47338E+00  8316   0.104E+01    0.914E+00
DAV:   2    -0.207752941343E+03    0.14756E+02   -0.13102E+00  9114   0.633E+00    0.655E+00
DAV:   3    -0.208118675838E+03   -0.36573E+00   -0.19122E-01  9648   0.206E+00    0.512E+00
DAV:   4    -0.208151936097E+03   -0.33260E-01   -0.87978E-02  9540   0.109E+00    0.968E-01
DAV:   5    -0.208153787956E+03   -0.18519E-02   -0.44657E-03  9666   0.248E-01    0.422E-01
DAV:   6    -0.208154206693E+03   -0.41874E-03   -0.67948E-04  9684   0.101E-01    0.206E-01
DAV:   7    -0.208154290224E+03   -0.83531E-04   -0.54429E-05  9600   0.352E-02    0.108E-01
DAV:   8    -0.208154289660E+03    0.56453E-06   -0.10584E-04  9522   0.429E-02    0.318E-02
DAV:   9    -0.208154286207E+03    0.34530E-05   -0.10787E-05  5010   0.128E-02
   1 F= -.77835292E+02 E0= -.77835292E+02  d E =-.778353E+02
       N       E                     dE             d eps       ncg     rms          rms(c)
DAV:   1    -0.204560884843E+03    0.35934E+01   -0.29033E+00  8598   0.736E+00    0.145E+00
DAV:   2    -0.204545847054E+03    0.15038E-01   -0.10744E-01 10002   0.123E+00    0.845E-01
DAV:   3    -0.204545629041E+03    0.21801E-03   -0.17261E-02  9456   0.421E-01    0.330E-01
DAV:   4    -0.204546158279E+03   -0.52924E-03   -0.63847E-04 10020   0.103E-01    0.183E-01
DAV:   5    -0.204546233411E+03   -0.75133E-04   -0.16361E-04  9624   0.483E-02    0.129E-01
DAV:   6    -0.204546373482E+03   -0.14007E-03   -0.73518E-05  9144   0.470E-02    0.158E-02
DAV:   7    -0.204546360661E+03    0.12821E-04   -0.54072E-06  5022   0.945E-03    0.997E-03
DAV:   8    -0.204546355669E+03    0.49916E-05   -0.57955E-07  4902   0.359E-03
   2 F= -.77716705E+02 E0= -.77716705E+02  d E =0.118587E+00
       N       E                     dE             d eps       ncg     rms          rms(c)
DAV:   1    -0.207178762076E+03   -0.26324E+01   -0.14569E+00  8574   0.515E+00    0.103E+00
DAV:   2    -0.207171752327E+03    0.70097E-02   -0.55301E-02 10020   0.882E-01    0.605E-01
DAV:   3    -0.207171107436E+03    0.64489E-03   -0.87979E-03  9468   0.299E-01    0.242E-01
DAV:   4    -0.207171097456E+03    0.99800E-05   -0.32145E-04 10068   0.740E-02    0.132E-01
DAV:   5    -0.207171064688E+03    0.32768E-04   -0.86771E-05  9216   0.351E-02    0.920E-02
DAV:   6    -0.207170987132E+03    0.77556E-04   -0.36317E-05  8226   0.331E-02    0.915E-03
DAV:   7    -0.207170992979E+03   -0.58469E-05   -0.35492E-06  4956   0.746E-03
   3 F= -.77857727E+02 E0= -.77857727E+02  d E =-.224351E-01
       N       E                     dE             d eps       ncg     rms          rms(c)
DAV:   1    -0.207216453711E+03   -0.45467E-01   -0.22109E-01  8328   0.192E+00    0.103E-01
DAV:   2    -0.207216334285E+03    0.11943E-03   -0.40217E-03  9846   0.259E-01    0.672E-02
DAV:   3    -0.207216261944E+03    0.72341E-04   -0.24451E-04  9960   0.669E-02    0.398E-02
DAV:   4    -0.207216247012E+03    0.14932E-04   -0.93735E-05  9486   0.363E-02    0.151E-02
DAV:   5    -0.207216247068E+03   -0.55221E-07   -0.10764E-05  5304   0.133E-02
   4 F= -.77859703E+02 E0= -.77859703E+02  d E =-.197607E-02
       N       E                     dE             d eps       ncg     rms          rms(c)
DAV:   1    -0.207226455664E+03   -0.10209E-01   -0.11971E-02  8352   0.447E-01    0.242E-02
DAV:   2    -0.207226456894E+03   -0.12300E-05   -0.21464E-04  9900   0.599E-02    0.153E-02
DAV:   3    -0.207226454419E+03    0.24755E-05   -0.11864E-05  5874   0.157E-02
   5 F= -.77859803E+02 E0= -.77859803E+02  d E =-.207634E-02
       N       E                     dE             d eps       ncg     rms          rms(c)
DAV:   1    -0.207278366268E+03   -0.51909E-01   -0.18652E-01  8328   0.179E+00    0.863E-02
DAV:   2    -0.207278362345E+03    0.39229E-05   -0.25567E-03 10002   0.208E-01    0.554E-02
DAV:   3    -0.207278293377E+03    0.68968E-04   -0.13557E-04  9846   0.490E-02    0.334E-02
DAV:   4    -0.207278270515E+03    0.22861E-04   -0.12866E-04  9768   0.449E-02    0.956E-03
DAV:   5    -0.207278273809E+03   -0.32938E-05   -0.23987E-05  5838   0.177E-02
   6 F= -.77860962E+02 E0= -.77860962E+02  d E =-.115857E-02
       N       E                     dE             d eps       ncg     rms          rms(c)
DAV:   1    -0.207282698628E+03   -0.44281E-02   -0.14324E-03  8538   0.157E-01    0.875E-03
DAV:   2    -0.207282699954E+03   -0.13257E-05   -0.20317E-05  7500   0.190E-02
   7 F= -.77860975E+02 E0= -.77860975E+02  d E =-.117160E-02
       N       E                     dE             d eps       ncg     rms          rms(c)
DAV:   1    -0.207245259296E+03    0.37439E-01   -0.13589E-01  8328   0.151E+00    0.787E-02
DAV:   2    -0.207245202676E+03    0.56620E-04   -0.21158E-03  9732   0.187E-01    0.520E-02
DAV:   3    -0.207245165087E+03    0.37589E-04   -0.11680E-04  9936   0.449E-02    0.314E-02
DAV:   4    -0.207245154905E+03    0.10182E-04   -0.69335E-05  9336   0.337E-02    0.932E-03
DAV:   5    -0.207245160057E+03   -0.51521E-05   -0.16280E-05  5628   0.139E-02
   8 F= -.77861568E+02 E0= -.77861568E+02  d E =-.593058E-03
       N       E                     dE             d eps       ncg     rms          rms(c)
DAV:   1    -0.207251188218E+03   -0.60333E-02   -0.33742E-03  8340   0.238E-01    0.122E-02
DAV:   2    -0.207251186051E+03    0.21672E-05   -0.52726E-05  9576   0.296E-02
   9 F= -.77861591E+02 E0= -.77861591E+02  d E =-.615737E-03
       N       E                     dE             d eps       ncg     rms          rms(c)
DAV:   1    -0.207272412692E+03   -0.21224E-01   -0.26345E-02  8328   0.676E-01    0.328E-02
DAV:   2    -0.207272417920E+03   -0.52274E-05   -0.40177E-04 10098   0.789E-02    0.205E-02
DAV:   3    -0.207272409660E+03    0.82599E-05   -0.15088E-05  6324   0.177E-02
  10 F= -.77861935E+02 E0= -.77861935E+02  d E =-.344132E-03
       N       E                     dE             d eps       ncg     rms          rms(c)
DAV:   1    -0.207280827683E+03   -0.84098E-02   -0.41531E-03  8406   0.269E-01    0.160E-02
DAV:   2    -0.207280824355E+03    0.33281E-05   -0.55665E-05 10140   0.300E-02
  11 F= -.77861959E+02 E0= -.77861959E+02  d E =-.368412E-03
       N       E                     dE             d eps       ncg     rms          rms(c)
DAV:   1    -0.207284870683E+03   -0.40430E-02   -0.41155E-02  8328   0.836E-01    0.453E-02
DAV:   2    -0.207284857208E+03    0.13475E-04   -0.60205E-04  9966   0.103E-01    0.278E-02
DAV:   3    -0.207284840087E+03    0.17120E-04   -0.43727E-05  9828   0.280E-02    0.170E-02
DAV:   4    -0.207284835622E+03    0.44655E-05   -0.21219E-05  5652   0.192E-02
  12 F= -.77862269E+02 E0= -.77862269E+02  d E =-.309739E-03
       N       E                     dE             d eps       ncg     rms          rms(c)
DAV:   1    -0.207286721108E+03   -0.18810E-02   -0.10105E-02  8340   0.414E-01    0.224E-02
DAV:   2    -0.207286720313E+03    0.79569E-06   -0.14330E-04  9990   0.503E-02    0.136E-02
DAV:   3    -0.207286716677E+03    0.36358E-05   -0.89445E-06  5574   0.136E-02
  13 F= -.77862316E+02 E0= -.77862316E+02  d E =-.357075E-03
       N       E                     dE             d eps       ncg     rms          rms(c)
DAV:   1    -0.207281005161E+03    0.57152E-02   -0.96888E-03  8340   0.408E-01    0.223E-02
DAV:   2    -0.207281008922E+03   -0.37612E-05   -0.19321E-04 10206   0.557E-02    0.153E-02
DAV:   3    -0.207281003298E+03    0.56236E-05   -0.80079E-06  5316   0.134E-02
  14 F= -.77862396E+02 E0= -.77862396E+02  d E =-.797083E-04
       N       E                     dE             d eps       ncg     rms          rms(c)
DAV:   1    -0.207282053696E+03   -0.10448E-02   -0.36638E-04  8382   0.793E-02    0.449E-03
DAV:   2    -0.207282054619E+03   -0.92343E-06   -0.11289E-05  4818   0.138E-02
  15 F= -.77862399E+02 E0= -.77862399E+02  d E =-.824352E-04
       N       E                     dE             d eps       ncg     rms          rms(c)
DAV:   1    -0.207280351684E+03    0.17020E-02   -0.64410E-03  8328   0.332E-01    0.157E-02
DAV:   2    -0.207280351828E+03   -0.14387E-06   -0.99017E-05  9996   0.403E-02
  16 F= -.77862425E+02 E0= -.77862425E+02  d E =-.262482E-04
       N       E                     dE             d eps       ncg     rms          rms(c)
DAV:   1    -0.207280911819E+03   -0.56014E-03   -0.67535E-04  8412   0.107E-01    0.535E-03
DAV:   2    -0.207280912272E+03   -0.45332E-06   -0.14197E-05  6354   0.149E-02
  17 F= -.77862430E+02 E0= -.77862430E+02  d E =-.317398E-04
