       N       E                     dE             d eps       ncg     rms          rms(c)
DAV:   1    -0.179703360868E+03   -0.17970E+03   -0.34591E+00  3732   0.106E+01    0.763E+00
DAV:   2    -0.167897910541E+03    0.11805E+02   -0.11989E+00  3804   0.667E+00    0.559E+00
DAV:   3    -0.168190211686E+03   -0.29230E+00   -0.16985E-01  4332   0.222E+00    0.444E+00
DAV:   4    -0.168214578808E+03   -0.24367E-01   -0.11337E-01  4344   0.138E+00    0.945E-01
DAV:   5    -0.168215405988E+03   -0.82718E-03   -0.95863E-03  4164   0.443E-01    0.348E-01
DAV:   6    -0.168215426681E+03   -0.20694E-04   -0.25339E-03  4392   0.196E-01    0.201E-01
DAV:   7    -0.168215469636E+03   -0.42954E-04   -0.21827E-04  4464   0.647E-02    0.994E-02
DAV:   8    -0.168215423373E+03    0.46263E-04   -0.88424E-05  4872   0.443E-02    0.199E-02
DAV:   9    -0.168215416655E+03    0.67176E-05   -0.23738E-05  2940   0.216E-02
   1 F= -.96010008E+02 E0= -.96010008E+02  d E =-.960100E+02
       N       E                     dE             d eps       ncg     rms          rms(c)
DAV:   1    -0.166378834576E+03    0.18366E+01   -0.13019E+00  4404   0.574E+00    0.119E+00
DAV:   2    -0.166358766316E+03    0.20068E-01   -0.88035E-02  4392   0.117E+00    0.623E-01
DAV:   3    -0.166358418071E+03    0.34824E-03   -0.13482E-02  4320   0.410E-01    0.238E-01
DAV:   4    -0.166358644047E+03   -0.22598E-03   -0.31697E-04  4416   0.902E-02    0.962E-02
DAV:   5    -0.166358696919E+03   -0.52872E-04   -0.15180E-04  4224   0.527E-02    0.743E-02
DAV:   6    -0.166358729640E+03   -0.32720E-04   -0.20383E-05  2808   0.265E-02    0.267E-02
DAV:   7    -0.166358746731E+03   -0.17092E-04   -0.74222E-06  2148   0.168E-02    0.645E-03
DAV:   8    -0.166358742867E+03    0.38640E-05   -0.13453E-06  2004   0.549E-03
   2 F= -.95957372E+02 E0= -.95957372E+02  d E =0.526367E-01
       N       E                     dE             d eps       ncg     rms          rms(c)
DAV:   1    -0.167645384299E+03   -0.12866E+01   -0.58031E-01  4356   0.379E+00    0.799E-01
DAV:   2    -0.167636816477E+03    0.85678E-02   -0.39549E-02  4392   0.783E-01    0.416E-01
DAV:   3    -0.167636281828E+03    0.53465E-03   -0.61104E-03  4284   0.274E-01    0.158E-01
DAV:   4    -0.167636370016E+03   -0.88188E-04   -0.14113E-04  4416   0.598E-02    0.647E-02
DAV:   5    -0.167636315837E+03    0.54179E-04   -0.70118E-05  4176   0.356E-02    0.503E-02
DAV:   6    -0.167636292161E+03    0.23676E-04   -0.96379E-06  2304   0.181E-02    0.178E-02
DAV:   7    -0.167636281209E+03    0.10952E-04   -0.33997E-06  2088   0.113E-02    0.423E-03
DAV:   8    -0.167636283480E+03   -0.22716E-05   -0.63363E-07  1992   0.373E-03
   3 F= -.96026277E+02 E0= -.96026277E+02  d E =-.162687E-01
       N       E                     dE             d eps       ncg     rms          rms(c)
DAV:   1    -0.167643483148E+03   -0.72019E-02   -0.17471E-02  3720   0.564E-01    0.420E-02
DAV:   2    -0.167643476719E+03    0.64290E-05   -0.11506E-03  4416   0.149E-01    0.289E-02
DAV:   3    -0.167643458772E+03    0.17946E-04   -0.77639E-05  4224   0.383E-02    0.193E-02
DAV:   4    -0.167643441130E+03    0.17643E-04   -0.16423E-05  2928   0.168E-02    0.860E-03
DAV:   5    -0.167643431775E+03    0.93546E-05   -0.21582E-06  2040   0.731E-03
   4 F= -.96026684E+02 E0= -.96026684E+02  d E =-.407322E-03
       N       E                     dE             d eps       ncg     rms          rms(c)
DAV:   1    -0.167641328548E+03    0.21126E-02   -0.18762E-03  3732   0.185E-01    0.137E-02
DAV:   2    -0.167641330933E+03   -0.23842E-05   -0.12599E-04  4404   0.493E-02    0.979E-03
DAV:   3    -0.167641333469E+03   -0.25359E-05   -0.76105E-06  2352   0.126E-02
   5 F= -.96026785E+02 E0= -.96026785E+02  d E =-.507960E-03
       N       E                     dE             d eps       ncg     rms          rms(c)
DAV:   1    -0.167670541100E+03   -0.29210E-01   -0.15737E-02  3744   0.606E-01    0.344E-02
DAV:   2    -0.167670502651E+03    0.38449E-04   -0.19536E-04  4656   0.715E-02    0.230E-02
DAV:   3    -0.167670494933E+03    0.77180E-05   -0.34452E-05  4104   0.261E-02
   6 F= -.96026742E+02 E0= -.96026742E+02  d E =0.427686E-04
       N       E                     dE             d eps       ncg     rms          rms(c)
DAV:   1    -0.167655052627E+03    0.15450E-01   -0.47217E-03  3684   0.328E-01    0.168E-02
DAV:   2    -0.167655046182E+03    0.64445E-05   -0.61824E-05  4488   0.392E-02
   7 F= -.96026891E+02 E0= -.96026891E+02  d E =-.105737E-03
