Al4C3 R-3m polymorph (findsym-output, fr
   1.00000000000000     
     3.0996284261080800    0.0000000000000000    0.0000000000000000
    -1.5498142130540400    2.6843569593364442    0.0000000000000000
     0.0000000000000000    0.0000000000000000   23.1728344664598715
   Al   C 
    12     9
Direct
 -0.0000000000000000  0.0000000000000000  0.6294302651683696
  0.0000000000000000  0.0000000000000000  0.3705697348316304
  0.6666666870000029  0.3333333429999996  0.9627635781683668
  0.6666666870000029  0.3333333429999996  0.7039030488316311
  0.3333333429999996  0.6666666870000029  0.2960969211683664
  0.3333333429999996  0.6666666870000029  0.0372364028316352
 -0.0000000000000000  0.0000000000000000  0.2060351429296494
 -0.0000000000000000 -0.0000000000000000  0.7939648570703505
  0.6666666870000029  0.3333333429999996  0.5393684569296503
  0.6666666870000029  0.3333333429999996  0.1272981850703525
  0.3333333429999996  0.6666666870000029  0.8727018299296524
  0.3333333429999996  0.6666666870000029  0.4606315130703473
 -0.0000000000000000 -0.0000000000000000  0.7166776578145747
  0.0000000000000000  0.0000000000000000  0.2833223421854252
  0.6666666870000029  0.3333333429999996  0.0500109898145770
  0.6666666870000029  0.3333333429999996  0.6166556551854224
  0.3333333429999996  0.6666666870000029  0.3833443148145751
  0.3333333429999996  0.6666666870000029  0.9499890291854211
 -0.0000000000000000 -0.0000000000000000  0.5000000000000000
  0.6666666870000029  0.3333333429999996  0.8333333129999971
  0.3333333429999996  0.6666666870000029  0.1666666719999981
 
  0.00000000E+00  0.00000000E+00  0.00000000E+00
  0.00000000E+00  0.00000000E+00  0.00000000E+00
  0.00000000E+00  0.00000000E+00  0.00000000E+00
  0.00000000E+00  0.00000000E+00  0.00000000E+00
  0.00000000E+00  0.00000000E+00  0.00000000E+00
  0.00000000E+00  0.00000000E+00  0.00000000E+00
  0.00000000E+00  0.00000000E+00  0.00000000E+00
  0.00000000E+00  0.00000000E+00  0.00000000E+00
  0.00000000E+00  0.00000000E+00  0.00000000E+00
  0.00000000E+00  0.00000000E+00  0.00000000E+00
  0.00000000E+00  0.00000000E+00  0.00000000E+00
  0.00000000E+00  0.00000000E+00  0.00000000E+00
  0.00000000E+00  0.00000000E+00  0.00000000E+00
  0.00000000E+00  0.00000000E+00  0.00000000E+00
  0.00000000E+00  0.00000000E+00  0.00000000E+00
  0.00000000E+00  0.00000000E+00  0.00000000E+00
  0.00000000E+00  0.00000000E+00  0.00000000E+00
  0.00000000E+00  0.00000000E+00  0.00000000E+00
  0.00000000E+00  0.00000000E+00  0.00000000E+00
  0.00000000E+00  0.00000000E+00  0.00000000E+00
  0.00000000E+00  0.00000000E+00  0.00000000E+00
