Al4C3 R-3m - r2SCAN H(P) scan @ 60 GPa (
           1
     3.099628    0.000000    0.000000
    -1.549814    2.684357    0.000000
     0.000000    0.000000   23.172834
   Al   C 
    12     9
Direct configuration=     1
   0.00000000  0.00000000  0.62943027
   0.00000000  0.00000000  0.37056973
   0.66666669  0.33333334  0.96276358
   0.66666669  0.33333334  0.70390305
   0.33333334  0.66666669  0.29609692
   0.33333334  0.66666669  0.03723640
   0.00000000  0.00000000  0.20603514
   0.00000000  0.00000000  0.79396486
   0.66666669  0.33333334  0.53936846
   0.66666669  0.33333334  0.12729819
   0.33333334  0.66666669  0.87270183
   0.33333334  0.66666669  0.46063151
   0.00000000  0.00000000  0.71667766
   0.00000000  0.00000000  0.28332234
   0.66666669  0.33333334  0.05001099
   0.66666669  0.33333334  0.61665566
   0.33333334  0.66666669  0.38334431
   0.33333334  0.66666669  0.94998903
   0.00000000  0.00000000  0.50000000
   0.66666669  0.33333334  0.83333331
   0.33333334  0.66666669  0.16666667
Al4C3 R-3m - r2SCAN H(P) scan @ 60 GPa (
           1
     3.073596    0.000000    0.000000
    -1.536798    2.661812    0.000000
     0.000000    0.000000   22.978215
   Al   C 
    12     9
Direct configuration=     2
  -0.00000000 -0.00000000  0.62968918
  -0.00000000  0.00000000  0.37031082
   0.66666669  0.33333334  0.96302250
   0.66666669  0.33333334  0.70364413
   0.33333334  0.66666669  0.29635584
   0.33333334  0.66666669  0.03697749
  -0.00000000  0.00000000  0.20608487
   0.00000000 -0.00000000  0.79391513
   0.66666669  0.33333334  0.53941819
   0.66666669  0.33333334  0.12724845
   0.33333334  0.66666669  0.87275156
   0.33333334  0.66666669  0.46058178
   0.00000000  0.00000000  0.71681888
  -0.00000000  0.00000000  0.28318112
   0.66666669  0.33333334  0.05015221
   0.66666669  0.33333334  0.61651443
   0.33333334  0.66666669  0.38348554
   0.33333334  0.66666669  0.94984781
   0.00000000 -0.00000000  0.50000000
   0.66666669  0.33333334  0.83333331
   0.33333334  0.66666669  0.16666667
Al4C3 R-3m - r2SCAN H(P) scan @ 60 GPa (
           1
     3.091085    0.000000    0.000000
    -1.545543    2.676958    0.000000
     0.000000    0.000000   23.108965
   Al   C 
    12     9
Direct configuration=     3
  -0.00000000 -0.00000000  0.62951376
  -0.00000000  0.00000000  0.37048624
   0.66666669  0.33333334  0.96284708
   0.66666669  0.33333334  0.70381955
   0.33333334  0.66666669  0.29618042
   0.33333334  0.66666669  0.03715291
  -0.00000000  0.00000000  0.20605118
   0.00000000 -0.00000000  0.79394882
   0.66666669  0.33333334  0.53938449
   0.66666669  0.33333334  0.12728215
   0.33333334  0.66666669  0.87271787
   0.33333334  0.66666669  0.46061548
   0.00000000  0.00000000  0.71672320
  -0.00000000  0.00000000  0.28327680
   0.66666669  0.33333334  0.05005653
   0.66666669  0.33333334  0.61661011
   0.33333334  0.66666669  0.38338986
   0.33333334  0.66666669  0.94994349
   0.00000000 -0.00000000  0.50000000
   0.66666669  0.33333334  0.83333331
   0.33333334  0.66666669  0.16666667
Al4C3 R-3m - r2SCAN H(P) scan @ 60 GPa (
           1
     3.091182    0.000000    0.000000
    -1.545591    2.677042    0.000000
     0.000000    0.000000   23.109690
   Al   C 
    12     9
Direct configuration=     4
  -0.00000000 -0.00000000  0.62964057
  -0.00000000  0.00000000  0.37035943
   0.66666669  0.33333334  0.96297388
   0.66666669  0.33333334  0.70369274
   0.33333334  0.66666669  0.29630723
   0.33333334  0.66666669  0.03702610
  -0.00000000 -0.00000000  0.20598067
   0.00000000  0.00000000  0.79401933
   0.66666669  0.33333334  0.53931398
   0.66666669  0.33333334  0.12735266
   0.33333334  0.66666669  0.87264736
   0.33333334  0.66666669  0.46068599
   0.00000000  0.00000000  0.71672097
  -0.00000000  0.00000000  0.28327903
   0.66666669  0.33333334  0.05005430
   0.66666669  0.33333334  0.61661235
   0.33333334  0.66666669  0.38338762
   0.33333334  0.66666669  0.94994572
   0.00000000  0.00000000  0.50000000
   0.66666669  0.33333334  0.83333331
   0.33333334  0.66666669  0.16666667
Al4C3 R-3m - r2SCAN H(P) scan @ 60 GPa (
           1
     3.091150    0.000000    0.000000
    -1.545575    2.677015    0.000000
     0.000000    0.000000   23.109453
   Al   C 
    12     9
Direct configuration=     5
  -0.00000000 -0.00000000  0.62959921
  -0.00000000  0.00000000  0.37040079
   0.66666669  0.33333334  0.96293252
   0.66666669  0.33333334  0.70373411
   0.33333334  0.66666669  0.29626586
   0.33333334  0.66666669  0.03706746
  -0.00000000 -0.00000000  0.20600367
   0.00000000  0.00000000  0.79399633
   0.66666669  0.33333334  0.53933698
   0.66666669  0.33333334  0.12732966
   0.33333334  0.66666669  0.87267036
   0.33333334  0.66666669  0.46066299
   0.00000000  0.00000000  0.71672170
  -0.00000000  0.00000000  0.28327830
   0.66666669  0.33333334  0.05005503
   0.66666669  0.33333334  0.61661162
   0.33333334  0.66666669  0.38338835
   0.33333334  0.66666669  0.94994499
   0.00000000  0.00000000  0.50000000
   0.66666669  0.33333334  0.83333331
   0.33333334  0.66666669  0.16666667
Al4C3 R-3m - r2SCAN H(P) scan @ 60 GPa (
           1
     3.091571    0.000000    0.000000
    -1.545785    2.677379    0.000000
     0.000000    0.000000   23.112594
   Al   C 
    12     9
Direct configuration=     6
   0.00000000 -0.00000000  0.62966103
  -0.00000000  0.00000000  0.37033897
   0.66666669  0.33333334  0.96299434
   0.66666669  0.33333334  0.70367228
   0.33333334  0.66666669  0.29632769
   0.33333334  0.66666669  0.03700564
  -0.00000000 -0.00000000  0.20603243
   0.00000000  0.00000000  0.79396757
   0.66666669  0.33333334  0.53936574
   0.66666669  0.33333334  0.12730090
   0.33333334  0.66666669  0.87269911
   0.33333334  0.66666669  0.46063423
   0.00000000  0.00000000  0.71676609
  -0.00000000  0.00000000  0.28323391
   0.66666669  0.33333334  0.05009942
   0.66666669  0.33333334  0.61656722
   0.33333334  0.66666669  0.38343275
   0.33333334  0.66666669  0.94990060
   0.00000000  0.00000000  0.50000000
   0.66666669  0.33333334  0.83333331
   0.33333334  0.66666669  0.16666667
Al4C3 R-3m - r2SCAN H(P) scan @ 60 GPa (
           1
     3.091346    0.000000    0.000000
    -1.545673    2.677184    0.000000
     0.000000    0.000000   23.110917
   Al   C 
    12     9
Direct configuration=     7
  -0.00000000 -0.00000000  0.62962802
  -0.00000000  0.00000000  0.37037198
   0.66666669  0.33333334  0.96296133
   0.66666669  0.33333334  0.70370530
   0.33333334  0.66666669  0.29629467
   0.33333334  0.66666669  0.03703865
  -0.00000000 -0.00000000  0.20601707
   0.00000000  0.00000000  0.79398293
   0.66666669  0.33333334  0.53935039
   0.66666669  0.33333334  0.12731626
   0.33333334  0.66666669  0.87268376
   0.33333334  0.66666669  0.46064958
   0.00000000  0.00000000  0.71674238
  -0.00000000  0.00000000  0.28325762
   0.66666669  0.33333334  0.05007572
   0.66666669  0.33333334  0.61659093
   0.33333334  0.66666669  0.38340904
   0.33333334  0.66666669  0.94992430
   0.00000000  0.00000000  0.50000000
   0.66666669  0.33333334  0.83333331
   0.33333334  0.66666669  0.16666667
