  28  28   0   0
  0.9604078E+01  0.9009847E-09  0.3038298E-09  0.9823494E-09  0.5000000E-15
  1.000000000000000E-004
  CAR 
 Al4C3 Pnma-III - H(P) scan @ 10 GPa (ISI
     16.75742051     -6.57294170  301      9.52743848      1.00000000
     -6.573  0.0000E+00  0.0000E+00
     -6.495  0.0000E+00  0.0000E+00
     -6.417  0.0000E+00  0.0000E+00
     -6.340  0.0000E+00  0.0000E+00
     -6.262  0.0000E+00  0.0000E+00
     -6.184  0.0000E+00  0.0000E+00
     -6.106  0.0000E+00  0.0000E+00
     -6.029  0.0000E+00  0.0000E+00
     -5.951  0.0000E+00  0.0000E+00
     -5.873  0.0000E+00  0.0000E+00
     -5.795  0.4461E-18  0.3469E-19
     -5.717  0.2438E-11  0.1896E-12
     -5.640  0.1165E-06  0.9063E-08
     -5.562  0.5926E-04  0.4617E-05
     -5.484  0.7228E-03  0.6083E-04
     -5.406  0.2991E-02  0.2934E-03
     -5.329  0.5842E-02  0.7477E-03
     -5.251  0.6505E-02  0.1254E-02
     -5.173  0.5666E-02  0.1694E-02
     -5.095  0.7363E-02  0.2267E-02
     -5.018  0.1226E-01  0.3220E-02
     -4.940  0.1381E-01  0.4295E-02
     -4.862  0.7812E-02  0.4902E-02
     -4.784  0.7338E-02  0.5473E-02
     -4.707  0.1501E-01  0.6640E-02
     -4.629  0.1385E-01  0.7717E-02
     -4.551  0.6902E-02  0.8254E-02
     -4.473  0.9477E-02  0.8991E-02
     -4.395  0.2079E-01  0.1061E-01
     -4.318  0.1667E-01  0.1190E-01
     -4.240  0.1241E-01  0.1287E-01
     -4.162  0.1298E-01  0.1388E-01
     -4.084  0.1764E-01  0.1525E-01
     -4.007  0.1964E-01  0.1678E-01
     -3.929  0.2135E-01  0.1844E-01
     -3.851  0.1752E-01  0.1980E-01
     -3.773  0.1307E-01  0.2082E-01
     -3.696  0.1480E-01  0.2197E-01
     -3.618  0.2261E-01  0.2373E-01
     -3.540  0.2459E-01  0.2564E-01
     -3.462  0.2981E-01  0.2796E-01
     -3.384  0.1443E-01  0.2908E-01
     -3.307  0.1132E-01  0.2996E-01
     -3.229  0.2508E-01  0.3191E-01
     -3.151  0.3391E-01  0.3455E-01
     -3.073  0.1951E-01  0.3606E-01
     -2.996  0.1379E-01  0.3714E-01
     -2.918  0.3046E-01  0.3951E-01
     -2.840  0.3338E-01  0.4210E-01
     -2.762  0.2638E-01  0.4415E-01
     -2.685  0.3264E-01  0.4669E-01
     -2.607  0.3058E-01  0.4907E-01
     -2.529  0.3702E-01  0.5195E-01
     -2.451  0.2986E-01  0.5427E-01
     -2.373  0.2321E-01  0.5608E-01
     -2.296  0.2879E-01  0.5831E-01
     -2.218  0.3243E-01  0.6084E-01
     -2.140  0.3350E-01  0.6344E-01
     -2.062  0.4974E-01  0.6731E-01
     -1.985  0.3332E-01  0.6990E-01
     -1.907  0.3129E-01  0.7233E-01
     -1.829  0.3627E-01  0.7516E-01
     -1.751  0.5552E-01  0.7947E-01
     -1.674  0.6039E-01  0.8417E-01
     -1.596  0.6123E-01  0.8893E-01
     -1.518  0.5385E-01  0.9312E-01
     -1.440  0.5006E-01  0.9701E-01
     -1.362  0.3297E-01  0.9958E-01
     -1.285  0.2596E-01  0.1016E+00
     -1.207  0.2928E-01  0.1039E+00
     -1.129  0.2437E-01  0.1058E+00
     -1.051  0.3342E-01  0.1084E+00
     -0.974  0.2559E-01  0.1104E+00
     -0.896  0.2896E-01  0.1126E+00
     -0.818  0.1917E-01  0.1141E+00
     -0.740  0.2548E-01  0.1161E+00
     -0.663  0.1907E-01  0.1176E+00
     -0.585  0.2186E-01  0.1193E+00
     -0.507  0.8857E-02  0.1200E+00
     -0.429  0.6410E-03  0.1200E+00
     -0.352  0.1731E-05  0.1200E+00
     -0.274  0.6357E-10  0.1200E+00
     -0.196  0.2369E-16  0.1200E+00
     -0.118  0.0000E+00  0.1200E+00
     -0.040  0.0000E+00  0.1200E+00
      0.037  0.0000E+00  0.1200E+00
      0.115  0.0000E+00  0.1200E+00
      0.193  0.0000E+00  0.1200E+00
      0.271  0.0000E+00  0.1200E+00
      0.348  0.0000E+00  0.1200E+00
      0.426  0.0000E+00  0.1200E+00
      0.504  0.0000E+00  0.1200E+00
      0.582  0.0000E+00  0.1200E+00
      0.659  0.0000E+00  0.1200E+00
      0.737  0.0000E+00  0.1200E+00
      0.815  0.0000E+00  0.1200E+00
      0.893  0.0000E+00  0.1200E+00
      0.971  0.0000E+00  0.1200E+00
      1.048  0.3275E-12  0.1200E+00
      1.126  0.3962E-07  0.1200E+00
      1.204  0.4836E-04  0.1200E+00
      1.282  0.9446E-03  0.1201E+00
      1.359  0.3268E-02  0.1203E+00
      1.437  0.1253E-01  0.1213E+00
      1.515  0.1805E-01  0.1227E+00
      1.593  0.1981E-01  0.1242E+00
      1.670  0.1302E-01  0.1253E+00
      1.748  0.1965E-01  0.1268E+00
      1.826  0.2255E-01  0.1285E+00
      1.904  0.4385E-01  0.1320E+00
      1.982  0.4216E-01  0.1352E+00
      2.059  0.3445E-01  0.1379E+00
      2.137  0.2130E-01  0.1396E+00
      2.215  0.3060E-01  0.1419E+00
      2.293  0.5348E-01  0.1461E+00
      2.370  0.5351E-01  0.1503E+00
      2.448  0.4196E-01  0.1535E+00
      2.526  0.4264E-01  0.1568E+00
      2.604  0.5332E-01  0.1610E+00
      2.681  0.3606E-01  0.1638E+00
      2.759  0.4745E-01  0.1675E+00
      2.837  0.4473E-01  0.1710E+00
      2.915  0.4028E-01  0.1741E+00
      2.993  0.4523E-01  0.1776E+00
      3.070  0.4944E-01  0.1815E+00
      3.148  0.4329E-01  0.1848E+00
      3.226  0.5219E-01  0.1889E+00
      3.304  0.4204E-01  0.1922E+00
      3.381  0.3167E-01  0.1946E+00
      3.459  0.4692E-01  0.1983E+00
      3.537  0.3838E-01  0.2013E+00
      3.615  0.3627E-01  0.2041E+00
      3.692  0.3223E-01  0.2066E+00
      3.770  0.2945E-01  0.2089E+00
      3.848  0.4557E-01  0.2124E+00
      3.926  0.3971E-01  0.2155E+00
      4.003  0.3714E-01  0.2184E+00
      4.081  0.5069E-01  0.2223E+00
      4.159  0.4236E-01  0.2256E+00
      4.237  0.2968E-01  0.2279E+00
      4.315  0.3033E-01  0.2303E+00
      4.392  0.3629E-01  0.2331E+00
      4.470  0.3801E-01  0.2361E+00
      4.548  0.4368E-01  0.2395E+00
      4.626  0.3555E-01  0.2422E+00
      4.703  0.4616E-01  0.2458E+00
      4.781  0.4718E-01  0.2495E+00
      4.859  0.4979E-01  0.2534E+00
      4.937  0.5604E-01  0.2577E+00
      5.014  0.4614E-01  0.2613E+00
      5.092  0.3057E-01  0.2637E+00
      5.170  0.5323E-01  0.2678E+00
      5.248  0.5692E-01  0.2723E+00
      5.326  0.4651E-01  0.2759E+00
      5.403  0.2782E-01  0.2780E+00
      5.481  0.4615E-01  0.2816E+00
      5.559  0.5026E-01  0.2855E+00
      5.637  0.4063E-01  0.2887E+00
      5.714  0.4566E-01  0.2922E+00
      5.792  0.5069E-01  0.2962E+00
      5.870  0.4958E-01  0.3000E+00
      5.948  0.4436E-01  0.3035E+00
      6.025  0.4446E-01  0.3069E+00
      6.103  0.4572E-01  0.3105E+00
      6.181  0.5105E-01  0.3145E+00
      6.259  0.5693E-01  0.3189E+00
      6.337  0.6451E-01  0.3239E+00
      6.414  0.4943E-01  0.3278E+00
      6.492  0.4922E-01  0.3316E+00
      6.570  0.4556E-01  0.3351E+00
      6.648  0.5359E-01  0.3393E+00
      6.725  0.5680E-01  0.3437E+00
      6.803  0.4939E-01  0.3476E+00
      6.881  0.6096E-01  0.3523E+00
      6.959  0.6409E-01  0.3573E+00
      7.036  0.6690E-01  0.3625E+00
      7.114  0.6890E-01  0.3678E+00
      7.192  0.7115E-01  0.3734E+00
      7.270  0.6706E-01  0.3786E+00
      7.348  0.7019E-01  0.3841E+00
      7.425  0.5761E-01  0.3885E+00
      7.503  0.5659E-01  0.3929E+00
      7.581  0.7130E-01  0.3985E+00
      7.659  0.7276E-01  0.4041E+00
      7.736  0.7735E-01  0.4101E+00
      7.814  0.6441E-01  0.4152E+00
      7.892  0.5892E-01  0.4197E+00
      7.970  0.6160E-01  0.4245E+00
      8.047  0.5732E-01  0.4290E+00
      8.125  0.5950E-01  0.4336E+00
      8.203  0.6825E-01  0.4389E+00
      8.281  0.7177E-01  0.4445E+00
      8.358  0.6342E-01  0.4494E+00
      8.436  0.6222E-01  0.4543E+00
      8.514  0.4681E-01  0.4579E+00
      8.592  0.3144E-01  0.4604E+00
      8.670  0.4183E-01  0.4636E+00
      8.747  0.6055E-01  0.4683E+00
      8.825  0.4292E-01  0.4717E+00
      8.903  0.3257E-01  0.4742E+00
      8.981  0.2224E-01  0.4759E+00
      9.058  0.1983E-01  0.4775E+00
      9.136  0.1562E-01  0.4787E+00
      9.214  0.1059E-01  0.4795E+00
      9.292  0.5776E-02  0.4800E+00
      9.369  0.6034E-03  0.4800E+00
      9.447  0.2647E-05  0.4800E+00
      9.525  0.2078E-09  0.4800E+00
      9.603  0.1858E-15  0.4800E+00
      9.681  0.0000E+00  0.4800E+00
      9.758  0.0000E+00  0.4800E+00
      9.836  0.0000E+00  0.4800E+00
      9.914  0.0000E+00  0.4800E+00
      9.992  0.0000E+00  0.4800E+00
     10.069  0.0000E+00  0.4800E+00
     10.147  0.0000E+00  0.4800E+00
     10.225  0.0000E+00  0.4800E+00
     10.303  0.0000E+00  0.4800E+00
     10.380  0.0000E+00  0.4800E+00
     10.458  0.0000E+00  0.4800E+00
     10.536  0.0000E+00  0.4800E+00
     10.614  0.6651E-17  0.4800E+00
     10.692  0.2548E-10  0.4800E+00
     10.769  0.9241E-06  0.4800E+00
     10.847  0.4165E-03  0.4800E+00
     10.925  0.5271E-02  0.4804E+00
     11.003  0.6924E-02  0.4810E+00
     11.080  0.1367E-01  0.4820E+00
     11.158  0.2708E-01  0.4841E+00
     11.236  0.2084E-01  0.4858E+00
     11.314  0.2473E-01  0.4877E+00
     11.391  0.2136E-01  0.4894E+00
     11.469  0.1528E-01  0.4905E+00
     11.547  0.2291E-01  0.4923E+00
     11.625  0.2077E-01  0.4939E+00
     11.703  0.3217E-01  0.4964E+00
     11.780  0.2044E-01  0.4980E+00
     11.858  0.3352E-01  0.5006E+00
     11.936  0.3694E-01  0.5035E+00
     12.014  0.2828E-01  0.5057E+00
     12.091  0.3696E-01  0.5086E+00
     12.169  0.4300E-01  0.5119E+00
     12.247  0.4350E-01  0.5153E+00
     12.325  0.4034E-01  0.5184E+00
     12.402  0.3512E-01  0.5212E+00
     12.480  0.2565E-01  0.5232E+00
     12.558  0.2368E-01  0.5250E+00
     12.636  0.3396E-01  0.5277E+00
     12.713  0.5896E-01  0.5322E+00
     12.791  0.5314E-01  0.5364E+00
     12.869  0.4362E-01  0.5398E+00
     12.947  0.4473E-01  0.5432E+00
     13.025  0.4065E-01  0.5464E+00
     13.102  0.3756E-01  0.5493E+00
     13.180  0.4225E-01  0.5526E+00
     13.258  0.4982E-01  0.5565E+00
     13.336  0.6284E-01  0.5614E+00
     13.413  0.5586E-01  0.5657E+00
     13.491  0.6357E-01  0.5707E+00
     13.569  0.4009E-01  0.5738E+00
     13.647  0.4211E-01  0.5771E+00
     13.724  0.5309E-01  0.5812E+00
     13.802  0.4890E-01  0.5850E+00
     13.880  0.4193E-01  0.5882E+00
     13.958  0.4434E-01  0.5917E+00
     14.036  0.5142E-01  0.5957E+00
     14.113  0.3532E-01  0.5984E+00
     14.191  0.3401E-01  0.6011E+00
     14.269  0.3862E-01  0.6041E+00
     14.347  0.5356E-01  0.6083E+00
     14.424  0.4500E-01  0.6118E+00
     14.502  0.4368E-01  0.6152E+00
     14.580  0.4228E-01  0.6184E+00
     14.658  0.6450E-01  0.6235E+00
     14.735  0.5522E-01  0.6277E+00
     14.813  0.4588E-01  0.6313E+00
     14.891  0.4512E-01  0.6348E+00
     14.969  0.3640E-01  0.6377E+00
     15.047  0.4812E-01  0.6414E+00
     15.124  0.5034E-01  0.6453E+00
     15.202  0.3350E-01  0.6479E+00
     15.280  0.4617E-01  0.6515E+00
     15.358  0.3640E-01  0.6543E+00
     15.435  0.2573E-01  0.6563E+00
     15.513  0.1635E-01  0.6576E+00
     15.591  0.1232E-01  0.6586E+00
     15.669  0.1311E-01  0.6596E+00
     15.746  0.5097E-02  0.6600E+00
     15.824  0.1782E-03  0.6600E+00
     15.902  0.1805E-06  0.6600E+00
     15.980  0.2832E-11  0.6600E+00
     16.058  0.4867E-18  0.6600E+00
     16.135  0.0000E+00  0.6600E+00
     16.213  0.0000E+00  0.6600E+00
     16.291  0.0000E+00  0.6600E+00
     16.369  0.0000E+00  0.6600E+00
     16.446  0.0000E+00  0.6600E+00
     16.524  0.0000E+00  0.6600E+00
     16.602  0.0000E+00  0.6600E+00
     16.680  0.0000E+00  0.6600E+00
     16.757  0.0000E+00  0.6600E+00
