  56  56   0   0
  0.8744734E+01  0.7882153E-09  0.7882153E-09  0.7882153E-09  0.5000000E-15
  1.000000000000000E-004
  CAR 
 Al4C3 Fd-3m - H(P) scan @ 80 GPa (ISIF=8
     18.89547540     -6.23801362  301     11.27688654      1.00000000
     -6.238  0.0000E+00  0.0000E+00
     -6.154  0.0000E+00  0.0000E+00
     -6.070  0.0000E+00  0.0000E+00
     -5.987  0.0000E+00  0.0000E+00
     -5.903  0.0000E+00  0.0000E+00
     -5.819  0.0000E+00  0.0000E+00
     -5.735  0.0000E+00  0.0000E+00
     -5.652  0.0000E+00  0.0000E+00
     -5.568  0.0000E+00  0.0000E+00
     -5.484  0.0000E+00  0.0000E+00
     -5.400  0.0000E+00  0.0000E+00
     -5.316  0.3898E-12  0.3266E-13
     -5.233  0.9840E-07  0.8244E-08
     -5.149  0.1226E-03  0.1028E-04
     -5.065  0.1445E-02  0.1314E-03
     -4.981  0.5226E-02  0.5692E-03
     -4.898  0.9119E-02  0.1333E-02
     -4.814  0.1757E-01  0.2805E-02
     -4.730  0.1169E-01  0.3784E-02
     -4.646  0.8023E-02  0.4456E-02
     -4.562  0.1152E-01  0.5421E-02
     -4.479  0.3538E-01  0.8386E-02
     -4.395  0.3601E-01  0.1140E-01
     -4.311  0.1486E-01  0.1265E-01
     -4.227  0.4515E-02  0.1303E-01
     -4.144  0.3183E-01  0.1569E-01
     -4.060  0.3753E-01  0.1884E-01
     -3.976  0.2998E-01  0.2135E-01
     -3.892  0.5395E-01  0.2587E-01
     -3.808  0.4535E-01  0.2967E-01
     -3.725  0.4039E-01  0.3305E-01
     -3.641  0.2107E-01  0.3482E-01
     -3.557  0.4145E-03  0.3485E-01
     -3.473  0.8324E-02  0.3555E-01
     -3.390  0.1387E-01  0.3671E-01
     -3.306  0.1793E-01  0.3821E-01
     -3.222  0.4891E-01  0.4231E-01
     -3.138  0.1312E-01  0.4341E-01
     -3.054  0.2189E-01  0.4524E-01
     -2.971  0.2378E-01  0.4723E-01
     -2.887  0.2768E-01  0.4955E-01
     -2.803  0.5427E-01  0.5410E-01
     -2.719  0.7419E-01  0.6032E-01
     -2.636  0.6676E-02  0.6088E-01
     -2.552  0.2901E-01  0.6331E-01
     -2.468  0.2313E-01  0.6524E-01
     -2.384  0.1917E-01  0.6685E-01
     -2.300  0.4590E-01  0.7069E-01
     -2.217  0.4757E-02  0.7109E-01
     -2.133  0.4740E-04  0.7110E-01
     -2.049  0.1122E-01  0.7204E-01
     -1.965  0.5443E-01  0.7660E-01
     -1.882  0.4270E-01  0.8018E-01
     -1.798  0.4661E-01  0.8408E-01
     -1.714  0.4342E-01  0.8772E-01
     -1.630  0.8113E-01  0.9451E-01
     -1.546  0.7232E-01  0.1006E+00
     -1.463  0.1065E-01  0.1015E+00
     -1.379  0.2674E-01  0.1037E+00
     -1.295  0.5495E-01  0.1083E+00
     -1.211  0.9890E-01  0.1166E+00
     -1.128  0.3121E-01  0.1192E+00
     -1.044  0.5302E-01  0.1237E+00
     -0.960  0.8525E-01  0.1308E+00
     -0.876  0.6090E-01  0.1359E+00
     -0.792  0.7059E-01  0.1418E+00
     -0.709  0.1054E+00  0.1506E+00
     -0.625  0.1359E+00  0.1620E+00
     -0.541  0.7551E-01  0.1684E+00
     -0.457  0.4204E-01  0.1719E+00
     -0.374  0.6351E-01  0.1772E+00
     -0.290  0.2061E+00  0.1945E+00
     -0.206  0.1498E+00  0.2070E+00
     -0.122  0.6785E-01  0.2127E+00
     -0.038  0.7114E-01  0.2187E+00
      0.045  0.9858E-01  0.2269E+00
      0.129  0.1323E+00  0.2380E+00
      0.213  0.2381E-01  0.2400E+00
      0.297  0.1276E-03  0.2400E+00
      0.380  0.5113E-08  0.2400E+00
      0.464  0.1022E-14  0.2400E+00
      0.548  0.0000E+00  0.2400E+00
      0.632  0.0000E+00  0.2400E+00
      0.716  0.0000E+00  0.2400E+00
      0.799  0.0000E+00  0.2400E+00
      0.883  0.0000E+00  0.2400E+00
      0.967  0.0000E+00  0.2400E+00
      1.051  0.0000E+00  0.2400E+00
      1.134  0.0000E+00  0.2400E+00
      1.218  0.0000E+00  0.2400E+00
      1.302  0.0000E+00  0.2400E+00
      1.386  0.0000E+00  0.2400E+00
      1.470  0.0000E+00  0.2400E+00
      1.553  0.1656E-17  0.2400E+00
      1.637  0.2127E-10  0.2400E+00
      1.721  0.1197E-05  0.2400E+00
      1.805  0.3675E-03  0.2400E+00
      1.888  0.1376E-02  0.2401E+00
      1.972  0.1198E-03  0.2402E+00
      2.056  0.1708E-06  0.2402E+00
      2.140  0.2682E-03  0.2402E+00
      2.224  0.7550E-02  0.2408E+00
      2.307  0.1782E-01  0.2423E+00
      2.391  0.7964E-02  0.2430E+00
      2.475  0.6838E-02  0.2435E+00
      2.559  0.7876E-02  0.2442E+00
      2.642  0.2222E-03  0.2442E+00
      2.726  0.1090E-01  0.2451E+00
      2.810  0.3258E-01  0.2479E+00
      2.894  0.3782E-01  0.2510E+00
      2.978  0.3569E-01  0.2540E+00
      3.061  0.6697E-01  0.2596E+00
      3.145  0.8444E-01  0.2667E+00
      3.229  0.7677E-01  0.2731E+00
      3.313  0.1083E+00  0.2822E+00
      3.396  0.1019E+00  0.2907E+00
      3.480  0.6112E-01  0.2959E+00
      3.564  0.6315E-01  0.3012E+00
      3.648  0.3749E-01  0.3043E+00
      3.732  0.7910E-01  0.3109E+00
      3.815  0.1808E+00  0.3261E+00
      3.899  0.6480E-01  0.3315E+00
      3.983  0.6390E-01  0.3369E+00
      4.067  0.1199E+00  0.3469E+00
      4.150  0.1232E+00  0.3572E+00
      4.234  0.6168E-01  0.3624E+00
      4.318  0.5021E-01  0.3666E+00
      4.402  0.1398E+00  0.3783E+00
      4.486  0.6427E-01  0.3837E+00
      4.569  0.3524E-01  0.3866E+00
      4.653  0.6259E-01  0.3919E+00
      4.737  0.5219E-01  0.3963E+00
      4.821  0.4453E-01  0.4000E+00
      4.904  0.1167E+00  0.4098E+00
      4.988  0.7010E-01  0.4156E+00
      5.072  0.3930E-01  0.4189E+00
      5.156  0.1013E+00  0.4274E+00
      5.240  0.7654E-01  0.4338E+00
      5.323  0.6294E-01  0.4391E+00
      5.407  0.4775E-01  0.4431E+00
      5.491  0.8641E-01  0.4503E+00
      5.575  0.6140E-01  0.4555E+00
      5.659  0.6752E-01  0.4611E+00
      5.742  0.1565E-01  0.4625E+00
      5.826  0.5895E-01  0.4674E+00
      5.910  0.7001E-01  0.4733E+00
      5.994  0.1197E+00  0.4833E+00
      6.077  0.1059E+00  0.4922E+00
      6.161  0.7405E-01  0.4984E+00
      6.245  0.9670E-01  0.5065E+00
      6.329  0.5994E-01  0.5115E+00
      6.413  0.7200E-01  0.5175E+00
      6.496  0.6809E-01  0.5232E+00
      6.580  0.9069E-02  0.5240E+00
      6.664  0.4171E-01  0.5275E+00
      6.748  0.6716E-01  0.5331E+00
      6.831  0.5038E-01  0.5373E+00
      6.915  0.7087E-01  0.5433E+00
      6.999  0.9484E-01  0.5512E+00
      7.083  0.1565E+00  0.5643E+00
      7.167  0.1433E+00  0.5763E+00
      7.250  0.1471E+00  0.5886E+00
      7.334  0.8842E-01  0.5961E+00
      7.418  0.1878E-01  0.5976E+00
      7.502  0.3246E-01  0.6003E+00
      7.585  0.1170E+00  0.6102E+00
      7.669  0.9820E-01  0.6184E+00
      7.753  0.8515E-01  0.6255E+00
      7.837  0.1411E+00  0.6373E+00
      7.921  0.1335E+00  0.6485E+00
      8.004  0.9167E-01  0.6562E+00
      8.088  0.1507E+00  0.6688E+00
      8.172  0.1246E+00  0.6793E+00
      8.256  0.1396E+00  0.6910E+00
      8.339  0.1659E+00  0.7049E+00
      8.423  0.2020E+00  0.7218E+00
      8.507  0.1034E+00  0.7304E+00
      8.591  0.1098E+00  0.7396E+00
      8.675  0.1283E+00  0.7504E+00
      8.758  0.2504E+00  0.7714E+00
      8.842  0.1965E+00  0.7878E+00
      8.926  0.9177E-01  0.7955E+00
      9.010  0.1287E+00  0.8063E+00
      9.093  0.2205E+00  0.8248E+00
      9.177  0.1967E+00  0.8413E+00
      9.261  0.1500E+00  0.8538E+00
      9.345  0.6564E-01  0.8593E+00
      9.429  0.1215E+00  0.8695E+00
      9.512  0.1206E+00  0.8796E+00
      9.596  0.1967E-01  0.8813E+00
      9.680  0.2827E-01  0.8836E+00
      9.764  0.5895E-01  0.8886E+00
      9.847  0.4710E-01  0.8925E+00
      9.931  0.4712E-01  0.8965E+00
     10.015  0.8268E-01  0.9034E+00
     10.099  0.1055E+00  0.9122E+00
     10.183  0.7205E-01  0.9183E+00
     10.266  0.6003E-01  0.9233E+00
     10.350  0.6599E-01  0.9288E+00
     10.434  0.1350E+00  0.9401E+00
     10.518  0.8326E-01  0.9471E+00
     10.601  0.4233E-01  0.9506E+00
     10.685  0.1171E-01  0.9516E+00
     10.769  0.3815E-01  0.9548E+00
     10.853  0.3179E-01  0.9575E+00
     10.937  0.2231E-01  0.9594E+00
     11.020  0.5279E-02  0.9598E+00
     11.104  0.2389E-02  0.9600E+00
     11.188  0.3093E-04  0.9600E+00
     11.272  0.2542E-08  0.9600E+00
     11.355  0.9336E-15  0.9600E+00
     11.439  0.0000E+00  0.9600E+00
     11.523  0.0000E+00  0.9600E+00
     11.607  0.0000E+00  0.9600E+00
     11.691  0.0000E+00  0.9600E+00
     11.774  0.0000E+00  0.9600E+00
     11.858  0.0000E+00  0.9600E+00
     11.942  0.0000E+00  0.9600E+00
     12.026  0.6886E-14  0.9600E+00
     12.109  0.6947E-08  0.9600E+00
     12.193  0.3243E-04  0.9600E+00
     12.277  0.1091E-02  0.9601E+00
     12.361  0.7341E-03  0.9602E+00
     12.445  0.7999E-05  0.9602E+00
     12.528  0.5401E-09  0.9602E+00
     12.612  0.1086E-11  0.9602E+00
     12.696  0.3599E-06  0.9602E+00
     12.780  0.5804E-03  0.9602E+00
     12.863  0.8049E-02  0.9609E+00
     12.947  0.2550E-02  0.9611E+00
     13.031  0.1038E-04  0.9611E+00
     13.115  0.1225E-07  0.9611E+00
     13.199  0.1545E-03  0.9611E+00
     13.282  0.1323E-01  0.9622E+00
     13.366  0.1958E-01  0.9639E+00
     13.450  0.2564E-02  0.9641E+00
     13.534  0.1143E-01  0.9650E+00
     13.617  0.4212E-01  0.9686E+00
     13.701  0.4733E-01  0.9725E+00
     13.785  0.8497E-01  0.9796E+00
     13.869  0.8808E-01  0.9870E+00
     13.953  0.6082E-01  0.9921E+00
     14.036  0.4791E-01  0.9961E+00
     14.120  0.5237E-01  0.1001E+01
     14.204  0.4647E-01  0.1004E+01
     14.288  0.3312E-01  0.1007E+01
     14.371  0.5767E-01  0.1012E+01
     14.455  0.1414E+00  0.1024E+01
     14.539  0.6841E-01  0.1030E+01
     14.623  0.4167E-01  0.1033E+01
     14.707  0.1553E+00  0.1046E+01
     14.790  0.1130E+00  0.1056E+01
     14.874  0.2650E-01  0.1058E+01
     14.958  0.8441E-01  0.1065E+01
     15.042  0.1940E+00  0.1081E+01
     15.125  0.1591E+00  0.1094E+01
     15.209  0.9995E-01  0.1103E+01
     15.293  0.2119E-01  0.1105E+01
     15.377  0.1886E-01  0.1106E+01
     15.461  0.5800E-01  0.1111E+01
     15.544  0.6155E-01  0.1116E+01
     15.628  0.1412E-01  0.1117E+01
     15.712  0.7073E-01  0.1123E+01
     15.796  0.5219E-01  0.1128E+01
     15.879  0.9016E-01  0.1135E+01
     15.963  0.7731E-01  0.1142E+01
     16.047  0.7814E-01  0.1148E+01
     16.131  0.7347E-01  0.1154E+01
     16.215  0.1065E+00  0.1163E+01
     16.298  0.1028E+00  0.1172E+01
     16.382  0.1579E+00  0.1185E+01
     16.466  0.1342E+00  0.1196E+01
     16.550  0.1772E+00  0.1211E+01
     16.633  0.8688E-01  0.1219E+01
     16.717  0.5717E-01  0.1223E+01
     16.801  0.6933E-01  0.1229E+01
     16.885  0.1317E+00  0.1240E+01
     16.969  0.8822E-01  0.1248E+01
     17.052  0.5573E-01  0.1252E+01
     17.136  0.2107E-01  0.1254E+01
     17.220  0.1297E-02  0.1254E+01
     17.304  0.1992E-01  0.1256E+01
     17.387  0.3484E-01  0.1259E+01
     17.471  0.1189E-01  0.1260E+01
     17.555  0.2216E-03  0.1260E+01
     17.639  0.2328E-05  0.1260E+01
     17.723  0.7230E-03  0.1260E+01
     17.806  0.2759E-02  0.1260E+01
     17.890  0.2452E-03  0.1260E+01
     17.974  0.1968E-06  0.1260E+01
     18.058  0.7796E-12  0.1260E+01
     18.141  0.0000E+00  0.1260E+01
     18.225  0.0000E+00  0.1260E+01
     18.309  0.0000E+00  0.1260E+01
     18.393  0.0000E+00  0.1260E+01
     18.477  0.0000E+00  0.1260E+01
     18.560  0.0000E+00  0.1260E+01
     18.644  0.0000E+00  0.1260E+01
     18.728  0.0000E+00  0.1260E+01
     18.812  0.0000E+00  0.1260E+01
     18.895  0.0000E+00  0.1260E+01
