Al4C3 Fd-3m - H(P) scan @ 80 GPa (ISIF=8
           1
     7.882153    0.000000    0.000000
     0.000000    7.882153    0.000000
     0.000000    0.000000    7.882153
   Al   C 
    32    24
Direct configuration=     1
   0.75985713  0.75985713  0.75985713
   0.24014287  0.24014287  0.24014287
   0.99014287  0.49014287  0.25985713
   0.00985713  0.50985713  0.74014287
   0.49014287  0.25985713  0.99014287
   0.50985713  0.74014287  0.00985713
   0.25985713  0.99014287  0.49014287
   0.74014287  0.00985713  0.50985713
   0.50985713  0.00985713  0.74014287
   0.49014287  0.99014287  0.25985713
   0.00985713  0.74014287  0.50985713
   0.99014287  0.25985713  0.49014287
   0.74014287  0.50985713  0.00985713
   0.25985713  0.49014287  0.99014287
   0.75985713  0.25985713  0.25985713
   0.24014287  0.74014287  0.74014287
   0.99014287  0.99014287  0.75985713
   0.00985713  0.00985713  0.24014287
   0.49014287  0.75985713  0.49014287
   0.50985713  0.24014287  0.50985713
   0.50985713  0.50985713  0.24014287
   0.49014287  0.49014287  0.75985713
   0.00985713  0.24014287  0.00985713
   0.99014287  0.75985713  0.99014287
   0.25985713  0.75985713  0.25985713
   0.74014287  0.24014287  0.74014287
   0.75985713  0.99014287  0.99014287
   0.24014287  0.00985713  0.00985713
   0.24014287  0.50985713  0.50985713
   0.75985713  0.49014287  0.49014287
   0.25985713  0.25985713  0.75985713
   0.74014287  0.74014287  0.24014287
   0.00000000  0.00000000  0.00000000
   0.75000000  0.25000000  0.50000000
   0.25000000  0.75000000  0.50000000
   0.25000000  0.50000000  0.75000000
   0.75000000  0.50000000  0.25000000
   0.50000000  0.75000000  0.25000000
   0.50000000  0.25000000  0.75000000
   0.00000000  0.50000000  0.50000000
   0.75000000  0.75000000  0.00000000
   0.25000000  0.25000000  0.00000000
   0.25000000  0.00000000  0.25000000
   0.75000000  0.00000000  0.75000000
   0.50000000  0.00000000  0.50000000
   0.00000000  0.75000000  0.75000000
   0.00000000  0.25000000  0.25000000
   0.50000000  0.50000000  0.00000000
   0.37500000  0.37500000  0.37500000
   0.62500000  0.62500000  0.62500000
   0.37500000  0.87500000  0.87500000
   0.62500000  0.12500000  0.12500000
   0.87500000  0.87500000  0.37500000
   0.12500000  0.12500000  0.62500000
   0.87500000  0.37500000  0.87500000
   0.12500000  0.62500000  0.12500000
Al4C3 Fd-3m - H(P) scan @ 80 GPa (ISIF=8
           1
     7.674711    0.000000    0.000000
     0.000000    7.674711    0.000000
     0.000000    0.000000    7.674711
   Al   C 
    32    24
Direct configuration=     2
   0.75985471  0.75985471  0.75985471
   0.24014529  0.24014529  0.24014529
   0.99014529  0.49014529  0.25985471
   0.00985471  0.50985471  0.74014529
   0.49014529  0.25985471  0.99014529
   0.50985471  0.74014529  0.00985471
   0.25985471  0.99014529  0.49014529
   0.74014529  0.00985471  0.50985471
   0.50985471  0.00985471  0.74014529
   0.49014529  0.99014529  0.25985471
   0.00985471  0.74014529  0.50985471
   0.99014529  0.25985471  0.49014529
   0.74014529  0.50985471  0.00985471
   0.25985471  0.49014529  0.99014529
   0.75985471  0.25985471  0.25985471
   0.24014529  0.74014529  0.74014529
   0.99014529  0.99014529  0.75985471
   0.00985471  0.00985471  0.24014529
   0.49014529  0.75985471  0.49014529
   0.50985471  0.24014529  0.50985471
   0.50985471  0.50985471  0.24014529
   0.49014529  0.49014529  0.75985471
   0.00985471  0.24014529  0.00985471
   0.99014529  0.75985471  0.99014529
   0.25985471  0.75985471  0.25985471
   0.74014529  0.24014529  0.74014529
   0.75985471  0.99014529  0.99014529
   0.24014529  0.00985471  0.00985471
   0.24014529  0.50985471  0.50985471
   0.75985471  0.49014529  0.49014529
   0.25985471  0.25985471  0.75985471
   0.74014529  0.74014529  0.24014529
  -0.00000000  0.00000000 -0.00000000
   0.75000000  0.25000000  0.50000000
   0.25000000  0.75000000  0.50000000
   0.25000000  0.50000000  0.75000000
   0.75000000  0.50000000  0.25000000
   0.50000000  0.75000000  0.25000000
   0.50000000  0.25000000  0.75000000
  -0.00000000  0.50000000  0.50000000
   0.75000000  0.75000000 -0.00000000
   0.25000000  0.25000000 -0.00000000
   0.25000000  0.00000000  0.25000000
   0.75000000  0.00000000  0.75000000
   0.50000000  0.00000000  0.50000000
  -0.00000000  0.75000000  0.75000000
  -0.00000000  0.25000000  0.25000000
   0.50000000  0.50000000 -0.00000000
   0.37500000  0.37500000  0.37500000
   0.62500000  0.62500000  0.62500000
   0.37500000  0.87500000  0.87500000
   0.62500000  0.12500000  0.12500000
   0.87500000  0.87500000  0.37500000
   0.12500000  0.12500000  0.62500000
   0.87500000  0.37500000  0.87500000
   0.12500000  0.62500000  0.12500000
Al4C3 Fd-3m - H(P) scan @ 80 GPa (ISIF=8
           1
     7.821056    0.000000    0.000000
     0.000000    7.821056    0.000000
     0.000000    0.000000    7.821056
   Al   C 
    32    24
Direct configuration=     3
   0.75985646  0.75985646  0.75985646
   0.24014354  0.24014354  0.24014354
   0.99014354  0.49014354  0.25985646
   0.00985646  0.50985646  0.74014354
   0.49014354  0.25985646  0.99014354
   0.50985646  0.74014354  0.00985646
   0.25985646  0.99014354  0.49014354
   0.74014354  0.00985646  0.50985646
   0.50985646  0.00985646  0.74014354
   0.49014354  0.99014354  0.25985646
   0.00985646  0.74014354  0.50985646
   0.99014354  0.25985646  0.49014354
   0.74014354  0.50985646  0.00985646
   0.25985646  0.49014354  0.99014354
   0.75985646  0.25985646  0.25985646
   0.24014354  0.74014354  0.74014354
   0.99014354  0.99014354  0.75985646
   0.00985646  0.00985646  0.24014354
   0.49014354  0.75985646  0.49014354
   0.50985646  0.24014354  0.50985646
   0.50985646  0.50985646  0.24014354
   0.49014354  0.49014354  0.75985646
   0.00985646  0.24014354  0.00985646
   0.99014354  0.75985646  0.99014354
   0.25985646  0.75985646  0.25985646
   0.74014354  0.24014354  0.74014354
   0.75985646  0.99014354  0.99014354
   0.24014354  0.00985646  0.00985646
   0.24014354  0.50985646  0.50985646
   0.75985646  0.49014354  0.49014354
   0.25985646  0.25985646  0.75985646
   0.74014354  0.74014354  0.24014354
  -0.00000000  0.00000000 -0.00000000
   0.75000000  0.25000000  0.50000000
   0.25000000  0.75000000  0.50000000
   0.25000000  0.50000000  0.75000000
   0.75000000  0.50000000  0.25000000
   0.50000000  0.75000000  0.25000000
   0.50000000  0.25000000  0.75000000
  -0.00000000  0.50000000  0.50000000
   0.75000000  0.75000000 -0.00000000
   0.25000000  0.25000000 -0.00000000
   0.25000000  0.00000000  0.25000000
   0.75000000  0.00000000  0.75000000
   0.50000000  0.00000000  0.50000000
  -0.00000000  0.75000000  0.75000000
  -0.00000000  0.25000000  0.25000000
   0.50000000  0.50000000 -0.00000000
   0.37500000  0.37500000  0.37500000
   0.62500000  0.62500000  0.62500000
   0.37500000  0.87500000  0.87500000
   0.62500000  0.12500000  0.12500000
   0.87500000  0.87500000  0.37500000
   0.12500000  0.12500000  0.62500000
   0.87500000  0.37500000  0.87500000
   0.12500000  0.62500000  0.12500000
Al4C3 Fd-3m - H(P) scan @ 80 GPa (ISIF=8
           1
     7.819899    0.000000    0.000000
     0.000000    7.819899    0.000000
     0.000000    0.000000    7.819899
   Al   C 
    32    24
Direct configuration=     4
   0.75985645  0.75985645  0.75985645
   0.24014355  0.24014355  0.24014355
   0.99014355  0.49014355  0.25985645
   0.00985645  0.50985645  0.74014355
   0.49014355  0.25985645  0.99014355
   0.50985645  0.74014355  0.00985645
   0.25985645  0.99014355  0.49014355
   0.74014355  0.00985645  0.50985645
   0.50985645  0.00985645  0.74014355
   0.49014355  0.99014355  0.25985645
   0.00985645  0.74014355  0.50985645
   0.99014355  0.25985645  0.49014355
   0.74014355  0.50985645  0.00985645
   0.25985645  0.49014355  0.99014355
   0.75985645  0.25985645  0.25985645
   0.24014355  0.74014355  0.74014355
   0.99014355  0.99014355  0.75985645
   0.00985645  0.00985645  0.24014355
   0.49014355  0.75985645  0.49014355
   0.50985645  0.24014355  0.50985645
   0.50985645  0.50985645  0.24014355
   0.49014355  0.49014355  0.75985645
   0.00985645  0.24014355  0.00985645
   0.99014355  0.75985645  0.99014355
   0.25985645  0.75985645  0.25985645
   0.74014355  0.24014355  0.74014355
   0.75985645  0.99014355  0.99014355
   0.24014355  0.00985645  0.00985645
   0.24014355  0.50985645  0.50985645
   0.75985645  0.49014355  0.49014355
   0.25985645  0.25985645  0.75985645
   0.74014355  0.74014355  0.24014355
  -0.00000000  0.00000000 -0.00000000
   0.75000000  0.25000000  0.50000000
   0.25000000  0.75000000  0.50000000
   0.25000000  0.50000000  0.75000000
   0.75000000  0.50000000  0.25000000
   0.50000000  0.75000000  0.25000000
   0.50000000  0.25000000  0.75000000
  -0.00000000  0.50000000  0.50000000
   0.75000000  0.75000000 -0.00000000
   0.25000000  0.25000000 -0.00000000
   0.25000000  0.00000000  0.25000000
   0.75000000  0.00000000  0.75000000
   0.50000000  0.00000000  0.50000000
  -0.00000000  0.75000000  0.75000000
  -0.00000000  0.25000000  0.25000000
   0.50000000  0.50000000 -0.00000000
   0.37500000  0.37500000  0.37500000
   0.62500000  0.62500000  0.62500000
   0.37500000  0.87500000  0.87500000
   0.62500000  0.12500000  0.12500000
   0.87500000  0.87500000  0.37500000
   0.12500000  0.12500000  0.62500000
   0.87500000  0.37500000  0.87500000
   0.12500000  0.62500000  0.12500000
Al4C3 Fd-3m - H(P) scan @ 80 GPa (ISIF=8
           1
     7.818719    0.000000    0.000000
     0.000000    7.818719    0.000000
     0.000000    0.000000    7.818719
   Al   C 
    32    24
Direct configuration=     5
   0.75954281  0.75954281  0.75954281
   0.24045719  0.24045719  0.24045719
   0.99045719  0.49045719  0.25954281
   0.00954281  0.50954281  0.74045719
   0.49045719  0.25954281  0.99045719
   0.50954281  0.74045719  0.00954281
   0.25954281  0.99045719  0.49045719
   0.74045719  0.00954281  0.50954281
   0.50954281  0.00954281  0.74045719
   0.49045719  0.99045719  0.25954281
   0.00954281  0.74045719  0.50954281
   0.99045719  0.25954281  0.49045719
   0.74045719  0.50954281  0.00954281
   0.25954281  0.49045719  0.99045719
   0.75954281  0.25954281  0.25954281
   0.24045719  0.74045719  0.74045719
   0.99045719  0.99045719  0.75954281
   0.00954281  0.00954281  0.24045719
   0.49045719  0.75954281  0.49045719
   0.50954281  0.24045719  0.50954281
   0.50954281  0.50954281  0.24045719
   0.49045719  0.49045719  0.75954281
   0.00954281  0.24045719  0.00954281
   0.99045719  0.75954281  0.99045719
   0.25954281  0.75954281  0.25954281
   0.74045719  0.24045719  0.74045719
   0.75954281  0.99045719  0.99045719
   0.24045719  0.00954281  0.00954281
   0.24045719  0.50954281  0.50954281
   0.75954281  0.49045719  0.49045719
   0.25954281  0.25954281  0.75954281
   0.74045719  0.74045719  0.24045719
   0.00000000 -0.00000000 -0.00000000
   0.75000000  0.25000000  0.50000000
   0.25000000  0.75000000  0.50000000
   0.25000000  0.50000000  0.75000000
   0.75000000  0.50000000  0.25000000
   0.50000000  0.75000000  0.25000000
   0.50000000  0.25000000  0.75000000
   0.00000000  0.50000000  0.50000000
   0.75000000  0.75000000 -0.00000000
   0.25000000  0.25000000 -0.00000000
   0.25000000 -0.00000000  0.25000000
   0.75000000 -0.00000000  0.75000000
   0.50000000 -0.00000000  0.50000000
   0.00000000  0.75000000  0.75000000
   0.00000000  0.25000000  0.25000000
   0.50000000  0.50000000 -0.00000000
   0.37500000  0.37500000  0.37500000
   0.62500000  0.62500000  0.62500000
   0.37500000  0.87500000  0.87500000
   0.62500000  0.12500000  0.12500000
   0.87500000  0.87500000  0.37500000
   0.12500000  0.12500000  0.62500000
   0.87500000  0.37500000  0.87500000
   0.12500000  0.62500000  0.12500000
Al4C3 Fd-3m - H(P) scan @ 80 GPa (ISIF=8
           1
     7.819408    0.000000    0.000000
     0.000000    7.819408    0.000000
     0.000000    0.000000    7.819408
   Al   C 
    32    24
Direct configuration=     6
   0.75972599  0.75972599  0.75972599
   0.24027401  0.24027401  0.24027401
   0.99027401  0.49027401  0.25972599
   0.00972599  0.50972599  0.74027401
   0.49027401  0.25972599  0.99027401
   0.50972599  0.74027401  0.00972599
   0.25972599  0.99027401  0.49027401
   0.74027401  0.00972599  0.50972599
   0.50972599  0.00972599  0.74027401
   0.49027401  0.99027401  0.25972599
   0.00972599  0.74027401  0.50972599
   0.99027401  0.25972599  0.49027401
   0.74027401  0.50972599  0.00972599
   0.25972599  0.49027401  0.99027401
   0.75972599  0.25972599  0.25972599
   0.24027401  0.74027401  0.74027401
   0.99027401  0.99027401  0.75972599
   0.00972599  0.00972599  0.24027401
   0.49027401  0.75972599  0.49027401
   0.50972599  0.24027401  0.50972599
   0.50972599  0.50972599  0.24027401
   0.49027401  0.49027401  0.75972599
   0.00972599  0.24027401  0.00972599
   0.99027401  0.75972599  0.99027401
   0.25972599  0.75972599  0.25972599
   0.74027401  0.24027401  0.74027401
   0.75972599  0.99027401  0.99027401
   0.24027401  0.00972599  0.00972599
   0.24027401  0.50972599  0.50972599
   0.75972599  0.49027401  0.49027401
   0.25972599  0.25972599  0.75972599
   0.74027401  0.74027401  0.24027401
   0.00000000 -0.00000000 -0.00000000
   0.75000000  0.25000000  0.50000000
   0.25000000  0.75000000  0.50000000
   0.25000000  0.50000000  0.75000000
   0.75000000  0.50000000  0.25000000
   0.50000000  0.75000000  0.25000000
   0.50000000  0.25000000  0.75000000
   0.00000000  0.50000000  0.50000000
   0.75000000  0.75000000 -0.00000000
   0.25000000  0.25000000 -0.00000000
   0.25000000 -0.00000000  0.25000000
   0.75000000 -0.00000000  0.75000000
   0.50000000 -0.00000000  0.50000000
   0.00000000  0.75000000  0.75000000
   0.00000000  0.25000000  0.25000000
   0.50000000  0.50000000 -0.00000000
   0.37500000  0.37500000  0.37500000
   0.62500000  0.62500000  0.62500000
   0.37500000  0.87500000  0.87500000
   0.62500000  0.12500000  0.12500000
   0.87500000  0.87500000  0.37500000
   0.12500000  0.12500000  0.62500000
   0.87500000  0.37500000  0.87500000
   0.12500000  0.62500000  0.12500000
