       N       E                     dE             d eps       ncg     rms          rms(c)
DAV:   1    -0.158984224634E+03   -0.15898E+03   -0.10041E-06  5178   0.406E-03    0.137E-03
DAV:   2    -0.158984224635E+03   -0.11823E-08   -0.22088E-07  5082   0.195E-03
   1 F= -.70927327E+02 E0= -.70927327E+02  d E =-.709273E+02
       N       E                     dE             d eps       ncg     rms          rms(c)
DAV:   1    -0.152310372075E+03    0.66739E+01   -0.15444E+01  9390   0.166E+01    0.413E+00
DAV:   2    -0.151954389455E+03    0.35598E+00   -0.92682E-01  9696   0.314E+00    0.193E+00
DAV:   3    -0.151923223398E+03    0.31166E-01   -0.15098E-01  9558   0.118E+00    0.559E-01
DAV:   4    -0.151919266004E+03    0.39574E-02   -0.89182E-03  9810   0.299E-01    0.192E-01
DAV:   5    -0.151918650220E+03    0.61578E-03   -0.88607E-04  9840   0.102E-01    0.117E-01
DAV:   6    -0.151918583306E+03    0.66914E-04   -0.16637E-04  9600   0.437E-02    0.148E-02
DAV:   7    -0.151918581512E+03    0.17940E-05   -0.14838E-05  5430   0.188E-02
   2 F= -.70387213E+02 E0= -.70387213E+02  d E =0.540114E+00
       N       E                     dE             d eps       ncg     rms          rms(c)
DAV:   1    -0.157086992641E+03   -0.51684E+01   -0.64681E+00  9372   0.104E+01    0.273E+00
DAV:   2    -0.156929571056E+03    0.15742E+00   -0.41538E-01  9672   0.207E+00    0.125E+00
DAV:   3    -0.156916654763E+03    0.12916E-01   -0.63966E-02  9564   0.755E-01    0.371E-01
DAV:   4    -0.156914737773E+03    0.19170E-02   -0.42878E-03  9774   0.202E-01    0.124E-01
DAV:   5    -0.156914377922E+03    0.35985E-03   -0.49826E-04  9888   0.741E-02    0.733E-02
DAV:   6    -0.156914322643E+03    0.55280E-04   -0.89067E-05  9372   0.311E-02    0.116E-02
DAV:   7    -0.156914317994E+03    0.46489E-05   -0.67726E-06  5154   0.129E-02
   3 F= -.71123306E+02 E0= -.71123306E+02  d E =-.195979E+00
       N       E                     dE             d eps       ncg     rms          rms(c)
DAV:   1    -0.156880494716E+03    0.33828E-01   -0.38764E-04  9378   0.810E-02    0.214E-02
DAV:   2    -0.156880488249E+03    0.64675E-05   -0.22767E-05  5640   0.157E-02
   4 F= -.71123353E+02 E0= -.71123353E+02  d E =-.196026E+00
       N       E                     dE             d eps       ncg     rms          rms(c)
DAV:   1    -0.156875897783E+03    0.45969E-02   -0.39649E-06  4788   0.761E-03    0.586E-03
DAV:   2    -0.156875898445E+03   -0.66208E-06   -0.69153E-07  4632   0.263E-03
   5 F= -.71123355E+02 E0= -.71123355E+02  d E =-.196027E+00
       N       E                     dE             d eps       ncg     rms          rms(c)
DAV:   1    -0.156878033715E+03   -0.21359E-02   -0.18189E-06  4584   0.575E-03    0.110E-03
DAV:   2    -0.156878033674E+03    0.40855E-07   -0.11642E-07  4518   0.135E-03
   6 F= -.71123356E+02 E0= -.71123356E+02  d E =-.196029E+00
       N       E                     dE             d eps       ncg     rms          rms(c)
DAV:   1    -0.156839399801E+03    0.38634E-01   -0.37062E-01  8328   0.249E+00    0.127E-01
DAV:   2    -0.156839353567E+03    0.46234E-04   -0.65075E-03 10104   0.307E-01    0.838E-02
DAV:   3    -0.156839164337E+03    0.18923E-03   -0.48736E-04  9942   0.915E-02    0.378E-02
DAV:   4    -0.156839154639E+03    0.96980E-05   -0.16938E-04  9762   0.457E-02    0.172E-02
DAV:   5    -0.156839153572E+03    0.10670E-05   -0.17790E-05  5856   0.157E-02
   7 F= -.71127478E+02 E0= -.71127478E+02  d E =-.412229E-02
       N       E                     dE             d eps       ncg     rms          rms(c)
DAV:   1    -0.156832047900E+03    0.71067E-02   -0.10542E-02  8418   0.419E-01    0.219E-02
DAV:   2    -0.156832045799E+03    0.21019E-05   -0.18440E-04 10140   0.522E-02    0.148E-02
DAV:   3    -0.156832039780E+03    0.60184E-05   -0.14344E-05  5952   0.166E-02
   8 F= -.71127572E+02 E0= -.71127572E+02  d E =-.421580E-02
       N       E                     dE             d eps       ncg     rms          rms(c)
DAV:   1    -0.156813458031E+03    0.18588E-01   -0.42869E-01  8316   0.263E+00    0.131E-01
DAV:   2    -0.156813197761E+03    0.26027E-03   -0.77079E-03 10080   0.338E-01    0.792E-02
DAV:   3    -0.156812985406E+03    0.21236E-03   -0.56449E-04  9750   0.976E-02    0.324E-02
DAV:   4    -0.156812986988E+03   -0.15825E-05   -0.20853E-04  9810   0.455E-02    0.157E-02
DAV:   5    -0.156812987228E+03   -0.23973E-06   -0.65994E-06  5094   0.101E-02
   9 F= -.71129748E+02 E0= -.71129748E+02  d E =-.217628E-02
       N       E                     dE             d eps       ncg     rms          rms(c)
DAV:   1    -0.156813815477E+03   -0.82849E-03   -0.65225E-04  8436   0.102E-01    0.520E-03
DAV:   2    -0.156813815134E+03    0.34308E-06   -0.11272E-05  5436   0.133E-02
  10 F= -.71129752E+02 E0= -.71129752E+02  d E =-.218006E-02
       N       E                     dE             d eps       ncg     rms          rms(c)
DAV:   1    -0.156798076197E+03    0.15739E-01   -0.19304E-01  8322   0.181E+00    0.809E-02
DAV:   2    -0.156798136631E+03   -0.60434E-04   -0.38532E-03 10152   0.236E-01    0.555E-02
DAV:   3    -0.156798071647E+03    0.64984E-04   -0.17608E-04  9900   0.552E-02    0.310E-02
DAV:   4    -0.156798058089E+03    0.13558E-04   -0.11781E-04  9708   0.367E-02    0.106E-02
DAV:   5    -0.156798057430E+03    0.65916E-06   -0.91614E-06  5304   0.126E-02
  11 F= -.71130995E+02 E0= -.71130995E+02  d E =-.124279E-02
       N       E                     dE             d eps       ncg     rms          rms(c)
DAV:   1    -0.156797546347E+03    0.51174E-03   -0.18139E-04  8472   0.563E-02    0.345E-03
DAV:   2    -0.156797546667E+03   -0.31946E-06   -0.57098E-06  4680   0.932E-03
  12 F= -.71130996E+02 E0= -.71130996E+02  d E =-.124443E-02
       N       E                     dE             d eps       ncg     rms          rms(c)
DAV:   1    -0.156790339073E+03    0.72073E-02   -0.69107E-02  8316   0.108E+00    0.456E-02
DAV:   2    -0.156790354401E+03   -0.15328E-04   -0.85534E-04 10290   0.113E-01    0.278E-02
DAV:   3    -0.156790330677E+03    0.23724E-04   -0.64296E-05  9858   0.335E-02    0.114E-02
DAV:   4    -0.156790330618E+03    0.58794E-07   -0.21414E-05  5904   0.161E-02
  13 F= -.71131915E+02 E0= -.71131915E+02  d E =-.918918E-03
       N       E                     dE             d eps       ncg     rms          rms(c)
DAV:   1    -0.156777755308E+03    0.12575E-01   -0.18108E-01  8316   0.175E+00    0.737E-02
DAV:   2    -0.156777799712E+03   -0.44404E-04   -0.22413E-03 10290   0.183E-01    0.452E-02
DAV:   3    -0.156777738888E+03    0.60823E-04   -0.16754E-04 10032   0.540E-02    0.189E-02
DAV:   4    -0.156777738638E+03    0.25011E-06   -0.56310E-05  7530   0.260E-02
  14 F= -.71132492E+02 E0= -.71132492E+02  d E =-.149559E-02
       N       E                     dE             d eps       ncg     rms          rms(c)
DAV:   1    -0.156784884383E+03   -0.71455E-02   -0.11467E-01  8316   0.138E+00    0.597E-02
DAV:   2    -0.156784883939E+03    0.44384E-06   -0.15595E-03 10182   0.158E-01    0.378E-02
DAV:   3    -0.156784839660E+03    0.44280E-04   -0.14973E-04  9864   0.513E-02    0.150E-02
DAV:   4    -0.156784840121E+03   -0.46093E-06   -0.43759E-05  7086   0.229E-02
  15 F= -.71133189E+02 E0= -.71133189E+02  d E =-.697426E-03
       N       E                     dE             d eps       ncg     rms          rms(c)
DAV:   1    -0.156787729516E+03   -0.28899E-02   -0.21972E-02  8352   0.604E-01    0.265E-02
DAV:   2    -0.156787730457E+03   -0.94159E-06   -0.29810E-04 10194   0.689E-02    0.168E-02
DAV:   3    -0.156787722013E+03    0.84448E-05   -0.27230E-05  7782   0.225E-02
  16 F= -.71133261E+02 E0= -.71133261E+02  d E =-.769513E-03
       N       E                     dE             d eps       ncg     rms          rms(c)
DAV:   1    -0.156754234365E+03    0.33496E-01   -0.10587E-01  8340   0.134E+00    0.656E-02
DAV:   2    -0.156754196955E+03    0.37410E-04   -0.14748E-03 10128   0.152E-01    0.365E-02
DAV:   3    -0.156754154876E+03    0.42079E-04   -0.15635E-04  9930   0.501E-02    0.136E-02
DAV:   4    -0.156754157094E+03   -0.22188E-05   -0.37977E-05  6126   0.199E-02
  17 F= -.71133746E+02 E0= -.71133746E+02  d E =-.484285E-03
       N       E                     dE             d eps       ncg     rms          rms(c)
DAV:   1    -0.156751004152E+03    0.31507E-02   -0.90499E-04  8664   0.124E-01    0.711E-03
DAV:   2    -0.156751003959E+03    0.19363E-06   -0.11450E-05  6756   0.142E-02
  18 F= -.71133750E+02 E0= -.71133750E+02  d E =-.489055E-03
       N       E                     dE             d eps       ncg     rms          rms(c)
DAV:   1    -0.156794577088E+03   -0.43573E-01   -0.45071E-02  8346   0.861E-01    0.481E-02
DAV:   2    -0.156794533058E+03    0.44030E-04   -0.69451E-04 10212   0.103E-01    0.290E-02
DAV:   3    -0.156794509940E+03    0.23118E-04   -0.82877E-05  9702   0.360E-02    0.100E-02
DAV:   4    -0.156794510040E+03   -0.99890E-07   -0.19456E-05  5796   0.145E-02
  19 F= -.71133881E+02 E0= -.71133881E+02  d E =-.130345E-03
       N       E                     dE             d eps       ncg     rms          rms(c)
DAV:   1    -0.156781740304E+03    0.12770E-01   -0.39593E-03  8400   0.255E-01    0.143E-02
DAV:   2    -0.156781737740E+03    0.25634E-05   -0.62796E-05 10146   0.308E-02
  20 F= -.71133911E+02 E0= -.71133911E+02  d E =-.160661E-03
       N       E                     dE             d eps       ncg     rms          rms(c)
DAV:   1    -0.156754705862E+03    0.27034E-01   -0.76818E-03  8352   0.351E-01    0.264E-02
DAV:   2    -0.156754691852E+03    0.14010E-04   -0.25779E-04  9858   0.618E-02    0.167E-02
DAV:   3    -0.156754689178E+03    0.26743E-05   -0.22626E-05  6810   0.190E-02
  21 F= -.71133916E+02 E0= -.71133916E+02  d E =-.509462E-05
       N       E                     dE             d eps       ncg     rms          rms(c)
DAV:   1    -0.156767775315E+03   -0.13083E-01   -0.17611E-03  8370   0.169E-01    0.120E-02
DAV:   2    -0.156767771751E+03    0.35646E-05   -0.64364E-05  9720   0.299E-02
  22 F= -.71133949E+02 E0= -.71133949E+02  d E =-.378029E-04
