Al4C3 anti-CaFe2O4 - H(P) scan @ 60 GPa 
           1
     2.790045    0.000000    0.000000
     0.000000    8.523611    0.000000
     0.000000    0.000000    9.887530
   Al   C 
    16    12
Direct configuration=     1
   0.25000000  0.42452673  0.58737169
   0.75000000  0.57547327  0.41262831
   0.25000000  0.92452673  0.91262831
   0.75000000  0.07547327  0.08737169
   0.25000000  0.48006014  0.20616567
   0.75000000  0.51993986  0.79383433
   0.25000000  0.98006014  0.29383433
   0.75000000  0.01993986  0.70616567
   0.25000000  0.14844413  0.51434757
   0.75000000  0.85155587  0.48565243
   0.25000000  0.64844413  0.98565243
   0.75000000  0.35155587  0.01434757
   0.75000000  0.26623367  0.30003900
   0.25000000  0.73376633  0.69996100
   0.25000000  0.23376633  0.80003900
   0.75000000  0.76623367  0.19996100
   0.75000000  0.75363005  0.85900018
   0.25000000  0.24636995  0.14099982
   0.75000000  0.25363005  0.64099982
   0.25000000  0.74636995  0.35900018
   0.25000000  0.93017970  0.61077023
   0.75000000  0.56982030  0.11077023
   0.25000000  0.43017970  0.88922977
   0.75000000  0.06982030  0.38922977
   0.75000000  0.09689492  0.88934541
   0.25000000  0.90310508  0.11065459
   0.75000000  0.59689492  0.61065459
   0.25000000  0.40310508  0.38934541
Al4C3 anti-CaFe2O4 - H(P) scan @ 60 GPa 
           1
     2.719349    0.000000    0.000000
     0.000000    8.307635    0.000000
     0.000000    0.000000    9.636995
   Al   C 
    16    12
Direct configuration=     2
   0.25000000  0.42452748  0.58737501
   0.75000000  0.57547252  0.41262499
   0.25000000  0.92452748  0.91262499
   0.75000000  0.07547252  0.08737501
   0.25000000  0.48004471  0.20616147
   0.75000000  0.51995529  0.79383853
   0.25000000  0.98004471  0.29383853
   0.75000000  0.01995529  0.70616147
   0.25000000  0.14845347  0.51432661
   0.75000000  0.85154653  0.48567339
   0.25000000  0.64845347  0.98567339
   0.75000000  0.35154653  0.01432661
   0.75000000  0.26618843  0.30005328
   0.25000000  0.73381157  0.69994672
   0.25000000  0.23381157  0.80005328
   0.75000000  0.76618843  0.19994672
   0.75000000  0.75362058  0.85898842
   0.25000000  0.24637942  0.14101158
   0.75000000  0.25362058  0.64101158
   0.25000000  0.74637942  0.35898842
   0.25000000  0.93014995  0.61079108
   0.75000000  0.56985005  0.11079108
   0.25000000  0.43014995  0.88920892
   0.75000000  0.06985005  0.38920892
   0.75000000  0.09685943  0.88934037
   0.25000000  0.90314057  0.11065963
   0.75000000  0.59685943  0.61065963
   0.25000000  0.40314057  0.38934037
Al4C3 anti-CaFe2O4 - H(P) scan @ 60 GPa 
           1
     2.765906    0.000000    0.000000
     0.000000    8.449865    0.000000
     0.000000    0.000000    9.801984
   Al   C 
    16    12
Direct configuration=     3
   0.25000000  0.42452698  0.58737277
   0.75000000  0.57547302  0.41262723
   0.25000000  0.92452698  0.91262723
   0.75000000  0.07547302  0.08737277
   0.25000000  0.48005514  0.20616431
   0.75000000  0.51994486  0.79383569
   0.25000000  0.98005514  0.29383569
   0.75000000  0.01994486  0.70616431
   0.25000000  0.14844716  0.51434077
   0.75000000  0.85155284  0.48565923
   0.25000000  0.64844716  0.98565923
   0.75000000  0.35155284  0.01434077
   0.75000000  0.26621899  0.30004363
   0.25000000  0.73378101  0.69995637
   0.25000000  0.23378101  0.80004363
   0.75000000  0.76621899  0.19995637
   0.75000000  0.75362698  0.85899636
   0.25000000  0.24637302  0.14100364
   0.75000000  0.25362698  0.64100364
   0.25000000  0.74637302  0.35899636
   0.25000000  0.93017005  0.61077699
   0.75000000  0.56982995  0.11077699
   0.25000000  0.43017005  0.88922301
   0.75000000  0.06982995  0.38922301
   0.75000000  0.09688341  0.88934378
   0.25000000  0.90311659  0.11065622
   0.75000000  0.59688341  0.61065622
   0.25000000  0.40311659  0.38934378
Al4C3 anti-CaFe2O4 - H(P) scan @ 60 GPa 
           1
     2.765542    0.000000    0.000000
     0.000000    8.448753    0.000000
     0.000000    0.000000    9.800693
   Al   C 
    16    12
Direct configuration=     4
   0.25000000  0.42452698  0.58737278
   0.75000000  0.57547302  0.41262722
   0.25000000  0.92452698  0.91262722
   0.75000000  0.07547302  0.08737278
   0.25000000  0.48005506  0.20616429
   0.75000000  0.51994494  0.79383571
   0.25000000  0.98005506  0.29383571
   0.75000000  0.01994494  0.70616429
   0.25000000  0.14844721  0.51434066
   0.75000000  0.85155279  0.48565934
   0.25000000  0.64844721  0.98565934
   0.75000000  0.35155279  0.01434066
   0.75000000  0.26621876  0.30004371
   0.25000000  0.73378124  0.69995629
   0.25000000  0.23378124  0.80004371
   0.75000000  0.76621876  0.19995629
   0.75000000  0.75362693  0.85899630
   0.25000000  0.24637307  0.14100370
   0.75000000  0.25362693  0.64100370
   0.25000000  0.74637307  0.35899630
   0.25000000  0.93016990  0.61077710
   0.75000000  0.56983010  0.11077710
   0.25000000  0.43016990  0.88922290
   0.75000000  0.06983010  0.38922290
   0.75000000  0.09688323  0.88934375
   0.25000000  0.90311677  0.11065625
   0.75000000  0.59688323  0.61065625
   0.25000000  0.40311677  0.38934375
Al4C3 anti-CaFe2O4 - H(P) scan @ 60 GPa 
           1
     2.765492    0.000000    0.000000
     0.000000    8.448602    0.000000
     0.000000    0.000000    9.800518
   Al   C 
    16    12
Direct configuration=     5
   0.25000000  0.42452698  0.58737279
   0.75000000  0.57547302  0.41262721
   0.25000000  0.92452698  0.91262721
   0.75000000  0.07547302  0.08737279
   0.25000000  0.48005504  0.20616428
   0.75000000  0.51994496  0.79383572
   0.25000000  0.98005504  0.29383572
   0.75000000  0.01994496  0.70616428
   0.25000000  0.14844722  0.51434065
   0.75000000  0.85155278  0.48565935
   0.25000000  0.64844722  0.98565935
   0.75000000  0.35155278  0.01434065
   0.75000000  0.26621873  0.30004372
   0.25000000  0.73378127  0.69995628
   0.25000000  0.23378127  0.80004372
   0.75000000  0.76621873  0.19995628
   0.75000000  0.75362692  0.85899629
   0.25000000  0.24637308  0.14100371
   0.75000000  0.25362692  0.64100371
   0.25000000  0.74637308  0.35899629
   0.25000000  0.93016987  0.61077711
   0.75000000  0.56983013  0.11077711
   0.25000000  0.43016987  0.88922289
   0.75000000  0.06983013  0.38922289
   0.75000000  0.09688320  0.88934375
   0.25000000  0.90311680  0.11065625
   0.75000000  0.59688320  0.61065625
   0.25000000  0.40311680  0.38934375
Al4C3 anti-CaFe2O4 - H(P) scan @ 60 GPa 
           1
     2.765515    0.000000    0.000000
     0.000000    8.448672    0.000000
     0.000000    0.000000    9.800600
   Al   C 
    16    12
Direct configuration=     6
   0.25000000  0.42452698  0.58737279
   0.75000000  0.57547302  0.41262721
   0.25000000  0.92452698  0.91262721
   0.75000000  0.07547302  0.08737279
   0.25000000  0.48005505  0.20616429
   0.75000000  0.51994495  0.79383571
   0.25000000  0.98005505  0.29383571
   0.75000000  0.01994495  0.70616429
   0.25000000  0.14844722  0.51434065
   0.75000000  0.85155278  0.48565935
   0.25000000  0.64844722  0.98565935
   0.75000000  0.35155278  0.01434065
   0.75000000  0.26621874  0.30004371
   0.25000000  0.73378126  0.69995629
   0.25000000  0.23378126  0.80004371
   0.75000000  0.76621874  0.19995629
   0.75000000  0.75362693  0.85899630
   0.25000000  0.24637307  0.14100370
   0.75000000  0.25362693  0.64100370
   0.25000000  0.74637307  0.35899630
   0.25000000  0.93016988  0.61077711
   0.75000000  0.56983012  0.11077711
   0.25000000  0.43016988  0.88922289
   0.75000000  0.06983012  0.38922289
   0.75000000  0.09688321  0.88934375
   0.25000000  0.90311679  0.11065625
   0.75000000  0.59688321  0.61065625
   0.25000000  0.40311679  0.38934375
Al4C3 anti-CaFe2O4 - H(P) scan @ 60 GPa 
           1
     2.765053    0.000000    0.000000
     0.000000    8.447260    0.000000
     0.000000    0.000000    9.798961
   Al   C 
    16    12
Direct configuration=     7
   0.25000000  0.42452801  0.58770855
   0.75000000  0.57547199  0.41229145
   0.25000000  0.92452801  0.91229145
   0.75000000  0.07547199  0.08770855
   0.25000000  0.48008050  0.20648503
   0.75000000  0.51991950  0.79351497
   0.25000000  0.98008050  0.29351497
   0.75000000  0.01991950  0.70648503
   0.25000000  0.14887085  0.51431206
   0.75000000  0.85112915  0.48568794
   0.25000000  0.64887085  0.98568794
   0.75000000  0.35112915  0.01431206
   0.75000000  0.26631911  0.29988769
   0.25000000  0.73368089  0.70011231
   0.25000000  0.23368089  0.79988769
   0.75000000  0.76631911  0.20011231
   0.75000000  0.75387552  0.85892168
   0.25000000  0.24612448  0.14107832
   0.75000000  0.25387552  0.64107832
   0.25000000  0.74612448  0.35892168
   0.25000000  0.93023386  0.61046996
   0.75000000  0.56976614  0.11046996
   0.25000000  0.43023386  0.88953004
   0.75000000  0.06976614  0.38953004
   0.75000000  0.09726792  0.88972240
   0.25000000  0.90273208  0.11027760
   0.75000000  0.59726792  0.61027760
   0.25000000  0.40273208  0.38972240
Al4C3 anti-CaFe2O4 - H(P) scan @ 60 GPa 
           1
     2.764975    0.000000    0.000000
     0.000000    8.447023    0.000000
     0.000000    0.000000    9.798686
   Al   C 
    16    12
Direct configuration=     8
   0.25000000  0.42452819  0.58776484
   0.75000000  0.57547181  0.41223516
   0.25000000  0.92452819  0.91223516
   0.75000000  0.07547181  0.08776484
   0.25000000  0.48008476  0.20653881
   0.75000000  0.51991524  0.79346119
   0.25000000  0.98008476  0.29346119
   0.75000000  0.01991524  0.70653881
   0.25000000  0.14894188  0.51430726
   0.75000000  0.85105812  0.48569274
   0.25000000  0.64894188  0.98569274
   0.75000000  0.35105812  0.01430726
   0.75000000  0.26633593  0.29986153
   0.25000000  0.73366407  0.70013847
   0.25000000  0.23366407  0.79986153
   0.75000000  0.76633593  0.20013847
   0.75000000  0.75391720  0.85890917
   0.25000000  0.24608280  0.14109083
   0.75000000  0.25391720  0.64109083
   0.25000000  0.74608280  0.35890917
   0.25000000  0.93024459  0.61041846
   0.75000000  0.56975541  0.11041846
   0.25000000  0.43024459  0.88958154
   0.75000000  0.06975541  0.38958154
   0.75000000  0.09733242  0.88978588
   0.25000000  0.90266758  0.11021412
   0.75000000  0.59733242  0.61021412
   0.25000000  0.40266758  0.38978588
Al4C3 anti-CaFe2O4 - H(P) scan @ 60 GPa 
           1
     2.764747    0.000000    0.000000
     0.000000    8.446325    0.000000
     0.000000    0.000000    9.797877
   Al   C 
    16    12
Direct configuration=     9
   0.25000000  0.42483728  0.58798867
   0.75000000  0.57516272  0.41201133
   0.25000000  0.92483728  0.91201133
   0.75000000  0.07516272  0.08798867
   0.25000000  0.48039518  0.20650350
   0.75000000  0.51960482  0.79349650
   0.25000000  0.98039518  0.29349650
   0.75000000  0.01960482  0.70650350
   0.25000000  0.14931454  0.51418571
   0.75000000  0.85068546  0.48581429
   0.25000000  0.64931454  0.98581429
   0.75000000  0.35068546  0.01418571
   0.75000000  0.26604482  0.29986992
   0.25000000  0.73395518  0.70013008
   0.25000000  0.23395518  0.79986992
   0.75000000  0.76604482  0.20013008
   0.75000000  0.75421010  0.85867840
   0.25000000  0.24578990  0.14132160
   0.75000000  0.25421010  0.64132160
   0.25000000  0.74578990  0.35867840
   0.25000000  0.93041402  0.61050469
   0.75000000  0.56958598  0.11050469
   0.25000000  0.43041402  0.88949531
   0.75000000  0.06958598  0.38949531
   0.75000000  0.09781142  0.89014132
   0.25000000  0.90218858  0.10985868
   0.75000000  0.59781142  0.60985868
   0.25000000  0.40218858  0.39014132
Al4C3 anti-CaFe2O4 - H(P) scan @ 60 GPa 
           1
     2.764756    0.000000    0.000000
     0.000000    8.446352    0.000000
     0.000000    0.000000    9.797909
   Al   C 
    16    12
Direct configuration=    10
   0.25000000  0.42482528  0.58797998
   0.75000000  0.57517472  0.41202002
   0.25000000  0.92482528  0.91202002
   0.75000000  0.07517472  0.08797998
   0.25000000  0.48038313  0.20650487
   0.75000000  0.51961687  0.79349513
   0.25000000  0.98038313  0.29349513
   0.75000000  0.01961687  0.70650487
   0.25000000  0.14930007  0.51419043
   0.75000000  0.85069993  0.48580957
   0.25000000  0.64930007  0.98580957
   0.75000000  0.35069993  0.01419043
   0.75000000  0.26605612  0.29986959
   0.25000000  0.73394388  0.70013041
   0.25000000  0.23394388  0.79986959
   0.75000000  0.76605612  0.20013041
   0.75000000  0.75419872  0.85868736
   0.25000000  0.24580128  0.14131264
   0.75000000  0.25419872  0.64131264
   0.25000000  0.74580128  0.35868736
   0.25000000  0.93040745  0.61050135
   0.75000000  0.56959255  0.11050135
   0.25000000  0.43040745  0.88949865
   0.75000000  0.06959255  0.38949865
   0.75000000  0.09779282  0.89012752
   0.25000000  0.90220718  0.10987248
   0.75000000  0.59779282  0.60987248
   0.25000000  0.40220718  0.39012752
Al4C3 anti-CaFe2O4 - H(P) scan @ 60 GPa 
           1
     2.764573    0.000000    0.000000
     0.000000    8.445794    0.000000
     0.000000    0.000000    9.797261
   Al   C 
    16    12
Direct configuration=    11
   0.25000000  0.42532998  0.58799488
   0.75000000  0.57467002  0.41200512
   0.25000000  0.92532998  0.91200512
   0.75000000  0.07467002  0.08799488
   0.25000000  0.48026706  0.20661525
   0.75000000  0.51973294  0.79338475
   0.25000000  0.98026706  0.29338475
   0.75000000  0.01973294  0.70661525
   0.25000000  0.14961163  0.51414118
   0.75000000  0.85038837  0.48585882
   0.25000000  0.64961163  0.98585882
   0.75000000  0.35038837  0.01414118
   0.75000000  0.26590725  0.29986710
   0.25000000  0.73409275  0.70013290
   0.25000000  0.23409275  0.79986710
   0.75000000  0.76590725  0.20013290
   0.75000000  0.75440363  0.85846473
   0.25000000  0.24559637  0.14153527
   0.75000000  0.25440363  0.64153527
   0.25000000  0.74559637  0.35846473
   0.25000000  0.93061312  0.61049941
   0.75000000  0.56938688  0.11049941
   0.25000000  0.43061312  0.88950059
   0.75000000  0.06938688  0.38950059
   0.75000000  0.09815742  0.89008020
   0.25000000  0.90184258  0.10991980
   0.75000000  0.59815742  0.60991980
   0.25000000  0.40184258  0.39008020
Al4C3 anti-CaFe2O4 - H(P) scan @ 60 GPa 
           1
     2.764568    0.000000    0.000000
     0.000000    8.445777    0.000000
     0.000000    0.000000    9.797241
   Al   C 
    16    12
Direct configuration=    12
   0.25000000  0.42534520  0.58799533
   0.75000000  0.57465480  0.41200467
   0.25000000  0.92534520  0.91200467
   0.75000000  0.07465480  0.08799533
   0.25000000  0.48026356  0.20661858
   0.75000000  0.51973644  0.79338142
   0.25000000  0.98026356  0.29338142
   0.75000000  0.01973644  0.70661858
   0.25000000  0.14962102  0.51413970
   0.75000000  0.85037898  0.48586030
   0.25000000  0.64962102  0.98586030
   0.75000000  0.35037898  0.01413970
   0.75000000  0.26590276  0.29986703
   0.25000000  0.73409724  0.70013297
   0.25000000  0.23409724  0.79986703
   0.75000000  0.76590276  0.20013297
   0.75000000  0.75440980  0.85845801
   0.25000000  0.24559020  0.14154199
   0.75000000  0.25440980  0.64154199
   0.25000000  0.74559020  0.35845801
   0.25000000  0.93061932  0.61049935
   0.75000000  0.56938068  0.11049935
   0.25000000  0.43061932  0.88950065
   0.75000000  0.06938068  0.38950065
   0.75000000  0.09816841  0.89007877
   0.25000000  0.90183159  0.10992123
   0.75000000  0.59816841  0.60992123
   0.25000000  0.40183159  0.39007877
Al4C3 anti-CaFe2O4 - H(P) scan @ 60 GPa 
           1
     2.764480    0.000000    0.000000
     0.000000    8.445510    0.000000
     0.000000    0.000000    9.796931
   Al   C 
    16    12
Direct configuration=    13
   0.25000000  0.42553265  0.58800131
   0.75000000  0.57446735  0.41199869
   0.25000000  0.92553265  0.91199869
   0.75000000  0.07446735  0.08800131
   0.25000000  0.48000057  0.20653438
   0.75000000  0.51999943  0.79346562
   0.25000000  0.98000057  0.29346562
   0.75000000  0.01999943  0.70653438
   0.25000000  0.14973345  0.51416139
   0.75000000  0.85026655  0.48583861
   0.25000000  0.64973345  0.98583861
   0.75000000  0.35026655  0.01416139
   0.75000000  0.26563881  0.29975732
   0.25000000  0.73436119  0.70024268
   0.25000000  0.23436119  0.79975732
   0.75000000  0.76563881  0.20024268
   0.75000000  0.75464330  0.85845070
   0.25000000  0.24535670  0.14154930
   0.75000000  0.25464330  0.64154930
   0.25000000  0.74535670  0.35845070
   0.25000000  0.93076492  0.61044292
   0.75000000  0.56923508  0.11044292
   0.25000000  0.43076492  0.88955708
   0.75000000  0.06923508  0.38955708
   0.75000000  0.09831200  0.89010951
   0.25000000  0.90168800  0.10989049
   0.75000000  0.59831200  0.60989049
   0.25000000  0.40168800  0.39010951
Al4C3 anti-CaFe2O4 - H(P) scan @ 60 GPa 
           1
     2.764338    0.000000    0.000000
     0.000000    8.445077    0.000000
     0.000000    0.000000    9.796429
   Al   C 
    16    12
Direct configuration=    14
   0.25000000  0.42583612  0.58801101
   0.75000000  0.57416388  0.41198899
   0.25000000  0.92583612  0.91198899
   0.75000000  0.07416388  0.08801101
   0.25000000  0.47957480  0.20639807
   0.75000000  0.52042520  0.79360193
   0.25000000  0.97957480  0.29360193
   0.75000000  0.02042520  0.70639807
   0.25000000  0.14991547  0.51419652
   0.75000000  0.85008453  0.48580348
   0.25000000  0.64991547  0.98580348
   0.75000000  0.35008453  0.01419652
   0.75000000  0.26521149  0.29957972
   0.25000000  0.73478851  0.70042028
   0.25000000  0.23478851  0.79957972
   0.75000000  0.76521149  0.20042028
   0.75000000  0.75502132  0.85843887
   0.25000000  0.24497868  0.14156113
   0.75000000  0.25502132  0.64156113
   0.25000000  0.74497868  0.35843887
   0.25000000  0.93100063  0.61035157
   0.75000000  0.56899937  0.11035157
   0.25000000  0.43100063  0.88964843
   0.75000000  0.06899937  0.38964843
   0.75000000  0.09854447  0.89015928
   0.25000000  0.90145553  0.10984072
   0.75000000  0.59854447  0.60984072
   0.25000000  0.40145553  0.39015928
Al4C3 anti-CaFe2O4 - H(P) scan @ 60 GPa 
           1
     2.764407    0.000000    0.000000
     0.000000    8.445287    0.000000
     0.000000    0.000000    9.796673
   Al   C 
    16    12
Direct configuration=    15
   0.25000000  0.42592689  0.58813922
   0.75000000  0.57407311  0.41186078
   0.25000000  0.92592689  0.91186078
   0.75000000  0.07407311  0.08813922
   0.25000000  0.47926495  0.20629402
   0.75000000  0.52073505  0.79370598
   0.25000000  0.97926495  0.29370598
   0.75000000  0.02073505  0.70629402
   0.25000000  0.15005735  0.51399860
   0.75000000  0.84994265  0.48600140
   0.25000000  0.65005735  0.98600140
   0.75000000  0.34994265  0.01399860
   0.75000000  0.26490511  0.29957258
   0.25000000  0.73509489  0.70042742
   0.25000000  0.23509489  0.79957258
   0.75000000  0.76490511  0.20042742
   0.75000000  0.75519069  0.85855829
   0.25000000  0.24480931  0.14144171
   0.75000000  0.25519069  0.64144171
   0.25000000  0.74480931  0.35855829
   0.25000000  0.93117587  0.61034181
   0.75000000  0.56882413  0.11034181
   0.25000000  0.43117587  0.88965819
   0.75000000  0.06882413  0.38965819
   0.75000000  0.09880773  0.89006029
   0.25000000  0.90119227  0.10993971
   0.75000000  0.59880773  0.60993971
   0.25000000  0.40119227  0.39006029
Al4C3 anti-CaFe2O4 - H(P) scan @ 60 GPa 
           1
     2.764437    0.000000    0.000000
     0.000000    8.445380    0.000000
     0.000000    0.000000    9.796780
   Al   C 
    16    12
Direct configuration=    16
   0.25000000  0.42596672  0.58819547
   0.75000000  0.57403328  0.41180453
   0.25000000  0.92596672  0.91180453
   0.75000000  0.07403328  0.08819547
   0.25000000  0.47912901  0.20624838
   0.75000000  0.52087099  0.79375162
   0.25000000  0.97912901  0.29375162
   0.75000000  0.02087099  0.70624838
   0.25000000  0.15011959  0.51391176
   0.75000000  0.84988041  0.48608824
   0.25000000  0.65011959  0.98608824
   0.75000000  0.34988041  0.01391176
   0.75000000  0.26477069  0.29956945
   0.25000000  0.73522931  0.70043055
   0.25000000  0.23522931  0.79956945
   0.75000000  0.76477069  0.20043055
   0.75000000  0.75526499  0.85861068
   0.25000000  0.24473501  0.14138932
   0.75000000  0.25526499  0.64138932
   0.25000000  0.74473501  0.35861068
   0.25000000  0.93125275  0.61033753
   0.75000000  0.56874725  0.11033753
   0.25000000  0.43125275  0.88966247
   0.75000000  0.06874725  0.38966247
   0.75000000  0.09892323  0.89001686
   0.25000000  0.90107677  0.10998314
   0.75000000  0.59892323  0.60998314
   0.25000000  0.40107677  0.39001686
Al4C3 anti-CaFe2O4 - H(P) scan @ 60 GPa 
           1
     2.764071    0.000000    0.000000
     0.000000    8.444260    0.000000
     0.000000    0.000000    9.795482
   Al   C 
    16    12
Direct configuration=    17
   0.25000000  0.42607561  0.58821040
   0.75000000  0.57392439  0.41178960
   0.25000000  0.92607561  0.91178960
   0.75000000  0.07392439  0.08821040
   0.25000000  0.47872087  0.20614666
   0.75000000  0.52127913  0.79385334
   0.25000000  0.97872087  0.29385334
   0.75000000  0.02127913  0.70614666
   0.25000000  0.15033605  0.51365188
   0.75000000  0.84966395  0.48634812
   0.25000000  0.65033605  0.98634812
   0.75000000  0.34966395  0.01365188
   0.75000000  0.26470355  0.29951407
   0.25000000  0.73529645  0.70048593
   0.25000000  0.23529645  0.79951407
   0.75000000  0.76470355  0.20048593
   0.75000000  0.75530823  0.85876723
   0.25000000  0.24469177  0.14123277
   0.75000000  0.25530823  0.64123277
   0.25000000  0.74469177  0.35876723
   0.25000000  0.93150159  0.61041269
   0.75000000  0.56849841  0.11041269
   0.25000000  0.43150159  0.88958731
   0.75000000  0.06849841  0.38958731
   0.75000000  0.09911782  0.89007423
   0.25000000  0.90088218  0.10992577
   0.75000000  0.59911782  0.60992577
   0.25000000  0.40088218  0.39007423
Al4C3 anti-CaFe2O4 - H(P) scan @ 60 GPa 
           1
     2.764037    0.000000    0.000000
     0.000000    8.444157    0.000000
     0.000000    0.000000    9.795362
   Al   C 
    16    12
Direct configuration=    18
   0.25000000  0.42608571  0.58821179
   0.75000000  0.57391429  0.41178821
   0.25000000  0.92608571  0.91178821
   0.75000000  0.07391429  0.08821179
   0.25000000  0.47868301  0.20613722
   0.75000000  0.52131699  0.79386278
   0.25000000  0.97868301  0.29386278
   0.75000000  0.02131699  0.70613722
   0.25000000  0.15035614  0.51362777
   0.75000000  0.84964386  0.48637223
   0.25000000  0.65035614  0.98637223
   0.75000000  0.34964386  0.01362777
   0.75000000  0.26469733  0.29950894
   0.25000000  0.73530267  0.70049106
   0.25000000  0.23530267  0.79950894
   0.75000000  0.76469733  0.20049106
   0.75000000  0.75531224  0.85878175
   0.25000000  0.24468776  0.14121825
   0.75000000  0.25531224  0.64121825
   0.25000000  0.74468776  0.35878175
   0.25000000  0.93152467  0.61041966
   0.75000000  0.56847533  0.11041966
   0.25000000  0.43152467  0.88958034
   0.75000000  0.06847533  0.38958034
   0.75000000  0.09913588  0.89007955
   0.25000000  0.90086412  0.10992045
   0.75000000  0.59913588  0.60992045
   0.25000000  0.40086412  0.39007955
Al4C3 anti-CaFe2O4 - H(P) scan @ 60 GPa 
           1
     2.764504    0.000000    0.000000
     0.000000    8.445582    0.000000
     0.000000    0.000000    9.797015
   Al   C 
    16    12
Direct configuration=    19
   0.25000000  0.42614729  0.58827300
   0.75000000  0.57385271  0.41172700
   0.25000000  0.92614729  0.91172700
   0.75000000  0.07385271  0.08827300
   0.25000000  0.47844666  0.20608165
   0.75000000  0.52155334  0.79391835
   0.25000000  0.97844666  0.29391835
   0.75000000  0.02155334  0.70608165
   0.25000000  0.15046421  0.51346263
   0.75000000  0.84953579  0.48653737
   0.25000000  0.65046421  0.98653737
   0.75000000  0.34953579  0.01346263
   0.75000000  0.26458757  0.29941677
   0.25000000  0.73541243  0.70058323
   0.25000000  0.23541243  0.79941677
   0.75000000  0.76458757  0.20058323
   0.75000000  0.75529969  0.85882590
   0.25000000  0.24470031  0.14117410
   0.75000000  0.25529969  0.64117410
   0.25000000  0.74470031  0.35882590
   0.25000000  0.93152510  0.61057705
   0.75000000  0.56847490  0.11057705
   0.25000000  0.43152510  0.88942295
   0.75000000  0.06847490  0.38942295
   0.75000000  0.09918564  0.89020234
   0.25000000  0.90081436  0.10979766
   0.75000000  0.59918564  0.60979766
   0.25000000  0.40081436  0.39020234
Al4C3 anti-CaFe2O4 - H(P) scan @ 60 GPa 
           1
     2.764366    0.000000    0.000000
     0.000000    8.445162    0.000000
     0.000000    0.000000    9.796527
   Al   C 
    16    12
Direct configuration=    20
   0.25000000  0.42612912  0.58825494
   0.75000000  0.57387088  0.41174506
   0.25000000  0.92612912  0.91174506
   0.75000000  0.07387088  0.08825494
   0.25000000  0.47851640  0.20609805
   0.75000000  0.52148360  0.79390195
   0.25000000  0.97851640  0.29390195
   0.75000000  0.02148360  0.70609805
   0.25000000  0.15043232  0.51351136
   0.75000000  0.84956768  0.48648864
   0.25000000  0.65043232  0.98648864
   0.75000000  0.34956768  0.01351136
   0.75000000  0.26461996  0.29944396
   0.25000000  0.73538004  0.70055604
   0.25000000  0.23538004  0.79944396
   0.75000000  0.76461996  0.20055604
   0.75000000  0.75530339  0.85881287
   0.25000000  0.24469661  0.14118713
   0.75000000  0.25530339  0.64118713
   0.25000000  0.74469661  0.35881287
   0.25000000  0.93152498  0.61053061
   0.75000000  0.56847502  0.11053061
   0.25000000  0.43152498  0.88946939
   0.75000000  0.06847502  0.38946939
   0.75000000  0.09917096  0.89016611
   0.25000000  0.90082904  0.10983389
   0.75000000  0.59917096  0.60983389
   0.25000000  0.40082904  0.39016611
Al4C3 anti-CaFe2O4 - H(P) scan @ 60 GPa 
           1
     2.764075    0.000000    0.000000
     0.000000    8.444272    0.000000
     0.000000    0.000000    9.795496
   Al   C 
    16    12
Direct configuration=    21
   0.25000000  0.42617737  0.58832416
   0.75000000  0.57382263  0.41167584
   0.25000000  0.92617737  0.91167584
   0.75000000  0.07382263  0.08832416
   0.25000000  0.47838733  0.20612121
   0.75000000  0.52161267  0.79387879
   0.25000000  0.97838733  0.29387879
   0.75000000  0.02161267  0.70612121
   0.25000000  0.15045270  0.51343694
   0.75000000  0.84954730  0.48656306
   0.25000000  0.65045270  0.98656306
   0.75000000  0.34954730  0.01343694
   0.75000000  0.26459597  0.29937147
   0.25000000  0.73540403  0.70062853
   0.25000000  0.23540403  0.79937147
   0.75000000  0.76459597  0.20062853
   0.75000000  0.75527221  0.85880074
   0.25000000  0.24472779  0.14119926
   0.75000000  0.25527221  0.64119926
   0.25000000  0.74472779  0.35880074
   0.25000000  0.93148475  0.61058901
   0.75000000  0.56851525  0.11058901
   0.25000000  0.43148475  0.88941099
   0.75000000  0.06851525  0.38941099
   0.75000000  0.09918873  0.89015794
   0.25000000  0.90081127  0.10984206
   0.75000000  0.59918873  0.60984206
   0.25000000  0.40081127  0.39015794
Al4C3 anti-CaFe2O4 - H(P) scan @ 60 GPa 
           1
     2.764215    0.000000    0.000000
     0.000000    8.444701    0.000000
     0.000000    0.000000    9.795993
   Al   C 
    16    12
Direct configuration=    22
   0.25000000  0.42615409  0.58829077
   0.75000000  0.57384591  0.41170923
   0.25000000  0.92615409  0.91170923
   0.75000000  0.07384591  0.08829077
   0.25000000  0.47844960  0.20611004
   0.75000000  0.52155040  0.79388996
   0.25000000  0.97844960  0.29388996
   0.75000000  0.02155040  0.70611004
   0.25000000  0.15044287  0.51347285
   0.75000000  0.84955713  0.48652715
   0.25000000  0.65044287  0.98652715
   0.75000000  0.34955713  0.01347285
   0.75000000  0.26460755  0.29940645
   0.25000000  0.73539245  0.70059355
   0.25000000  0.23539245  0.79940645
   0.75000000  0.76460755  0.20059355
   0.75000000  0.75528726  0.85880659
   0.25000000  0.24471274  0.14119341
   0.75000000  0.25528726  0.64119341
   0.25000000  0.74471274  0.35880659
   0.25000000  0.93150416  0.61056083
   0.75000000  0.56849584  0.11056083
   0.25000000  0.43150416  0.88943917
   0.75000000  0.06849584  0.38943917
   0.75000000  0.09918016  0.89016188
   0.25000000  0.90081984  0.10983812
   0.75000000  0.59918016  0.60983812
   0.25000000  0.40081984  0.39016188
