Al4C3 Pnma (CIF findsym, P21/n21/m21/a) 
   1.00000000000000     
     8.7579689827783742    0.0000000000000000    0.0000000000000000
     0.0000000000000000    3.0091231692259655    0.0000000000000000
     0.0000000000000000    0.0000000000000000    9.2325076782034987
   Al   C 
    16    12
Direct
  0.2696381473211699  0.2500000000000000  0.2662743377073694
  0.7696381473211700  0.2500000000000000  0.2337256622926308
  0.7303618526788300  0.7500000000000000  0.7337256622926307
  0.2303618526788301  0.7500000000000000  0.7662743377073693
  0.4640295685062963  0.2500000000000000  0.8917071680610954
  0.9640295685062964  0.2500000000000000  0.6082928319389046
  0.5359704314937036  0.7500000000000000  0.1082928319389046
  0.0359704314937037  0.7500000000000000  0.3917071680610954
  0.5055445029557578  0.2500000000000000  0.6058505402881981
  0.0055445029557576  0.2500000000000000  0.8941494597118019
  0.4944554970442425  0.7500000000000000  0.3941494597118019
  0.9944554970442422  0.7500000000000000  0.1058505402881981
  0.2349258137398841  0.2500000000000000  0.5569030131242910
  0.7349258137398841  0.2500000000000000  0.9430969868757090
  0.7650741862601159  0.7500000000000000  0.4430969868757091
  0.2650741862601160  0.7500000000000000  0.0569030131242909
  0.3848160795414006  0.2500000000000000  0.4260246699102943
  0.8848160795414006  0.2500000000000000  0.0739753300897057
  0.6151839204585994  0.7500000000000000  0.5739753300897058
  0.1151839204585994  0.7500000000000000  0.9260246699102942
  0.3962189924058810  0.2500000000000000  0.0894199256464957
  0.8962189924058808  0.2500000000000000  0.4105800743535043
  0.6037810075941192  0.7500000000000000  0.9105800743535043
  0.1037810075941190  0.7500000000000000  0.5894199256464957
  0.3458368060531226  0.2500000000000000  0.7340141920821267
  0.8458368060531227  0.2500000000000000  0.7659858079178733
  0.6541631939468773  0.7500000000000000  0.2659858079178730
  0.1541631939468773  0.7500000000000000  0.2340141920821271
 
  0.00000000E+00  0.00000000E+00  0.00000000E+00
  0.00000000E+00  0.00000000E+00  0.00000000E+00
  0.00000000E+00  0.00000000E+00  0.00000000E+00
  0.00000000E+00  0.00000000E+00  0.00000000E+00
  0.00000000E+00  0.00000000E+00  0.00000000E+00
  0.00000000E+00  0.00000000E+00  0.00000000E+00
  0.00000000E+00  0.00000000E+00  0.00000000E+00
  0.00000000E+00  0.00000000E+00  0.00000000E+00
  0.00000000E+00  0.00000000E+00  0.00000000E+00
  0.00000000E+00  0.00000000E+00  0.00000000E+00
  0.00000000E+00  0.00000000E+00  0.00000000E+00
  0.00000000E+00  0.00000000E+00  0.00000000E+00
  0.00000000E+00  0.00000000E+00  0.00000000E+00
  0.00000000E+00  0.00000000E+00  0.00000000E+00
  0.00000000E+00  0.00000000E+00  0.00000000E+00
  0.00000000E+00  0.00000000E+00  0.00000000E+00
  0.00000000E+00  0.00000000E+00  0.00000000E+00
  0.00000000E+00  0.00000000E+00  0.00000000E+00
  0.00000000E+00  0.00000000E+00  0.00000000E+00
  0.00000000E+00  0.00000000E+00  0.00000000E+00
  0.00000000E+00  0.00000000E+00  0.00000000E+00
  0.00000000E+00  0.00000000E+00  0.00000000E+00
  0.00000000E+00  0.00000000E+00  0.00000000E+00
  0.00000000E+00  0.00000000E+00  0.00000000E+00
  0.00000000E+00  0.00000000E+00  0.00000000E+00
  0.00000000E+00  0.00000000E+00  0.00000000E+00
  0.00000000E+00  0.00000000E+00  0.00000000E+00
  0.00000000E+00  0.00000000E+00  0.00000000E+00
