  28  28   0   0
  0.8903558E+01  0.8829232E-09  0.3033608E-09  0.9307632E-09  0.5000000E-15
  1.000000000000000E-004
  CAR 
 Al4C3 Pnma-VII - H(P) scan @ 80 GPa (ISI
     19.75220449     -6.37046153  301     10.67523707      1.00000000
     -6.370  0.0000E+00  0.0000E+00
     -6.283  0.0000E+00  0.0000E+00
     -6.196  0.0000E+00  0.0000E+00
     -6.109  0.0000E+00  0.0000E+00
     -6.022  0.0000E+00  0.0000E+00
     -5.935  0.0000E+00  0.0000E+00
     -5.848  0.0000E+00  0.0000E+00
     -5.761  0.0000E+00  0.0000E+00
     -5.674  0.0000E+00  0.0000E+00
     -5.587  0.0000E+00  0.0000E+00
     -5.500  0.0000E+00  0.0000E+00
     -5.413  0.2745E-13  0.2390E-14
     -5.326  0.1819E-07  0.1584E-08
     -5.238  0.3827E-04  0.3334E-05
     -5.151  0.6691E-03  0.6159E-04
     -5.064  0.3043E-02  0.3265E-03
     -4.977  0.6016E-02  0.8503E-03
     -4.890  0.6181E-02  0.1389E-02
     -4.803  0.5664E-02  0.1882E-02
     -4.716  0.9459E-02  0.2705E-02
     -4.629  0.1482E-01  0.3996E-02
     -4.542  0.1081E-01  0.4937E-02
     -4.455  0.7156E-02  0.5560E-02
     -4.368  0.1288E-01  0.6681E-02
     -4.281  0.1143E-01  0.7676E-02
     -4.194  0.4761E-02  0.8091E-02
     -4.106  0.7774E-02  0.8768E-02
     -4.019  0.1479E-01  0.1006E-01
     -3.932  0.9833E-02  0.1091E-01
     -3.845  0.1586E-01  0.1229E-01
     -3.758  0.1873E-01  0.1392E-01
     -3.671  0.9869E-02  0.1478E-01
     -3.584  0.1160E-01  0.1579E-01
     -3.497  0.2524E-01  0.1799E-01
     -3.410  0.1780E-01  0.1954E-01
     -3.323  0.1215E-01  0.2060E-01
     -3.236  0.1119E-01  0.2157E-01
     -3.149  0.1293E-01  0.2270E-01
     -3.062  0.2239E-01  0.2465E-01
     -2.975  0.2353E-01  0.2670E-01
     -2.887  0.1417E-01  0.2793E-01
     -2.800  0.1628E-01  0.2935E-01
     -2.713  0.1870E-01  0.3098E-01
     -2.626  0.1999E-01  0.3272E-01
     -2.539  0.2134E-01  0.3458E-01
     -2.452  0.2176E-01  0.3647E-01
     -2.365  0.2074E-01  0.3828E-01
     -2.278  0.2236E-01  0.4022E-01
     -2.191  0.3145E-01  0.4296E-01
     -2.104  0.2221E-01  0.4490E-01
     -2.017  0.2334E-01  0.4693E-01
     -1.930  0.2789E-01  0.4936E-01
     -1.843  0.2039E-01  0.5113E-01
     -1.755  0.2632E-01  0.5342E-01
     -1.668  0.2017E-01  0.5518E-01
     -1.581  0.2176E-01  0.5708E-01
     -1.494  0.4383E-01  0.6089E-01
     -1.407  0.4352E-01  0.6468E-01
     -1.320  0.3906E-01  0.6808E-01
     -1.233  0.3805E-01  0.7140E-01
     -1.146  0.3361E-01  0.7432E-01
     -1.059  0.3499E-01  0.7737E-01
     -0.972  0.4854E-01  0.8160E-01
     -0.885  0.3993E-01  0.8507E-01
     -0.798  0.2264E-01  0.8704E-01
     -0.711  0.2953E-01  0.8962E-01
     -0.623  0.2915E-01  0.9215E-01
     -0.536  0.3077E-01  0.9483E-01
     -0.449  0.3559E-01  0.9793E-01
     -0.362  0.4590E-01  0.1019E+00
     -0.275  0.4181E-01  0.1056E+00
     -0.188  0.3863E-01  0.1089E+00
     -0.101  0.4506E-01  0.1129E+00
     -0.014  0.5261E-01  0.1174E+00
      0.073  0.2788E-01  0.1199E+00
      0.160  0.1542E-02  0.1200E+00
      0.247  0.1272E-05  0.1200E+00
      0.334  0.4409E-11  0.1200E+00
      0.421  0.0000E+00  0.1200E+00
      0.509  0.0000E+00  0.1200E+00
      0.596  0.0000E+00  0.1200E+00
      0.683  0.0000E+00  0.1200E+00
      0.770  0.0000E+00  0.1200E+00
      0.857  0.0000E+00  0.1200E+00
      0.944  0.0000E+00  0.1200E+00
      1.031  0.0000E+00  0.1200E+00
      1.118  0.0000E+00  0.1200E+00
      1.205  0.0000E+00  0.1200E+00
      1.292  0.0000E+00  0.1200E+00
      1.379  0.0000E+00  0.1200E+00
      1.466  0.5701E-16  0.1200E+00
      1.553  0.3823E-09  0.1200E+00
      1.640  0.7409E-05  0.1200E+00
      1.728  0.7318E-03  0.1201E+00
      1.815  0.4320E-02  0.1204E+00
      1.902  0.8164E-02  0.1212E+00
      1.989  0.7095E-02  0.1218E+00
      2.076  0.7929E-02  0.1225E+00
      2.163  0.1157E-01  0.1235E+00
      2.250  0.2206E-01  0.1254E+00
      2.337  0.1660E-01  0.1268E+00
      2.424  0.2015E-01  0.1286E+00
      2.511  0.2659E-01  0.1309E+00
      2.598  0.2821E-01  0.1334E+00
      2.685  0.2111E-01  0.1352E+00
      2.772  0.1724E-01  0.1367E+00
      2.860  0.1853E-01  0.1383E+00
      2.947  0.1221E-01  0.1394E+00
      3.034  0.2299E-01  0.1414E+00
      3.121  0.3332E-01  0.1443E+00
      3.208  0.3089E-01  0.1470E+00
      3.295  0.2515E-01  0.1492E+00
      3.382  0.2341E-01  0.1512E+00
      3.469  0.2563E-01  0.1534E+00
      3.556  0.1967E-01  0.1551E+00
      3.643  0.2504E-01  0.1573E+00
      3.730  0.3966E-01  0.1608E+00
      3.817  0.4940E-01  0.1651E+00
      3.904  0.5899E-01  0.1702E+00
      3.992  0.5199E-01  0.1747E+00
      4.079  0.5730E-01  0.1797E+00
      4.166  0.3402E-01  0.1827E+00
      4.253  0.4012E-01  0.1862E+00
      4.340  0.5093E-01  0.1906E+00
      4.427  0.4173E-01  0.1943E+00
      4.514  0.4152E-01  0.1979E+00
      4.601  0.3446E-01  0.2009E+00
      4.688  0.3813E-01  0.2042E+00
      4.775  0.4408E-01  0.2080E+00
      4.862  0.3066E-01  0.2107E+00
      4.949  0.3282E-01  0.2136E+00
      5.036  0.3707E-01  0.2168E+00
      5.124  0.3319E-01  0.2197E+00
      5.211  0.3231E-01  0.2225E+00
      5.298  0.3452E-01  0.2255E+00
      5.385  0.3759E-01  0.2288E+00
      5.472  0.4580E-01  0.2328E+00
      5.559  0.3858E-01  0.2361E+00
      5.646  0.3311E-01  0.2390E+00
      5.733  0.3438E-01  0.2420E+00
      5.820  0.3382E-01  0.2449E+00
      5.907  0.4871E-01  0.2492E+00
      5.994  0.4712E-01  0.2533E+00
      6.081  0.4222E-01  0.2570E+00
      6.168  0.4074E-01  0.2605E+00
      6.255  0.4129E-01  0.2641E+00
      6.343  0.5505E-01  0.2689E+00
      6.430  0.5063E-01  0.2733E+00
      6.517  0.4482E-01  0.2772E+00
      6.604  0.4353E-01  0.2810E+00
      6.691  0.3506E-01  0.2840E+00
      6.778  0.4934E-01  0.2883E+00
      6.865  0.4759E-01  0.2925E+00
      6.952  0.3638E-01  0.2957E+00
      7.039  0.4933E-01  0.3000E+00
      7.126  0.5450E-01  0.3047E+00
      7.213  0.5497E-01  0.3095E+00
      7.300  0.5497E-01  0.3143E+00
      7.387  0.5060E-01  0.3187E+00
      7.475  0.5854E-01  0.3238E+00
      7.562  0.5615E-01  0.3287E+00
      7.649  0.5526E-01  0.3335E+00
      7.736  0.7392E-01  0.3399E+00
      7.823  0.6460E-01  0.3455E+00
      7.910  0.4715E-01  0.3496E+00
      7.997  0.5543E-01  0.3545E+00
      8.084  0.5883E-01  0.3596E+00
      8.171  0.5971E-01  0.3648E+00
      8.258  0.8058E-01  0.3718E+00
      8.345  0.7446E-01  0.3783E+00
      8.432  0.6311E-01  0.3838E+00
      8.519  0.6473E-01  0.3894E+00
      8.607  0.7774E-01  0.3962E+00
      8.694  0.6055E-01  0.4015E+00
      8.781  0.5024E-01  0.4058E+00
      8.868  0.5076E-01  0.4103E+00
      8.955  0.5577E-01  0.4151E+00
      9.042  0.8181E-01  0.4222E+00
      9.129  0.7431E-01  0.4287E+00
      9.216  0.5911E-01  0.4339E+00
      9.303  0.6915E-01  0.4399E+00
      9.390  0.3986E-01  0.4433E+00
      9.477  0.4400E-01  0.4472E+00
      9.564  0.5645E-01  0.4521E+00
      9.651  0.6011E-01  0.4573E+00
      9.739  0.5718E-01  0.4623E+00
      9.826  0.3910E-01  0.4657E+00
      9.913  0.2933E-01  0.4683E+00
     10.000  0.2922E-01  0.4708E+00
     10.087  0.3479E-01  0.4738E+00
     10.174  0.3860E-01  0.4772E+00
     10.261  0.1047E-01  0.4781E+00
     10.348  0.1094E-02  0.4782E+00
     10.435  0.8552E-02  0.4790E+00
     10.522  0.1103E-01  0.4799E+00
     10.609  0.9897E-03  0.4800E+00
     10.696  0.1532E-05  0.4800E+00
     10.783  0.4951E-04  0.4800E+00
     10.870  0.1907E-02  0.4802E+00
     10.958  0.1373E-02  0.4803E+00
     11.045  0.2512E-02  0.4805E+00
     11.132  0.1327E-02  0.4806E+00
     11.219  0.8071E-04  0.4806E+00
     11.306  0.3951E-02  0.4810E+00
     11.393  0.5557E-02  0.4815E+00
     11.480  0.7079E-02  0.4821E+00
     11.567  0.8516E-02  0.4828E+00
     11.654  0.6387E-02  0.4834E+00
     11.741  0.1499E-02  0.4835E+00
     11.828  0.2076E-02  0.4837E+00
     11.915  0.1085E-01  0.4846E+00
     12.002  0.1286E-01  0.4857E+00
     12.090  0.4720E-02  0.4862E+00
     12.177  0.5791E-02  0.4867E+00
     12.264  0.1125E-01  0.4876E+00
     12.351  0.1826E-01  0.4892E+00
     12.438  0.1582E-01  0.4906E+00
     12.525  0.1011E-01  0.4915E+00
     12.612  0.8196E-02  0.4922E+00
     12.699  0.1200E-01  0.4933E+00
     12.786  0.1322E-01  0.4944E+00
     12.873  0.1661E-01  0.4958E+00
     12.960  0.2302E-01  0.4979E+00
     13.047  0.1471E-01  0.4991E+00
     13.134  0.1747E-01  0.5007E+00
     13.222  0.1350E-01  0.5018E+00
     13.309  0.1888E-01  0.5035E+00
     13.396  0.1249E-01  0.5046E+00
     13.483  0.1324E-01  0.5057E+00
     13.570  0.2524E-01  0.5079E+00
     13.657  0.1918E-01  0.5096E+00
     13.744  0.1504E-01  0.5109E+00
     13.831  0.3217E-01  0.5137E+00
     13.918  0.3255E-01  0.5165E+00
     14.005  0.2812E-01  0.5190E+00
     14.092  0.2857E-01  0.5215E+00
     14.179  0.3251E-01  0.5243E+00
     14.266  0.2710E-01  0.5267E+00
     14.354  0.2657E-01  0.5290E+00
     14.441  0.2823E-01  0.5314E+00
     14.528  0.2956E-01  0.5340E+00
     14.615  0.2066E-01  0.5358E+00
     14.702  0.2185E-01  0.5377E+00
     14.789  0.2856E-01  0.5402E+00
     14.876  0.2162E-01  0.5421E+00
     14.963  0.2002E-01  0.5438E+00
     15.050  0.1703E-01  0.5453E+00
     15.137  0.3875E-01  0.5487E+00
     15.224  0.3860E-01  0.5520E+00
     15.311  0.2716E-01  0.5544E+00
     15.398  0.2635E-01  0.5567E+00
     15.486  0.2918E-01  0.5592E+00
     15.573  0.3306E-01  0.5621E+00
     15.660  0.2526E-01  0.5643E+00
     15.747  0.2509E-01  0.5665E+00
     15.834  0.1355E-01  0.5677E+00
     15.921  0.2349E-01  0.5697E+00
     16.008  0.3914E-01  0.5731E+00
     16.095  0.3265E-01  0.5760E+00
     16.182  0.2128E-01  0.5778E+00
     16.269  0.2777E-01  0.5802E+00
     16.356  0.4402E-01  0.5841E+00
     16.443  0.4420E-01  0.5879E+00
     16.530  0.3162E-01  0.5907E+00
     16.617  0.2829E-01  0.5931E+00
     16.705  0.2803E-01  0.5956E+00
     16.792  0.1768E-01  0.5971E+00
     16.879  0.2670E-01  0.5994E+00
     16.966  0.3189E-01  0.6022E+00
     17.053  0.2514E-01  0.6044E+00
     17.140  0.3463E-01  0.6074E+00
     17.227  0.4611E-01  0.6114E+00
     17.314  0.3531E-01  0.6145E+00
     17.401  0.4796E-01  0.6187E+00
     17.488  0.4296E-01  0.6224E+00
     17.575  0.4534E-01  0.6264E+00
     17.662  0.4154E-01  0.6300E+00
     17.749  0.3527E-01  0.6331E+00
     17.837  0.3100E-01  0.6358E+00
     17.924  0.3721E-01  0.6390E+00
     18.011  0.4565E-01  0.6430E+00
     18.098  0.3701E-01  0.6462E+00
     18.185  0.3611E-01  0.6494E+00
     18.272  0.2834E-01  0.6518E+00
     18.359  0.2574E-01  0.6541E+00
     18.446  0.2486E-01  0.6562E+00
     18.533  0.2786E-01  0.6587E+00
     18.620  0.1495E-01  0.6600E+00
     18.707  0.5413E-03  0.6600E+00
     18.794  0.1560E-06  0.6600E+00
     18.881  0.1701E-12  0.6600E+00
     18.969  0.0000E+00  0.6600E+00
     19.056  0.0000E+00  0.6600E+00
     19.143  0.0000E+00  0.6600E+00
     19.230  0.0000E+00  0.6600E+00
     19.317  0.0000E+00  0.6600E+00
     19.404  0.0000E+00  0.6600E+00
     19.491  0.0000E+00  0.6600E+00
     19.578  0.0000E+00  0.6600E+00
     19.665  0.0000E+00  0.6600E+00
     19.752  0.0000E+00  0.6600E+00
