Al4C3 Pnma (CIF findsym, P21/n21/m21/a) 
   1.00000000000000     
     8.8292319281668821    0.0000000000000000    0.0000000000000000
     0.0000000000000000    3.0336081817325766    0.0000000000000000
     0.0000000000000000    0.0000000000000000    9.3076319098335230
   Al   C 
    16    12
Direct
  0.2692170163904707  0.2500000000000000  0.2662852000888645
  0.7692170163904707  0.2500000000000000  0.2337147999111355
  0.7307829836095293  0.7500000000000000  0.7337147999111354
  0.2307829836095292  0.7500000000000000  0.7662852000888646
  0.4645827883698690  0.2500000000000000  0.8916657548365401
  0.9645827883698690  0.2500000000000000  0.6083342451634599
  0.5354172116301310  0.7500000000000000  0.1083342451634601
  0.0354172116301310  0.7500000000000000  0.3916657548365399
  0.5056619620311056  0.2500000000000000  0.6055064048974165
  0.0056619620311055  0.2500000000000000  0.8944935951025835
  0.4943380379688945  0.7500000000000000  0.3944935951025836
  0.9943380379688944  0.7500000000000000  0.1055064048974164
  0.2355158819126853  0.2500000000000000  0.5571723226586047
  0.7355158819126852  0.2500000000000000  0.9428276773413953
  0.7644841180873148  0.7500000000000000  0.4428276773413951
  0.2644841180873148  0.7500000000000000  0.0571723226586049
  0.3848101162835977  0.2500000000000000  0.4257587452905854
  0.8848101162835977  0.2500000000000000  0.0742412547094145
  0.6151898837164023  0.7500000000000000  0.5742412547094145
  0.1151898837164023  0.7500000000000000  0.9257587452905855
  0.3956155294860866  0.2500000000000000  0.0888623915248365
  0.8956155294860866  0.2500000000000000  0.4111376084751635
  0.6043844705139134  0.7500000000000000  0.9111376084751633
  0.1043844705139134  0.7500000000000000  0.5888623915248367
  0.3462215254247551  0.2500000000000000  0.7340759142640445
  0.8462215254247550  0.2500000000000000  0.7659240857359555
  0.6537784745752450  0.7500000000000000  0.2659240857359556
  0.1537784745752449  0.7500000000000000  0.2340759142640443
 
  0.00000000E+00  0.00000000E+00  0.00000000E+00
  0.00000000E+00  0.00000000E+00  0.00000000E+00
  0.00000000E+00  0.00000000E+00  0.00000000E+00
  0.00000000E+00  0.00000000E+00  0.00000000E+00
  0.00000000E+00  0.00000000E+00  0.00000000E+00
  0.00000000E+00  0.00000000E+00  0.00000000E+00
  0.00000000E+00  0.00000000E+00  0.00000000E+00
  0.00000000E+00  0.00000000E+00  0.00000000E+00
  0.00000000E+00  0.00000000E+00  0.00000000E+00
  0.00000000E+00  0.00000000E+00  0.00000000E+00
  0.00000000E+00  0.00000000E+00  0.00000000E+00
  0.00000000E+00  0.00000000E+00  0.00000000E+00
  0.00000000E+00  0.00000000E+00  0.00000000E+00
  0.00000000E+00  0.00000000E+00  0.00000000E+00
  0.00000000E+00  0.00000000E+00  0.00000000E+00
  0.00000000E+00  0.00000000E+00  0.00000000E+00
  0.00000000E+00  0.00000000E+00  0.00000000E+00
  0.00000000E+00  0.00000000E+00  0.00000000E+00
  0.00000000E+00  0.00000000E+00  0.00000000E+00
  0.00000000E+00  0.00000000E+00  0.00000000E+00
  0.00000000E+00  0.00000000E+00  0.00000000E+00
  0.00000000E+00  0.00000000E+00  0.00000000E+00
  0.00000000E+00  0.00000000E+00  0.00000000E+00
  0.00000000E+00  0.00000000E+00  0.00000000E+00
  0.00000000E+00  0.00000000E+00  0.00000000E+00
  0.00000000E+00  0.00000000E+00  0.00000000E+00
  0.00000000E+00  0.00000000E+00  0.00000000E+00
  0.00000000E+00  0.00000000E+00  0.00000000E+00
