Al4C3 Pnma-VII - H(P) scan @ 80 GPa (ISI
           1
     8.829232    0.000000    0.000000
     0.000000    3.033608    0.000000
     0.000000    0.000000    9.307632
   Al   C 
    16    12
Direct configuration=     1
   0.26921702  0.25000000  0.26628520
   0.76921702  0.25000000  0.23371480
   0.73078298  0.75000000  0.73371480
   0.23078298  0.75000000  0.76628520
   0.46458279  0.25000000  0.89166575
   0.96458279  0.25000000  0.60833425
   0.53541721  0.75000000  0.10833425
   0.03541721  0.75000000  0.39166575
   0.50566196  0.25000000  0.60550640
   0.00566196  0.25000000  0.89449360
   0.49433804  0.75000000  0.39449360
   0.99433804  0.75000000  0.10550640
   0.23551588  0.25000000  0.55717232
   0.73551588  0.25000000  0.94282768
   0.76448412  0.75000000  0.44282768
   0.26448412  0.75000000  0.05717232
   0.38481012  0.25000000  0.42575875
   0.88481012  0.25000000  0.07424125
   0.61518988  0.75000000  0.57424125
   0.11518988  0.75000000  0.92575875
   0.39561553  0.25000000  0.08886239
   0.89561553  0.25000000  0.41113761
   0.60438447  0.75000000  0.91113761
   0.10438447  0.75000000  0.58886239
   0.34622153  0.25000000  0.73407591
   0.84622153  0.25000000  0.76592409
   0.65377847  0.75000000  0.26592409
   0.15377847  0.75000000  0.23407591
Al4C3 Pnma-VII - H(P) scan @ 80 GPa (ISI
           1
     8.593447    0.000000    0.000000
     0.000000    2.952596    0.000000
     0.000000    0.000000    9.059071
   Al   C 
    16    12
Direct configuration=     2
   0.26919766  0.25000000  0.26629502
   0.76919766  0.25000000  0.23370498
   0.73080234  0.75000000  0.73370498
   0.23080234  0.75000000  0.76629502
   0.46458697  0.25000000  0.89164661
   0.96458697  0.25000000  0.60835339
   0.53541303  0.75000000  0.10835339
   0.03541303  0.75000000  0.39164661
   0.50564261  0.25000000  0.60554363
   0.00564261  0.25000000  0.89445637
   0.49435739  0.75000000  0.39445637
   0.99435739  0.75000000  0.10554363
   0.23555852  0.25000000  0.55717277
   0.73555852  0.25000000  0.94282723
   0.76444148  0.75000000  0.44282723
   0.26444148  0.75000000  0.05717277
   0.38479655  0.25000000  0.42577235
   0.88479655  0.25000000  0.07422765
   0.61520345  0.75000000  0.57422765
   0.11520345  0.75000000  0.92577235
   0.39564009  0.25000000  0.08885627
   0.89564009  0.25000000  0.41114373
   0.60435991  0.75000000  0.91114373
   0.10435991  0.75000000  0.58885627
   0.34622291  0.25000000  0.73405382
   0.84622291  0.25000000  0.76594618
   0.65377709  0.75000000  0.26594618
   0.15377709  0.75000000  0.23405382
Al4C3 Pnma-VII - H(P) scan @ 80 GPa (ISI
           1
     8.760431    0.000000    0.000000
     0.000000    3.009969    0.000000
     0.000000    0.000000    9.235103
   Al   C 
    16    12
Direct configuration=     3
   0.26921174  0.25000000  0.26628787
   0.76921174  0.25000000  0.23371213
   0.73078826  0.75000000  0.73371213
   0.23078826  0.75000000  0.76628787
   0.46458393  0.25000000  0.89166054
   0.96458393  0.25000000  0.60833946
   0.53541607  0.75000000  0.10833946
   0.03541607  0.75000000  0.39166054
   0.50565669  0.25000000  0.60551654
   0.00565669  0.25000000  0.89448346
   0.49434331  0.75000000  0.39448346
   0.99434331  0.75000000  0.10551654
   0.23552750  0.25000000  0.55717245
   0.73552750  0.25000000  0.94282755
   0.76447250  0.75000000  0.44282755
   0.26447250  0.75000000  0.05717245
   0.38480642  0.25000000  0.42576245
   0.88480642  0.25000000  0.07423755
   0.61519358  0.75000000  0.57423755
   0.11519358  0.75000000  0.92576245
   0.39562222  0.25000000  0.08886072
   0.89562222  0.25000000  0.41113928
   0.60437778  0.75000000  0.91113928
   0.10437778  0.75000000  0.58886072
   0.34622190  0.25000000  0.73406990
   0.84622190  0.25000000  0.76593010
   0.65377810  0.75000000  0.26593010
   0.15377810  0.75000000  0.23406990
Al4C3 Pnma-VII - H(P) scan @ 80 GPa (ISI
           1
     8.759093    0.000000    0.000000
     0.000000    3.009509    0.000000
     0.000000    0.000000    9.233693
   Al   C 
    16    12
Direct configuration=     4
   0.26921163  0.25000000  0.26628793
   0.76921163  0.25000000  0.23371207
   0.73078837  0.75000000  0.73371207
   0.23078837  0.75000000  0.76628793
   0.46458395  0.25000000  0.89166043
   0.96458395  0.25000000  0.60833957
   0.53541605  0.75000000  0.10833957
   0.03541605  0.75000000  0.39166043
   0.50565658  0.25000000  0.60551676
   0.00565658  0.25000000  0.89448324
   0.49434342  0.75000000  0.39448324
   0.99434342  0.75000000  0.10551676
   0.23552774  0.25000000  0.55717245
   0.73552774  0.25000000  0.94282755
   0.76447226  0.75000000  0.44282755
   0.26447226  0.75000000  0.05717245
   0.38480634  0.25000000  0.42576253
   0.88480634  0.25000000  0.07423747
   0.61519366  0.75000000  0.57423747
   0.11519366  0.75000000  0.92576253
   0.39562236  0.25000000  0.08886069
   0.89562236  0.25000000  0.41113931
   0.60437764  0.75000000  0.91113931
   0.10437764  0.75000000  0.58886069
   0.34622191  0.25000000  0.73406977
   0.84622191  0.25000000  0.76593023
   0.65377809  0.75000000  0.26593023
   0.15377809  0.75000000  0.23406977
Al4C3 Pnma-VII - H(P) scan @ 80 GPa (ISI
           1
     8.759044    0.000000    0.000000
     0.000000    3.009493    0.000000
     0.000000    0.000000    9.233641
   Al   C 
    16    12
Direct configuration=     5
   0.26921163  0.25000000  0.26628793
   0.76921163  0.25000000  0.23371207
   0.73078837  0.75000000  0.73371207
   0.23078837  0.75000000  0.76628793
   0.46458395  0.25000000  0.89166043
   0.96458395  0.25000000  0.60833957
   0.53541605  0.75000000  0.10833957
   0.03541605  0.75000000  0.39166043
   0.50565658  0.25000000  0.60551676
   0.00565658  0.25000000  0.89448324
   0.49434342  0.75000000  0.39448324
   0.99434342  0.75000000  0.10551676
   0.23552775  0.25000000  0.55717245
   0.73552775  0.25000000  0.94282755
   0.76447225  0.75000000  0.44282755
   0.26447225  0.75000000  0.05717245
   0.38480634  0.25000000  0.42576253
   0.88480634  0.25000000  0.07423747
   0.61519366  0.75000000  0.57423747
   0.11519366  0.75000000  0.92576253
   0.39562237  0.25000000  0.08886069
   0.89562237  0.25000000  0.41113931
   0.60437763  0.75000000  0.91113931
   0.10437763  0.75000000  0.58886069
   0.34622191  0.25000000  0.73406977
   0.84622191  0.25000000  0.76593023
   0.65377809  0.75000000  0.26593023
   0.15377809  0.75000000  0.23406977
Al4C3 Pnma-VII - H(P) scan @ 80 GPa (ISI
           1
     8.758387    0.000000    0.000000
     0.000000    3.009267    0.000000
     0.000000    0.000000    9.232949
   Al   C 
    16    12
Direct configuration=     6
   0.26933753  0.25000000  0.26628561
   0.76933753  0.25000000  0.23371439
   0.73066247  0.75000000  0.73371439
   0.23066247  0.75000000  0.76628561
   0.46457741  0.25000000  0.89166468
   0.96457741  0.25000000  0.60833532
   0.53542259  0.75000000  0.10833532
   0.03542259  0.75000000  0.39166468
   0.50568781  0.25000000  0.60588490
   0.00568781  0.25000000  0.89411510
   0.49431219  0.75000000  0.39411510
   0.99431219  0.75000000  0.10588490
   0.23522632  0.25000000  0.55688817
   0.73522632  0.25000000  0.94311183
   0.76477368  0.75000000  0.44311183
   0.26477368  0.75000000  0.05688817
   0.38482873  0.25000000  0.42583465
   0.88482873  0.25000000  0.07416535
   0.61517127  0.75000000  0.57416535
   0.11517127  0.75000000  0.92583465
   0.39571997  0.25000000  0.08916817
   0.89571997  0.25000000  0.41083183
   0.60428003  0.75000000  0.91083183
   0.10428003  0.75000000  0.58916817
   0.34627055  0.25000000  0.73406612
   0.84627055  0.25000000  0.76593388
   0.65372945  0.75000000  0.26593388
   0.15372945  0.75000000  0.23406612
Al4C3 Pnma-VII - H(P) scan @ 80 GPa (ISI
           1
     8.758462    0.000000    0.000000
     0.000000    3.009293    0.000000
     0.000000    0.000000    9.233027
   Al   C 
    16    12
Direct configuration=     7
   0.26932322  0.25000000  0.26628587
   0.76932322  0.25000000  0.23371413
   0.73067678  0.75000000  0.73371413
   0.23067678  0.75000000  0.76628587
   0.46457815  0.25000000  0.89166419
   0.96457815  0.25000000  0.60833581
   0.53542185  0.75000000  0.10833581
   0.03542185  0.75000000  0.39166419
   0.50568426  0.25000000  0.60584305
   0.00568426  0.25000000  0.89415695
   0.49431574  0.75000000  0.39415695
   0.99431574  0.75000000  0.10584305
   0.23526059  0.25000000  0.55692049
   0.73526059  0.25000000  0.94307951
   0.76473941  0.75000000  0.44307951
   0.26473941  0.75000000  0.05692049
   0.38482618  0.25000000  0.42582645
   0.88482618  0.25000000  0.07417355
   0.61517382  0.75000000  0.57417355
   0.11517382  0.75000000  0.92582645
   0.39570888  0.25000000  0.08913322
   0.89570888  0.25000000  0.41086678
   0.60429112  0.75000000  0.91086678
   0.10429112  0.75000000  0.58913322
   0.34626502  0.25000000  0.73406654
   0.84626502  0.25000000  0.76593346
   0.65373498  0.75000000  0.26593346
   0.15373498  0.75000000  0.23406654
Al4C3 Pnma-VII - H(P) scan @ 80 GPa (ISI
           1
     8.758305    0.000000    0.000000
     0.000000    3.009239    0.000000
     0.000000    0.000000    9.232862
   Al   C 
    16    12
Direct configuration=     8
   0.26931630  0.25000000  0.26627915
   0.76931630  0.25000000  0.23372085
   0.73068370  0.75000000  0.73372085
   0.23068370  0.75000000  0.76627915
   0.46443028  0.25000000  0.89170052
   0.96443028  0.25000000  0.60829948
   0.53556972  0.75000000  0.10829948
   0.03556972  0.75000000  0.39170052
   0.50571964  0.25000000  0.60590406
   0.00571964  0.25000000  0.89409594
   0.49428036  0.75000000  0.39409594
   0.99428036  0.75000000  0.10590406
   0.23520877  0.25000000  0.55678644
   0.73520877  0.25000000  0.94321356
   0.76479123  0.75000000  0.44321356
   0.26479123  0.75000000  0.05678644
   0.38486212  0.25000000  0.42592754
   0.88486212  0.25000000  0.07407246
   0.61513788  0.75000000  0.57407246
   0.11513788  0.75000000  0.92592754
   0.39593325  0.25000000  0.08926313
   0.89593325  0.25000000  0.41073687
   0.60406675  0.75000000  0.91073687
   0.10406675  0.75000000  0.58926313
   0.34602504  0.25000000  0.73406362
   0.84602504  0.25000000  0.76593638
   0.65397496  0.75000000  0.26593638
   0.15397496  0.75000000  0.23406362
Al4C3 Pnma-VII - H(P) scan @ 80 GPa (ISI
           1
     8.758318    0.000000    0.000000
     0.000000    3.009243    0.000000
     0.000000    0.000000    9.232876
   Al   C 
    16    12
Direct configuration=     9
   0.26931688  0.25000000  0.26627972
   0.76931688  0.25000000  0.23372028
   0.73068312  0.75000000  0.73372028
   0.23068312  0.75000000  0.76627972
   0.46444273  0.25000000  0.89169746
   0.96444273  0.25000000  0.60830254
   0.53555727  0.75000000  0.10830254
   0.03555727  0.75000000  0.39169746
   0.50571666  0.25000000  0.60589893
   0.00571666  0.25000000  0.89410107
   0.49428334  0.75000000  0.39410107
   0.99428334  0.75000000  0.10589893
   0.23521313  0.25000000  0.55679772
   0.73521313  0.25000000  0.94320228
   0.76478687  0.75000000  0.44320228
   0.26478687  0.75000000  0.05679772
   0.38485909  0.25000000  0.42591903
   0.88485909  0.25000000  0.07408097
   0.61514091  0.75000000  0.57408097
   0.11514091  0.75000000  0.92591903
   0.39591437  0.25000000  0.08925219
   0.89591437  0.25000000  0.41074781
   0.60408563  0.75000000  0.91074781
   0.10408563  0.75000000  0.58925219
   0.34604523  0.25000000  0.73406386
   0.84604523  0.25000000  0.76593614
   0.65395477  0.75000000  0.26593614
   0.15395477  0.75000000  0.23406386
Al4C3 Pnma-VII - H(P) scan @ 80 GPa (ISI
           1
     8.758085    0.000000    0.000000
     0.000000    3.009163    0.000000
     0.000000    0.000000    9.232630
   Al   C 
    16    12
Direct configuration=    10
   0.26942720  0.25000000  0.26629973
   0.76942720  0.25000000  0.23370027
   0.73057280  0.75000000  0.73370027
   0.23057280  0.75000000  0.76629973
   0.46423519  0.25000000  0.89168780
   0.96423519  0.25000000  0.60831220
   0.53576481  0.75000000  0.10831220
   0.03576481  0.75000000  0.39168780
   0.50564328  0.25000000  0.60591939
   0.00564328  0.25000000  0.89408061
   0.49435672  0.75000000  0.39408061
   0.99435672  0.75000000  0.10591939
   0.23509524  0.25000000  0.55685167
   0.73509524  0.25000000  0.94314833
   0.76490476  0.75000000  0.44314833
   0.26490476  0.75000000  0.05685167
   0.38488206  0.25000000  0.42590094
   0.88488206  0.25000000  0.07409906
   0.61511794  0.75000000  0.57409906
   0.11511794  0.75000000  0.92590094
   0.39607530  0.25000000  0.08933059
   0.89607530  0.25000000  0.41066941
   0.60392470  0.75000000  0.91066941
   0.10392470  0.75000000  0.58933059
   0.34593274  0.25000000  0.73402945
   0.84593274  0.25000000  0.76597055
   0.65406726  0.75000000  0.26597055
   0.15406726  0.75000000  0.23402945
Al4C3 Pnma-VII - H(P) scan @ 80 GPa (ISI
           1
     8.757983    0.000000    0.000000
     0.000000    3.009128    0.000000
     0.000000    0.000000    9.232522
   Al   C 
    16    12
Direct configuration=    11
   0.26947543  0.25000000  0.26630848
   0.76947543  0.25000000  0.23369152
   0.73052457  0.75000000  0.73369152
   0.23052457  0.75000000  0.76630848
   0.46414445  0.25000000  0.89168357
   0.96414445  0.25000000  0.60831643
   0.53585555  0.75000000  0.10831643
   0.03585555  0.75000000  0.39168357
   0.50561120  0.25000000  0.60592834
   0.00561120  0.25000000  0.89407166
   0.49438880  0.75000000  0.39407166
   0.99438880  0.75000000  0.10592834
   0.23504370  0.25000000  0.55687526
   0.73504370  0.25000000  0.94312474
   0.76495630  0.75000000  0.44312474
   0.26495630  0.75000000  0.05687526
   0.38489210  0.25000000  0.42589303
   0.88489210  0.25000000  0.07410697
   0.61510790  0.75000000  0.57410697
   0.11510790  0.75000000  0.92589303
   0.39614566  0.25000000  0.08936486
   0.89614566  0.25000000  0.41063514
   0.60385434  0.75000000  0.91063514
   0.10385434  0.75000000  0.58936486
   0.34588356  0.25000000  0.73401441
   0.84588356  0.25000000  0.76598559
   0.65411644  0.75000000  0.26598559
   0.15411644  0.75000000  0.23401441
Al4C3 Pnma-VII - H(P) scan @ 80 GPa (ISI
           1
     8.758171    0.000000    0.000000
     0.000000    3.009192    0.000000
     0.000000    0.000000    9.232720
   Al   C 
    16    12
Direct configuration=    12
   0.26959514  0.25000000  0.26626297
   0.76959514  0.25000000  0.23373703
   0.73040486  0.75000000  0.73373703
   0.23040486  0.75000000  0.76626297
   0.46403279  0.25000000  0.89170989
   0.96403279  0.25000000  0.60829011
   0.53596721  0.75000000  0.10829011
   0.03596721  0.75000000  0.39170989
   0.50550334  0.25000000  0.60588768
   0.00550334  0.25000000  0.89411232
   0.49449666  0.75000000  0.39411232
   0.99449666  0.75000000  0.10588768
   0.23497987  0.25000000  0.55690141
   0.73497987  0.25000000  0.94309859
   0.76502013  0.75000000  0.44309859
   0.26502013  0.75000000  0.05690141
   0.38482803  0.25000000  0.42601983
   0.88482803  0.25000000  0.07398017
   0.61517197  0.75000000  0.57398017
   0.11517197  0.75000000  0.92601983
   0.39622057  0.25000000  0.08942405
   0.89622057  0.25000000  0.41057595
   0.60377943  0.75000000  0.91057595
   0.10377943  0.75000000  0.58942405
   0.34583523  0.25000000  0.73396886
   0.84583523  0.25000000  0.76603114
   0.65416477  0.75000000  0.26603114
   0.15416477  0.75000000  0.23396886
Al4C3 Pnma-VII - H(P) scan @ 80 GPa (ISI
           1
     8.758128    0.000000    0.000000
     0.000000    3.009178    0.000000
     0.000000    0.000000    9.232675
   Al   C 
    16    12
Direct configuration=    13
   0.26956770  0.25000000  0.26627340
   0.76956770  0.25000000  0.23372660
   0.73043230  0.75000000  0.73372660
   0.23043230  0.75000000  0.76627340
   0.46405838  0.25000000  0.89170386
   0.96405838  0.25000000  0.60829614
   0.53594162  0.75000000  0.10829614
   0.03594162  0.75000000  0.39170386
   0.50552806  0.25000000  0.60589700
   0.00552806  0.25000000  0.89410300
   0.49447194  0.75000000  0.39410300
   0.99447194  0.75000000  0.10589700
   0.23499450  0.25000000  0.55689541
   0.73499450  0.25000000  0.94310459
   0.76500550  0.75000000  0.44310459
   0.26500550  0.75000000  0.05689541
   0.38484271  0.25000000  0.42599076
   0.88484271  0.25000000  0.07400924
   0.61515729  0.75000000  0.57400924
   0.11515729  0.75000000  0.92599076
   0.39620340  0.25000000  0.08941049
   0.89620340  0.25000000  0.41058951
   0.60379660  0.75000000  0.91058951
   0.10379660  0.75000000  0.58941049
   0.34584631  0.25000000  0.73397930
   0.84584631  0.25000000  0.76602070
   0.65415369  0.75000000  0.26602070
   0.15415369  0.75000000  0.23397930
Al4C3 Pnma-VII - H(P) scan @ 80 GPa (ISI
           1
     8.757969    0.000000    0.000000
     0.000000    3.009123    0.000000
     0.000000    0.000000    9.232508
   Al   C 
    16    12
Direct configuration=    14
   0.26963815  0.25000000  0.26627434
   0.76963815  0.25000000  0.23372566
   0.73036185  0.75000000  0.73372566
   0.23036185  0.75000000  0.76627434
   0.46402957  0.25000000  0.89170717
   0.96402957  0.25000000  0.60829283
   0.53597043  0.75000000  0.10829283
   0.03597043  0.75000000  0.39170717
   0.50554450  0.25000000  0.60585054
   0.00554450  0.25000000  0.89414946
   0.49445550  0.75000000  0.39414946
   0.99445550  0.75000000  0.10585054
   0.23492581  0.25000000  0.55690301
   0.73492581  0.25000000  0.94309699
   0.76507419  0.75000000  0.44309699
   0.26507419  0.75000000  0.05690301
   0.38481608  0.25000000  0.42602467
   0.88481608  0.25000000  0.07397533
   0.61518392  0.75000000  0.57397533
   0.11518392  0.75000000  0.92602467
   0.39621899  0.25000000  0.08941993
   0.89621899  0.25000000  0.41058007
   0.60378101  0.75000000  0.91058007
   0.10378101  0.75000000  0.58941993
   0.34583681  0.25000000  0.73401419
   0.84583681  0.25000000  0.76598581
   0.65416319  0.75000000  0.26598581
   0.15416319  0.75000000  0.23401419
