  28  28   0   0
  0.8166701E+01  0.2764215E-09  0.8444701E-09  0.9795994E-09  0.5000000E-15
  1.000000000000000E-004
  CAR 
 Al4C3 anti-CaFe2O4 - H(P) scan @ 70 GPa 
     21.63075184     -5.63501760  301     13.27492958      1.00000000
     -5.635  0.0000E+00  0.0000E+00
     -5.544  0.0000E+00  0.0000E+00
     -5.453  0.0000E+00  0.0000E+00
     -5.362  0.0000E+00  0.0000E+00
     -5.271  0.0000E+00  0.0000E+00
     -5.181  0.0000E+00  0.0000E+00
     -5.090  0.0000E+00  0.0000E+00
     -4.999  0.0000E+00  0.0000E+00
     -4.908  0.0000E+00  0.0000E+00
     -4.817  0.0000E+00  0.0000E+00
     -4.726  0.0000E+00  0.0000E+00
     -4.635  0.3512E-14  0.3192E-15
     -4.544  0.7431E-08  0.6754E-09
     -4.454  0.2922E-04  0.2656E-05
     -4.363  0.5498E-03  0.5263E-04
     -4.272  0.2403E-02  0.2710E-03
     -4.181  0.4762E-02  0.7038E-03
     -4.090  0.5106E-02  0.1168E-02
     -3.999  0.4116E-02  0.1542E-02
     -3.908  0.5825E-02  0.2071E-02
     -3.817  0.1008E-01  0.2988E-02
     -3.726  0.1056E-01  0.3948E-02
     -3.636  0.5521E-02  0.4449E-02
     -3.545  0.6927E-02  0.5079E-02
     -3.454  0.1119E-01  0.6096E-02
     -3.363  0.1010E-01  0.7015E-02
     -3.272  0.6538E-02  0.7609E-02
     -3.181  0.1024E-01  0.8539E-02
     -3.090  0.1525E-01  0.9925E-02
     -2.999  0.1334E-01  0.1114E-01
     -2.908  0.1218E-01  0.1224E-01
     -2.818  0.1086E-01  0.1323E-01
     -2.727  0.9201E-02  0.1407E-01
     -2.636  0.1332E-01  0.1528E-01
     -2.545  0.1678E-01  0.1680E-01
     -2.454  0.1314E-01  0.1800E-01
     -2.363  0.1325E-01  0.1920E-01
     -2.272  0.1169E-01  0.2026E-01
     -2.181  0.1735E-01  0.2184E-01
     -2.090  0.2159E-01  0.2380E-01
     -2.000  0.2165E-01  0.2577E-01
     -1.909  0.1292E-01  0.2695E-01
     -1.818  0.9592E-02  0.2782E-01
     -1.727  0.1793E-01  0.2945E-01
     -1.636  0.1533E-01  0.3084E-01
     -1.545  0.1520E-01  0.3222E-01
     -1.454  0.2190E-01  0.3421E-01
     -1.363  0.2460E-01  0.3645E-01
     -1.272  0.2097E-01  0.3835E-01
     -1.182  0.2015E-01  0.4019E-01
     -1.091  0.2582E-01  0.4253E-01
     -1.000  0.2269E-01  0.4460E-01
     -0.909  0.2006E-01  0.4642E-01
     -0.818  0.1801E-01  0.4806E-01
     -0.727  0.1605E-01  0.4951E-01
     -0.636  0.1530E-01  0.5090E-01
     -0.545  0.2987E-01  0.5362E-01
     -0.455  0.3970E-01  0.5723E-01
     -0.364  0.2686E-01  0.5967E-01
     -0.273  0.2637E-01  0.6206E-01
     -0.182  0.3433E-01  0.6518E-01
     -0.091  0.2951E-01  0.6787E-01
     -0.000  0.3356E-01  0.7092E-01
      0.091  0.3222E-01  0.7385E-01
      0.182  0.2985E-01  0.7656E-01
      0.273  0.4437E-01  0.8059E-01
      0.363  0.3368E-01  0.8365E-01
      0.454  0.3720E-01  0.8703E-01
      0.545  0.3758E-01  0.9045E-01
      0.636  0.4124E-01  0.9420E-01
      0.727  0.3631E-01  0.9750E-01
      0.818  0.3559E-01  0.1007E+00
      0.909  0.1699E-01  0.1023E+00
      1.000  0.2120E-01  0.1042E+00
      1.091  0.1578E-01  0.1056E+00
      1.181  0.1185E-01  0.1067E+00
      1.272  0.1530E-01  0.1081E+00
      1.363  0.1554E-01  0.1095E+00
      1.454  0.9241E-02  0.1104E+00
      1.545  0.1367E-01  0.1116E+00
      1.636  0.1780E-01  0.1132E+00
      1.727  0.7977E-02  0.1139E+00
      1.818  0.9016E-02  0.1148E+00
      1.909  0.1302E-01  0.1159E+00
      1.999  0.1029E-01  0.1169E+00
      2.090  0.7920E-02  0.1176E+00
      2.181  0.5572E-02  0.1181E+00
      2.272  0.9979E-02  0.1190E+00
      2.363  0.7019E-02  0.1197E+00
      2.454  0.3478E-02  0.1200E+00
      2.545  0.3655E-03  0.1200E+00
      2.636  0.4944E-04  0.1200E+00
      2.726  0.9323E-03  0.1201E+00
      2.817  0.2200E-02  0.1203E+00
      2.908  0.4005E-02  0.1207E+00
      2.999  0.5174E-02  0.1211E+00
      3.090  0.5886E-02  0.1217E+00
      3.181  0.7960E-02  0.1224E+00
      3.272  0.8013E-02  0.1231E+00
      3.363  0.1196E-01  0.1242E+00
      3.454  0.1384E-01  0.1255E+00
      3.544  0.1585E-01  0.1269E+00
      3.635  0.1533E-01  0.1283E+00
      3.726  0.3240E-01  0.1312E+00
      3.817  0.3989E-01  0.1349E+00
      3.908  0.2887E-01  0.1375E+00
      3.999  0.3050E-01  0.1403E+00
      4.090  0.3062E-01  0.1430E+00
      4.181  0.3096E-01  0.1458E+00
      4.272  0.3459E-01  0.1490E+00
      4.362  0.3810E-01  0.1525E+00
      4.453  0.3327E-01  0.1555E+00
      4.544  0.3462E-01  0.1586E+00
      4.635  0.4895E-01  0.1631E+00
      4.726  0.4705E-01  0.1673E+00
      4.817  0.2952E-01  0.1700E+00
      4.908  0.2820E-01  0.1726E+00
      4.999  0.4647E-01  0.1768E+00
      5.090  0.3067E-01  0.1796E+00
      5.180  0.1978E-01  0.1814E+00
      5.271  0.3224E-01  0.1843E+00
      5.362  0.3035E-01  0.1871E+00
      5.453  0.3803E-01  0.1905E+00
      5.544  0.3716E-01  0.1939E+00
      5.635  0.2961E-01  0.1966E+00
      5.726  0.3340E-01  0.1997E+00
      5.817  0.2784E-01  0.2022E+00
      5.907  0.2852E-01  0.2048E+00
      5.998  0.4672E-01  0.2090E+00
      6.089  0.4993E-01  0.2136E+00
      6.180  0.2847E-01  0.2161E+00
      6.271  0.3531E-01  0.2194E+00
      6.362  0.3774E-01  0.2228E+00
      6.453  0.3061E-01  0.2256E+00
      6.544  0.3168E-01  0.2284E+00
      6.635  0.3640E-01  0.2318E+00
      6.725  0.3018E-01  0.2345E+00
      6.816  0.3761E-01  0.2379E+00
      6.907  0.3860E-01  0.2414E+00
      6.998  0.4503E-01  0.2455E+00
      7.089  0.3214E-01  0.2484E+00
      7.180  0.4100E-01  0.2522E+00
      7.271  0.4075E-01  0.2559E+00
      7.362  0.4671E-01  0.2601E+00
      7.453  0.4077E-01  0.2638E+00
      7.543  0.4000E-01  0.2675E+00
      7.634  0.4802E-01  0.2718E+00
      7.725  0.5096E-01  0.2765E+00
      7.816  0.3963E-01  0.2801E+00
      7.907  0.3954E-01  0.2836E+00
      7.998  0.3543E-01  0.2869E+00
      8.089  0.3755E-01  0.2903E+00
      8.180  0.4073E-01  0.2940E+00
      8.271  0.3692E-01  0.2973E+00
      8.361  0.4638E-01  0.3016E+00
      8.452  0.3983E-01  0.3052E+00
      8.543  0.3215E-01  0.3081E+00
      8.634  0.4049E-01  0.3118E+00
      8.725  0.2594E-01  0.3141E+00
      8.816  0.4580E-01  0.3183E+00
      8.907  0.4537E-01  0.3224E+00
      8.998  0.4946E-01  0.3269E+00
      9.088  0.5719E-01  0.3321E+00
      9.179  0.2968E-01  0.3348E+00
      9.270  0.4112E-01  0.3385E+00
      9.361  0.4202E-01  0.3424E+00
      9.452  0.5135E-01  0.3470E+00
      9.543  0.5777E-01  0.3523E+00
      9.634  0.4956E-01  0.3568E+00
      9.725  0.3243E-01  0.3597E+00
      9.816  0.3686E-01  0.3631E+00
      9.906  0.3776E-01  0.3665E+00
      9.997  0.3012E-01  0.3693E+00
     10.088  0.4180E-01  0.3731E+00
     10.179  0.7458E-01  0.3798E+00
     10.270  0.6674E-01  0.3859E+00
     10.361  0.5849E-01  0.3912E+00
     10.452  0.4452E-01  0.3953E+00
     10.543  0.5513E-01  0.4003E+00
     10.634  0.5370E-01  0.4051E+00
     10.724  0.6191E-01  0.4108E+00
     10.815  0.8283E-01  0.4183E+00
     10.906  0.7094E-01  0.4248E+00
     10.997  0.6207E-01  0.4304E+00
     11.088  0.6009E-01  0.4359E+00
     11.179  0.4259E-01  0.4397E+00
     11.270  0.5841E-01  0.4450E+00
     11.361  0.4194E-01  0.4488E+00
     11.452  0.4327E-01  0.4528E+00
     11.542  0.3876E-01  0.4563E+00
     11.633  0.4020E-01  0.4600E+00
     11.724  0.2588E-01  0.4623E+00
     11.815  0.1475E-01  0.4636E+00
     11.906  0.2183E-01  0.4656E+00
     11.997  0.1777E-01  0.4672E+00
     12.088  0.2343E-01  0.4694E+00
     12.179  0.1692E-01  0.4709E+00
     12.270  0.2083E-01  0.4728E+00
     12.360  0.2229E-01  0.4748E+00
     12.451  0.1490E-01  0.4762E+00
     12.542  0.5461E-02  0.4767E+00
     12.633  0.4306E-02  0.4771E+00
     12.724  0.5660E-02  0.4776E+00
     12.815  0.5169E-02  0.4781E+00
     12.906  0.9188E-02  0.4789E+00
     12.997  0.8194E-02  0.4796E+00
     13.087  0.3842E-02  0.4800E+00
     13.178  0.1393E-03  0.4800E+00
     13.269  0.4583E-07  0.4800E+00
     13.360  0.1648E-08  0.4800E+00
     13.451  0.2048E-04  0.4800E+00
     13.542  0.1145E-02  0.4801E+00
     13.633  0.3287E-02  0.4804E+00
     13.724  0.8593E-02  0.4812E+00
     13.815  0.1444E-01  0.4825E+00
     13.905  0.8978E-02  0.4833E+00
     13.996  0.1120E-01  0.4843E+00
     14.087  0.1762E-01  0.4859E+00
     14.178  0.1512E-01  0.4873E+00
     14.269  0.1989E-01  0.4891E+00
     14.360  0.1893E-01  0.4908E+00
     14.451  0.2058E-01  0.4927E+00
     14.542  0.6970E-02  0.4933E+00
     14.633  0.1538E-01  0.4947E+00
     14.723  0.1268E-01  0.4959E+00
     14.814  0.2143E-01  0.4978E+00
     14.905  0.2033E-01  0.4997E+00
     14.996  0.3059E-01  0.5025E+00
     15.087  0.3259E-01  0.5054E+00
     15.178  0.2951E-01  0.5081E+00
     15.269  0.2558E-01  0.5104E+00
     15.360  0.3720E-01  0.5138E+00
     15.451  0.2266E-01  0.5159E+00
     15.541  0.2492E-01  0.5181E+00
     15.632  0.2466E-01  0.5204E+00
     15.723  0.3835E-01  0.5239E+00
     15.814  0.2808E-01  0.5264E+00
     15.905  0.1587E-01  0.5279E+00
     15.996  0.1739E-01  0.5294E+00
     16.087  0.2473E-01  0.5317E+00
     16.178  0.2888E-01  0.5343E+00
     16.268  0.3463E-01  0.5375E+00
     16.359  0.3694E-01  0.5408E+00
     16.450  0.3136E-01  0.5437E+00
     16.541  0.3573E-01  0.5469E+00
     16.632  0.4143E-01  0.5507E+00
     16.723  0.3225E-01  0.5536E+00
     16.814  0.4351E-01  0.5576E+00
     16.905  0.3598E-01  0.5608E+00
     16.996  0.3078E-01  0.5636E+00
     17.086  0.3670E-01  0.5670E+00
     17.177  0.3859E-01  0.5705E+00
     17.268  0.4623E-01  0.5747E+00
     17.359  0.3253E-01  0.5776E+00
     17.450  0.4311E-01  0.5816E+00
     17.541  0.3867E-01  0.5851E+00
     17.632  0.3167E-01  0.5879E+00
     17.723  0.3444E-01  0.5911E+00
     17.814  0.3250E-01  0.5940E+00
     17.904  0.3048E-01  0.5968E+00
     17.995  0.2974E-01  0.5995E+00
     18.086  0.3822E-01  0.6030E+00
     18.177  0.3844E-01  0.6065E+00
     18.268  0.3448E-01  0.6096E+00
     18.359  0.3321E-01  0.6126E+00
     18.450  0.2396E-01  0.6148E+00
     18.541  0.3402E-01  0.6179E+00
     18.632  0.4127E-01  0.6216E+00
     18.722  0.2525E-01  0.6239E+00
     18.813  0.2722E-01  0.6264E+00
     18.904  0.2654E-01  0.6288E+00
     18.995  0.2138E-01  0.6308E+00
     19.086  0.3054E-01  0.6335E+00
     19.177  0.2256E-01  0.6356E+00
     19.268  0.2243E-01  0.6376E+00
     19.359  0.2530E-01  0.6399E+00
     19.449  0.2515E-01  0.6422E+00
     19.540  0.2898E-01  0.6449E+00
     19.631  0.2654E-01  0.6473E+00
     19.722  0.1528E-01  0.6487E+00
     19.813  0.2122E-01  0.6506E+00
     19.904  0.1676E-01  0.6521E+00
     19.995  0.2242E-01  0.6541E+00
     20.086  0.2155E-01  0.6561E+00
     20.177  0.1393E-01  0.6574E+00
     20.267  0.1859E-01  0.6591E+00
     20.358  0.8098E-02  0.6598E+00
     20.449  0.2217E-02  0.6600E+00
     20.540  0.6418E-04  0.6600E+00
     20.631  0.1494E-07  0.6600E+00
     20.722  0.7026E-14  0.6600E+00
     20.813  0.0000E+00  0.6600E+00
     20.904  0.0000E+00  0.6600E+00
     20.995  0.0000E+00  0.6600E+00
     21.085  0.0000E+00  0.6600E+00
     21.176  0.0000E+00  0.6600E+00
     21.267  0.0000E+00  0.6600E+00
     21.358  0.0000E+00  0.6600E+00
     21.449  0.0000E+00  0.6600E+00
     21.540  0.0000E+00  0.6600E+00
     21.631  0.0000E+00  0.6600E+00
