       N       E                     dE             d eps       ncg     rms          rms(c)
DAV:   1    -0.156759848223E+03   -0.15676E+03   -0.73629E-05  7950   0.745E-02    0.135E-02
DAV:   2    -0.156759852759E+03   -0.45361E-05   -0.18593E-06  4266   0.743E-03
   1 F= -.56853726E+02 E0= -.56853726E+02  d E =-.568537E+02
       N       E                     dE             d eps       ncg     rms          rms(c)
DAV:   1    -0.149352788030E+03    0.74071E+01   -0.14302E+01  9312   0.161E+01    0.400E+00
DAV:   2    -0.149025804481E+03    0.32698E+00   -0.83665E-01  9684   0.300E+00    0.189E+00
DAV:   3    -0.148995949869E+03    0.29855E-01   -0.14185E-01  9534   0.115E+00    0.538E-01
DAV:   4    -0.148992354689E+03    0.35952E-02   -0.80623E-03  9768   0.288E-01    0.183E-01
DAV:   5    -0.148991804292E+03    0.55040E-03   -0.75590E-04  9804   0.967E-02    0.114E-01
DAV:   6    -0.148991744502E+03    0.59789E-04   -0.15660E-04  9588   0.427E-02    0.134E-02
DAV:   7    -0.148991742671E+03    0.18314E-05   -0.12810E-05  5358   0.185E-02
   2 F= -.56259706E+02 E0= -.56259706E+02  d E =0.594020E+00
       N       E                     dE             d eps       ncg     rms          rms(c)
DAV:   1    -0.154745916342E+03   -0.57542E+01   -0.63328E+00  9390   0.104E+01    0.272E+00
DAV:   2    -0.154593147265E+03    0.15277E+00   -0.39545E-01  9696   0.203E+00    0.126E+00
DAV:   3    -0.154579977627E+03    0.13170E-01   -0.63691E-02  9498   0.756E-01    0.367E-01
DAV:   4    -0.154578117970E+03    0.18597E-02   -0.41105E-03  9804   0.201E-01    0.122E-01
DAV:   5    -0.154577770696E+03    0.34727E-03   -0.45256E-04  9876   0.722E-02    0.733E-02
DAV:   6    -0.154577715001E+03    0.55695E-04   -0.87111E-05  9336   0.310E-02    0.109E-02
DAV:   7    -0.154577710182E+03    0.48194E-05   -0.62777E-06  5100   0.131E-02
   3 F= -.57027493E+02 E0= -.57027493E+02  d E =-.173767E+00
       N       E                     dE             d eps       ncg     rms          rms(c)
DAV:   1    -0.154540783947E+03    0.36931E-01   -0.35754E-04  9276   0.781E-02    0.207E-02
DAV:   2    -0.154540778269E+03    0.56783E-05   -0.20595E-05  5322   0.151E-02
   4 F= -.57027539E+02 E0= -.57027539E+02  d E =-.173813E+00
       N       E                     dE             d eps       ncg     rms          rms(c)
DAV:   1    -0.154535954765E+03    0.48292E-02   -0.35031E-06  4704   0.713E-03    0.559E-03
DAV:   2    -0.154535955443E+03   -0.67811E-06   -0.61322E-07  4554   0.253E-03
   5 F= -.57027540E+02 E0= -.57027540E+02  d E =-.173814E+00
       N       E                     dE             d eps       ncg     rms          rms(c)
DAV:   1    -0.154538180013E+03   -0.22252E-02   -0.14956E-06  4494   0.525E-03    0.101E-03
DAV:   2    -0.154538179982E+03    0.31246E-07   -0.95775E-08  4440   0.124E-03
   6 F= -.57027542E+02 E0= -.57027542E+02  d E =-.173816E+00
       N       E                     dE             d eps       ncg     rms          rms(c)
DAV:   1    -0.154497892836E+03    0.40287E-01   -0.33660E-01  8340   0.238E+00    0.124E-01
DAV:   2    -0.154497815907E+03    0.76929E-04   -0.57303E-03 10032   0.291E-01    0.810E-02
DAV:   3    -0.154497634833E+03    0.18107E-03   -0.47593E-04  9924   0.902E-02    0.349E-02
DAV:   4    -0.154497627304E+03    0.75291E-05   -0.15160E-04  9714   0.437E-02    0.166E-02
DAV:   5    -0.154497626332E+03    0.97201E-06   -0.16418E-05  5790   0.151E-02
   7 F= -.57030988E+02 E0= -.57030988E+02  d E =-.344594E-02
       N       E                     dE             d eps       ncg     rms          rms(c)
DAV:   1    -0.154494162010E+03    0.34653E-02   -0.21773E-03  8508   0.191E-01    0.107E-02
DAV:   2    -0.154494160873E+03    0.11370E-05   -0.36091E-05  9108   0.238E-02
   8 F= -.57031011E+02 E0= -.57031011E+02  d E =-.346895E-02
       N       E                     dE             d eps       ncg     rms          rms(c)
DAV:   1    -0.154472718511E+03    0.21443E-01   -0.36141E-01  8328   0.241E+00    0.124E-01
DAV:   2    -0.154472460444E+03    0.25807E-03   -0.66375E-03 10080   0.316E-01    0.741E-02
DAV:   3    -0.154472274376E+03    0.18607E-03   -0.49957E-04  9684   0.922E-02    0.300E-02
DAV:   4    -0.154472275918E+03   -0.15419E-05   -0.18015E-04  9822   0.428E-02    0.144E-02
DAV:   5    -0.154472276071E+03   -0.15310E-06   -0.57976E-06  5124   0.952E-03
   9 F= -.57032787E+02 E0= -.57032787E+02  d E =-.177592E-02
       N       E                     dE             d eps       ncg     rms          rms(c)
DAV:   1    -0.154474328461E+03   -0.20525E-02   -0.26782E-03  8358   0.207E-01    0.104E-02
DAV:   2    -0.154474326860E+03    0.16002E-05   -0.48797E-05  9468   0.272E-02
  10 F= -.57032804E+02 E0= -.57032804E+02  d E =-.179308E-02
       N       E                     dE             d eps       ncg     rms          rms(c)
DAV:   1    -0.154464460121E+03    0.98683E-02   -0.13951E-01  8334   0.154E+00    0.697E-02
DAV:   2    -0.154464510148E+03   -0.50027E-04   -0.28881E-03 10128   0.206E-01    0.481E-02
DAV:   3    -0.154464461418E+03    0.48731E-04   -0.13033E-04  9888   0.477E-02    0.268E-02
DAV:   4    -0.154464451152E+03    0.10265E-04   -0.84500E-05  9654   0.314E-02    0.906E-03
DAV:   5    -0.154464450619E+03    0.53357E-06   -0.63083E-06  5058   0.107E-02
  11 F= -.57033768E+02 E0= -.57033768E+02  d E =-.964764E-03
       N       E                     dE             d eps       ncg     rms          rms(c)
DAV:   1    -0.154464283426E+03    0.16773E-03   -0.37312E-05  7824   0.258E-02    0.234E-03
DAV:   2    -0.154464283515E+03   -0.88669E-07   -0.17350E-06  4584   0.529E-03
  12 F= -.57033769E+02 E0= -.57033769E+02  d E =-.965203E-03
       N       E                     dE             d eps       ncg     rms          rms(c)
DAV:   1    -0.154451849965E+03    0.12433E-01   -0.49883E-02  8328   0.916E-01    0.404E-02
DAV:   2    -0.154451855981E+03   -0.60165E-05   -0.63313E-04 10128   0.982E-02    0.245E-02
DAV:   3    -0.154451836647E+03    0.19334E-04   -0.53687E-05  9708   0.307E-02    0.910E-03
DAV:   4    -0.154451836951E+03   -0.30352E-06   -0.16926E-05  5790   0.143E-02
  13 F= -.57034425E+02 E0= -.57034425E+02  d E =-.656345E-03
       N       E                     dE             d eps       ncg     rms          rms(c)
DAV:   1    -0.154433835070E+03    0.18002E-01   -0.98082E-02  8316   0.129E+00    0.568E-02
DAV:   2    -0.154433848549E+03   -0.13479E-04   -0.12468E-03 10092   0.138E-01    0.346E-02
DAV:   3    -0.154433810793E+03    0.37756E-04   -0.10490E-04  9930   0.430E-02    0.132E-02
DAV:   4    -0.154433811296E+03   -0.50317E-06   -0.33489E-05  6414   0.202E-02
  14 F= -.57034771E+02 E0= -.57034771E+02  d E =-.100178E-02
       N       E                     dE             d eps       ncg     rms          rms(c)
DAV:   1    -0.154464625603E+03   -0.30815E-01   -0.66537E-02  8328   0.105E+00    0.473E-02
DAV:   2    -0.154464617457E+03    0.81455E-05   -0.88948E-04 10188   0.120E-01    0.303E-02
DAV:   3    -0.154464590507E+03    0.26950E-04   -0.84569E-05  9840   0.384E-02    0.121E-02
DAV:   4    -0.154464590243E+03    0.26458E-06   -0.23282E-05  5916   0.167E-02
  15 F= -.57035232E+02 E0= -.57035232E+02  d E =-.461656E-03
       N       E                     dE             d eps       ncg     rms          rms(c)
DAV:   1    -0.154476157537E+03   -0.11567E-01   -0.95712E-03  8352   0.399E-01    0.184E-02
DAV:   2    -0.154476155910E+03    0.16268E-05   -0.12676E-04 10248   0.453E-02    0.117E-02
DAV:   3    -0.154476151546E+03    0.43640E-05   -0.10941E-05  5496   0.149E-02
  16 F= -.57035268E+02 E0= -.57035268E+02  d E =-.497414E-03
       N       E                     dE             d eps       ncg     rms          rms(c)
DAV:   1    -0.154408449619E+03    0.67706E-01   -0.71160E-02  8316   0.109E+00    0.616E-02
DAV:   2    -0.154408396590E+03    0.53028E-04   -0.96076E-04 10128   0.124E-01    0.334E-02
DAV:   3    -0.154408368737E+03    0.27853E-04   -0.12233E-04  9918   0.428E-02    0.112E-02
DAV:   4    -0.154408370469E+03   -0.17322E-05   -0.24863E-05  5952   0.163E-02
  17 F= -.57035581E+02 E0= -.57035581E+02  d E =-.313185E-03
       N       E                     dE             d eps       ncg     rms          rms(c)
DAV:   1    -0.154410233862E+03   -0.18651E-02   -0.57856E-05  7986   0.309E-02    0.330E-03
DAV:   2    -0.154410233857E+03    0.53205E-08   -0.10718E-06  4584   0.413E-03
  18 F= -.57035582E+02 E0= -.57035582E+02  d E =-.314212E-03
       N       E                     dE             d eps       ncg     rms          rms(c)
DAV:   1    -0.154454694519E+03   -0.44461E-01   -0.33727E-02  8334   0.756E-01    0.419E-02
DAV:   2    -0.154454675937E+03    0.18583E-04   -0.51868E-04 10278   0.890E-02    0.249E-02
DAV:   3    -0.154454657115E+03    0.18822E-04   -0.65125E-05  9492   0.318E-02    0.841E-03
DAV:   4    -0.154454656944E+03    0.17048E-06   -0.13402E-05  5814   0.132E-02
  19 F= -.57035732E+02 E0= -.57035732E+02  d E =-.149207E-03
       N       E                     dE             d eps       ncg     rms          rms(c)
DAV:   1    -0.154447376531E+03    0.72806E-02   -0.92381E-04  8406   0.125E-01    0.699E-03
DAV:   2    -0.154447376520E+03    0.11327E-07   -0.13566E-05  6444   0.147E-02
  20 F= -.57035738E+02 E0= -.57035738E+02  d E =-.155785E-03
       N       E                     dE             d eps       ncg     rms          rms(c)
DAV:   1    -0.154431366622E+03    0.16010E-01   -0.65653E-03  8322   0.322E-01    0.200E-02
DAV:   2    -0.154431356507E+03    0.10115E-04   -0.15707E-04  9834   0.491E-02    0.124E-02
DAV:   3    -0.154431354443E+03    0.20649E-05   -0.13776E-05  5814   0.155E-02
  21 F= -.57035773E+02 E0= -.57035773E+02  d E =-.350223E-04
