  28  28   0   0
  0.1046948E+02  0.9319161E-09  0.3201941E-09  0.9824107E-09  0.5000000E-15
  1.000000000000000E-004
  CAR 
 Al4C3 Pnma-VII - r2SCAN H(P) scan @ 20 G
     17.43446468     -7.87316393  301      8.58206709      1.00000000
     -7.873  0.0000E+00  0.0000E+00
     -7.789  0.0000E+00  0.0000E+00
     -7.704  0.0000E+00  0.0000E+00
     -7.620  0.0000E+00  0.0000E+00
     -7.536  0.0000E+00  0.0000E+00
     -7.451  0.0000E+00  0.0000E+00
     -7.367  0.0000E+00  0.0000E+00
     -7.283  0.0000E+00  0.0000E+00
     -7.198  0.0000E+00  0.0000E+00
     -7.114  0.0000E+00  0.0000E+00
     -7.030  0.0000E+00  0.0000E+00
     -6.945  0.1173E-12  0.9893E-14
     -6.861  0.3499E-07  0.2952E-08
     -6.777  0.4804E-04  0.4056E-05
     -6.692  0.8230E-03  0.7348E-04
     -6.608  0.3389E-02  0.3593E-03
     -6.523  0.6419E-02  0.9008E-03
     -6.439  0.7632E-02  0.1545E-02
     -6.355  0.7718E-02  0.2196E-02
     -6.270  0.9418E-02  0.2990E-02
     -6.186  0.1405E-01  0.4175E-02
     -6.102  0.1323E-01  0.5292E-02
     -6.017  0.1089E-01  0.6210E-02
     -5.933  0.1123E-01  0.7158E-02
     -5.849  0.1399E-01  0.8338E-02
     -5.764  0.8695E-02  0.9071E-02
     -5.680  0.9338E-02  0.9859E-02
     -5.595  0.2060E-01  0.1160E-01
     -5.511  0.1958E-01  0.1325E-01
     -5.427  0.1429E-01  0.1445E-01
     -5.342  0.1233E-01  0.1549E-01
     -5.258  0.2722E-01  0.1779E-01
     -5.174  0.2415E-01  0.1983E-01
     -5.089  0.1612E-01  0.2119E-01
     -5.005  0.1311E-01  0.2229E-01
     -4.921  0.1118E-01  0.2324E-01
     -4.836  0.2105E-01  0.2501E-01
     -4.752  0.2183E-01  0.2685E-01
     -4.668  0.2332E-01  0.2882E-01
     -4.583  0.2394E-01  0.3084E-01
     -4.499  0.2886E-01  0.3328E-01
     -4.414  0.2530E-01  0.3541E-01
     -4.330  0.2915E-01  0.3787E-01
     -4.246  0.2603E-01  0.4006E-01
     -4.161  0.1813E-01  0.4159E-01
     -4.077  0.2823E-01  0.4398E-01
     -3.993  0.2467E-01  0.4606E-01
     -3.908  0.2080E-01  0.4781E-01
     -3.824  0.4117E-01  0.5128E-01
     -3.740  0.5313E-01  0.5577E-01
     -3.655  0.3159E-01  0.5843E-01
     -3.571  0.2942E-01  0.6091E-01
     -3.487  0.4690E-01  0.6487E-01
     -3.402  0.4042E-01  0.6828E-01
     -3.318  0.4575E-01  0.7214E-01
     -3.233  0.5690E-01  0.7694E-01
     -3.149  0.4888E-01  0.8106E-01
     -3.065  0.4503E-01  0.8486E-01
     -2.980  0.3170E-01  0.8754E-01
     -2.896  0.4233E-01  0.9111E-01
     -2.812  0.3759E-01  0.9428E-01
     -2.727  0.4702E-01  0.9824E-01
     -2.643  0.5296E-01  0.1027E+00
     -2.559  0.6305E-01  0.1080E+00
     -2.474  0.5915E-01  0.1130E+00
     -2.390  0.6313E-01  0.1183E+00
     -2.305  0.1935E-01  0.1200E+00
     -2.221  0.2508E-03  0.1200E+00
     -2.137  0.3010E-07  0.1200E+00
     -2.052  0.1968E-13  0.1200E+00
     -1.968  0.0000E+00  0.1200E+00
     -1.884  0.0000E+00  0.1200E+00
     -1.799  0.0000E+00  0.1200E+00
     -1.715  0.0000E+00  0.1200E+00
     -1.631  0.0000E+00  0.1200E+00
     -1.546  0.0000E+00  0.1200E+00
     -1.462  0.0000E+00  0.1200E+00
     -1.378  0.0000E+00  0.1200E+00
     -1.293  0.0000E+00  0.1200E+00
     -1.209  0.0000E+00  0.1200E+00
     -1.124  0.0000E+00  0.1200E+00
     -1.040  0.0000E+00  0.1200E+00
     -0.956  0.0000E+00  0.1200E+00
     -0.871  0.0000E+00  0.1200E+00
     -0.787  0.0000E+00  0.1200E+00
     -0.703  0.0000E+00  0.1200E+00
     -0.618  0.0000E+00  0.1200E+00
     -0.534  0.0000E+00  0.1200E+00
     -0.450  0.0000E+00  0.1200E+00
     -0.365  0.0000E+00  0.1200E+00
     -0.281  0.0000E+00  0.1200E+00
     -0.197  0.0000E+00  0.1200E+00
     -0.112  0.0000E+00  0.1200E+00
     -0.028  0.8852E-14  0.1200E+00
      0.057  0.8236E-08  0.1200E+00
      0.141  0.3458E-04  0.1200E+00
      0.225  0.1487E-02  0.1201E+00
      0.310  0.3501E-02  0.1204E+00
      0.394  0.5860E-02  0.1209E+00
      0.478  0.1023E-01  0.1218E+00
      0.563  0.1019E-01  0.1226E+00
      0.647  0.9604E-02  0.1235E+00
      0.731  0.2887E-01  0.1259E+00
      0.816  0.2476E-01  0.1280E+00
      0.900  0.1728E-01  0.1294E+00
      0.985  0.1564E-01  0.1308E+00
      1.069  0.1863E-01  0.1323E+00
      1.153  0.2867E-01  0.1347E+00
      1.238  0.2926E-01  0.1372E+00
      1.322  0.3304E-01  0.1400E+00
      1.406  0.2471E-01  0.1421E+00
      1.491  0.2557E-01  0.1442E+00
      1.575  0.2596E-01  0.1464E+00
      1.659  0.2342E-01  0.1484E+00
      1.744  0.2913E-01  0.1509E+00
      1.828  0.2820E-01  0.1532E+00
      1.912  0.2855E-01  0.1556E+00
      1.997  0.2602E-01  0.1578E+00
      2.081  0.4318E-01  0.1615E+00
      2.166  0.6206E-01  0.1667E+00
      2.250  0.5932E-01  0.1717E+00
      2.334  0.5597E-01  0.1764E+00
      2.419  0.5058E-01  0.1807E+00
      2.503  0.3543E-01  0.1837E+00
      2.587  0.4616E-01  0.1876E+00
      2.672  0.6282E-01  0.1929E+00
      2.756  0.5761E-01  0.1978E+00
      2.840  0.3885E-01  0.2010E+00
      2.925  0.3860E-01  0.2043E+00
      3.009  0.3852E-01  0.2075E+00
      3.093  0.3583E-01  0.2106E+00
      3.178  0.4311E-01  0.2142E+00
      3.262  0.3260E-01  0.2170E+00
      3.347  0.3383E-01  0.2198E+00
      3.431  0.3343E-01  0.2226E+00
      3.515  0.4771E-01  0.2267E+00
      3.600  0.4302E-01  0.2303E+00
      3.684  0.2840E-01  0.2327E+00
      3.768  0.4001E-01  0.2361E+00
      3.853  0.3134E-01  0.2387E+00
      3.937  0.3521E-01  0.2417E+00
      4.021  0.6553E-01  0.2472E+00
      4.106  0.4973E-01  0.2514E+00
      4.190  0.3241E-01  0.2541E+00
      4.274  0.3575E-01  0.2571E+00
      4.359  0.4988E-01  0.2613E+00
      4.443  0.6002E-01  0.2664E+00
      4.528  0.5085E-01  0.2707E+00
      4.612  0.4294E-01  0.2743E+00
      4.696  0.4672E-01  0.2783E+00
      4.781  0.4239E-01  0.2818E+00
      4.865  0.5269E-01  0.2863E+00
      4.949  0.4191E-01  0.2898E+00
      5.034  0.4820E-01  0.2939E+00
      5.118  0.5644E-01  0.2986E+00
      5.202  0.5330E-01  0.3031E+00
      5.287  0.5915E-01  0.3081E+00
      5.371  0.5554E-01  0.3128E+00
      5.456  0.5675E-01  0.3176E+00
      5.540  0.5451E-01  0.3222E+00
      5.624  0.6272E-01  0.3275E+00
      5.709  0.6052E-01  0.3326E+00
      5.793  0.8534E-01  0.3398E+00
      5.877  0.6390E-01  0.3452E+00
      5.962  0.7087E-01  0.3512E+00
      6.046  0.5434E-01  0.3557E+00
      6.130  0.6322E-01  0.3611E+00
      6.215  0.7257E-01  0.3672E+00
      6.299  0.8867E-01  0.3747E+00
      6.383  0.6955E-01  0.3806E+00
      6.468  0.6851E-01  0.3863E+00
      6.552  0.8214E-01  0.3933E+00
      6.637  0.6607E-01  0.3988E+00
      6.721  0.3598E-01  0.4019E+00
      6.805  0.6920E-01  0.4077E+00
      6.890  0.8369E-01  0.4148E+00
      6.974  0.6827E-01  0.4205E+00
      7.058  0.8274E-01  0.4275E+00
      7.143  0.7738E-01  0.4340E+00
      7.227  0.5079E-01  0.4383E+00
      7.311  0.5125E-01  0.4426E+00
      7.396  0.6327E-01  0.4480E+00
      7.480  0.7018E-01  0.4539E+00
      7.564  0.5754E-01  0.4588E+00
      7.649  0.5379E-01  0.4633E+00
      7.733  0.3472E-01  0.4662E+00
      7.818  0.3976E-01  0.4696E+00
      7.902  0.3712E-01  0.4727E+00
      7.986  0.3925E-01  0.4760E+00
      8.071  0.2154E-01  0.4778E+00
      8.155  0.1939E-02  0.4780E+00
      8.239  0.7523E-02  0.4786E+00
      8.324  0.1251E-01  0.4797E+00
      8.408  0.3692E-02  0.4800E+00
      8.492  0.4082E-04  0.4800E+00
      8.577  0.4386E-08  0.4800E+00
      8.661  0.2527E-14  0.4800E+00
      8.746  0.0000E+00  0.4800E+00
      8.830  0.0000E+00  0.4800E+00
      8.914  0.1406E-15  0.4800E+00
      8.999  0.4965E-09  0.4800E+00
      9.083  0.7239E-05  0.4800E+00
      9.167  0.6187E-03  0.4801E+00
      9.252  0.1051E-02  0.4801E+00
      9.336  0.5272E-03  0.4802E+00
      9.420  0.6808E-03  0.4802E+00
      9.505  0.2855E-02  0.4805E+00
      9.589  0.2290E-02  0.4807E+00
      9.673  0.6761E-02  0.4812E+00
      9.758  0.2993E-02  0.4815E+00
      9.842  0.7540E-02  0.4821E+00
      9.927  0.7326E-02  0.4828E+00
     10.011  0.5932E-02  0.4833E+00
     10.095  0.4986E-02  0.4837E+00
     10.180  0.3945E-02  0.4840E+00
     10.264  0.1047E-01  0.4849E+00
     10.348  0.1013E-01  0.4857E+00
     10.433  0.9250E-02  0.4865E+00
     10.517  0.5050E-02  0.4870E+00
     10.601  0.9980E-02  0.4878E+00
     10.686  0.1727E-01  0.4893E+00
     10.770  0.1679E-01  0.4907E+00
     10.854  0.1930E-01  0.4923E+00
     10.939  0.1025E-01  0.4932E+00
     11.023  0.1255E-01  0.4942E+00
     11.108  0.1530E-01  0.4955E+00
     11.192  0.1958E-01  0.4972E+00
     11.276  0.2274E-01  0.4991E+00
     11.361  0.1630E-01  0.5005E+00
     11.445  0.1005E-01  0.5013E+00
     11.529  0.1023E-01  0.5022E+00
     11.614  0.2124E-01  0.5040E+00
     11.698  0.1812E-01  0.5055E+00
     11.782  0.1753E-01  0.5070E+00
     11.867  0.2213E-01  0.5088E+00
     11.951  0.3173E-01  0.5115E+00
     12.036  0.2454E-01  0.5136E+00
     12.120  0.3075E-01  0.5162E+00
     12.204  0.2570E-01  0.5183E+00
     12.289  0.2984E-01  0.5209E+00
     12.373  0.3928E-01  0.5242E+00
     12.457  0.2801E-01  0.5265E+00
     12.542  0.2552E-01  0.5287E+00
     12.626  0.3829E-01  0.5319E+00
     12.710  0.3632E-01  0.5350E+00
     12.795  0.2696E-01  0.5373E+00
     12.879  0.3005E-01  0.5398E+00
     12.963  0.1707E-01  0.5412E+00
     13.048  0.3222E-01  0.5439E+00
     13.132  0.3968E-01  0.5473E+00
     13.217  0.3992E-01  0.5507E+00
     13.301  0.2909E-01  0.5531E+00
     13.385  0.4683E-01  0.5571E+00
     13.470  0.3359E-01  0.5599E+00
     13.554  0.1989E-01  0.5616E+00
     13.638  0.2183E-01  0.5634E+00
     13.723  0.2486E-01  0.5655E+00
     13.807  0.3650E-01  0.5686E+00
     13.891  0.3790E-01  0.5718E+00
     13.976  0.3188E-01  0.5745E+00
     14.060  0.4318E-01  0.5781E+00
     14.144  0.4930E-01  0.5823E+00
     14.229  0.4826E-01  0.5864E+00
     14.313  0.5348E-01  0.5909E+00
     14.398  0.3522E-01  0.5938E+00
     14.482  0.3460E-01  0.5968E+00
     14.566  0.3913E-01  0.6001E+00
     14.651  0.4968E-01  0.6042E+00
     14.735  0.3441E-01  0.6072E+00
     14.819  0.3529E-01  0.6101E+00
     14.904  0.3950E-01  0.6135E+00
     14.988  0.3224E-01  0.6162E+00
     15.072  0.4092E-01  0.6196E+00
     15.157  0.5584E-01  0.6243E+00
     15.241  0.5018E-01  0.6286E+00
     15.325  0.5882E-01  0.6335E+00
     15.410  0.3820E-01  0.6368E+00
     15.494  0.5421E-01  0.6413E+00
     15.579  0.4910E-01  0.6455E+00
     15.663  0.3314E-01  0.6483E+00
     15.747  0.3070E-01  0.6509E+00
     15.832  0.2968E-01  0.6534E+00
     15.916  0.2946E-01  0.6559E+00
     16.000  0.2255E-01  0.6578E+00
     16.085  0.1407E-01  0.6589E+00
     16.169  0.5207E-02  0.6594E+00
     16.253  0.3972E-02  0.6597E+00
     16.338  0.3179E-02  0.6600E+00
     16.422  0.1945E-03  0.6600E+00
     16.507  0.1400E-06  0.6600E+00
     16.591  0.4691E-12  0.6600E+00
     16.675  0.0000E+00  0.6600E+00
     16.760  0.0000E+00  0.6600E+00
     16.844  0.0000E+00  0.6600E+00
     16.928  0.0000E+00  0.6600E+00
     17.013  0.0000E+00  0.6600E+00
     17.097  0.0000E+00  0.6600E+00
     17.181  0.0000E+00  0.6600E+00
     17.266  0.0000E+00  0.6600E+00
     17.350  0.0000E+00  0.6600E+00
     17.434  0.0000E+00  0.6600E+00
