       N       E                     dE             d eps       ncg     rms          rms(c)
DAV:   1    -0.248221815870E+03   -0.24822E+03   -0.48625E+00  7152   0.107E+01    0.790E+00
DAV:   2    -0.232102655330E+03    0.16119E+02   -0.15048E+00  7170   0.624E+00    0.588E+00
DAV:   3    -0.232478514280E+03   -0.37586E+00   -0.22646E-01  8538   0.218E+00    0.476E+00
DAV:   4    -0.232515428537E+03   -0.36914E-01   -0.14568E-01  8460   0.123E+00    0.932E-01
DAV:   5    -0.232514653154E+03    0.77538E-03   -0.11739E-02  8232   0.372E-01    0.363E-01
DAV:   6    -0.232514643377E+03    0.97775E-05   -0.34784E-03  8286   0.196E-01    0.937E-02
DAV:   7    -0.232514648251E+03   -0.48741E-05   -0.18422E-04  8400   0.501E-02    0.627E-02
DAV:   8    -0.232514657747E+03   -0.94963E-05   -0.87545E-05  8682   0.370E-02
   1 F= -.19592126E+03 E0= -.19592126E+03  d E =-.195921E+03
       N       E                     dE             d eps       ncg     rms          rms(c)
DAV:   1    -0.231449387724E+03    0.10653E+01   -0.24578E+00  8052   0.649E+00    0.160E+00
DAV:   2    -0.231409168723E+03    0.40219E-01   -0.17604E-01  8520   0.136E+00    0.828E-01
DAV:   3    -0.231407695153E+03    0.14736E-02   -0.29048E-02  8304   0.498E-01    0.303E-01
DAV:   4    -0.231407837856E+03   -0.14270E-03   -0.10245E-03  8502   0.135E-01    0.141E-01
DAV:   5    -0.231407883481E+03   -0.45625E-04   -0.22352E-04  8412   0.654E-02    0.103E-01
DAV:   6    -0.231407869947E+03    0.13534E-04   -0.12295E-04  8226   0.377E-02    0.354E-02
DAV:   7    -0.231407877871E+03   -0.79244E-05   -0.19491E-05  4452   0.147E-02
   2 F= -.19589351E+03 E0= -.19589351E+03  d E =0.277466E-01
       N       E                     dE             d eps       ncg     rms          rms(c)
DAV:   1    -0.232093148069E+03   -0.68528E+00   -0.76845E-01  8046   0.358E+00    0.908E-01
DAV:   2    -0.232081819961E+03    0.11328E-01   -0.56101E-02  8472   0.759E-01    0.466E-01
DAV:   3    -0.232081750292E+03    0.69670E-04   -0.93092E-03  8292   0.280E-01    0.169E-01
DAV:   4    -0.232081867449E+03   -0.11716E-03   -0.33200E-04  8484   0.765E-02    0.788E-02
DAV:   5    -0.232081911607E+03   -0.44158E-04   -0.74967E-05  8346   0.375E-02    0.577E-02
DAV:   6    -0.232081923133E+03   -0.11526E-04   -0.41861E-05  7434   0.218E-02    0.188E-02
DAV:   7    -0.232081912085E+03    0.11048E-04   -0.69192E-06  4278   0.872E-03    0.515E-03
DAV:   8    -0.232081909726E+03    0.23588E-05   -0.21158E-06  4164   0.509E-03
   3 F= -.19596188E+03 E0= -.19596188E+03  d E =-.406148E-01
       N       E                     dE             d eps       ncg     rms          rms(c)
DAV:   1    -0.232076041584E+03    0.58705E-02   -0.67944E-05  7632   0.339E-02    0.895E-03
DAV:   2    -0.232076037075E+03    0.45092E-05   -0.43600E-06  3942   0.703E-03
   4 F= -.19596188E+03 E0= -.19596188E+03  d E =-.406152E-01
       N       E                     dE             d eps       ncg     rms          rms(c)
DAV:   1    -0.232091803544E+03   -0.15762E-01   -0.65326E-02  7170   0.107E+00    0.460E-02
DAV:   2    -0.232091854122E+03   -0.50578E-04   -0.10955E-03  8856   0.124E-01    0.332E-02
DAV:   3    -0.232091840860E+03    0.13262E-04   -0.40080E-05  7842   0.261E-02    0.230E-02
DAV:   4    -0.232091831557E+03    0.93031E-05   -0.19873E-05  4920   0.177E-02
   5 F= -.19596352E+03 E0= -.19596352E+03  d E =-.164164E-02
       N       E                     dE             d eps       ncg     rms          rms(c)
DAV:   1    -0.232096961574E+03   -0.51207E-02   -0.81449E-03  7254   0.378E-01    0.176E-02
DAV:   2    -0.232096966284E+03   -0.47099E-05   -0.13004E-04  8892   0.435E-02    0.129E-02
DAV:   3    -0.232096963651E+03    0.26326E-05   -0.46107E-06  4524   0.941E-03
   6 F= -.19596364E+03 E0= -.19596364E+03  d E =-.175899E-02
       N       E                     dE             d eps       ncg     rms          rms(c)
DAV:   1    -0.232101886723E+03   -0.49204E-02   -0.19781E-02  7188   0.580E-01    0.280E-02
DAV:   2    -0.232101911351E+03   -0.24628E-04   -0.45477E-04  8682   0.789E-02    0.219E-02
DAV:   3    -0.232101904267E+03    0.70842E-05   -0.15608E-05  5484   0.180E-02
   7 F= -.19596389E+03 E0= -.19596389E+03  d E =-.253956E-03
       N       E                     dE             d eps       ncg     rms          rms(c)
DAV:   1    -0.232103572860E+03   -0.16615E-02   -0.23502E-03  7422   0.201E-01    0.123E-02
DAV:   2    -0.232103575261E+03   -0.24005E-05   -0.36190E-05  8130   0.236E-02
   8 F= -.19596390E+03 E0= -.19596390E+03  d E =-.267278E-03
       N       E                     dE             d eps       ncg     rms          rms(c)
DAV:   1    -0.232103000498E+03    0.57236E-03   -0.12837E-02  7176   0.470E-01    0.199E-02
DAV:   2    -0.232102998055E+03    0.24430E-05   -0.13158E-04  8772   0.454E-02    0.145E-02
DAV:   3    -0.232102994602E+03    0.34533E-05   -0.94805E-06  4806   0.134E-02
   9 F= -.19596405E+03 E0= -.19596405E+03  d E =-.150714E-03
       N       E                     dE             d eps       ncg     rms          rms(c)
DAV:   1    -0.232102630595E+03    0.36746E-03   -0.33391E-03  7320   0.241E-01    0.103E-02
DAV:   2    -0.232102628991E+03    0.16040E-05   -0.26223E-05  7152   0.213E-02
  10 F= -.19596407E+03 E0= -.19596407E+03  d E =-.164814E-03
       N       E                     dE             d eps       ncg     rms          rms(c)
DAV:   1    -0.232101499713E+03    0.11309E-02   -0.35933E-03  7230   0.237E-01    0.127E-02
DAV:   2    -0.232101500580E+03   -0.86708E-06   -0.80790E-05  8622   0.335E-02
  11 F= -.19596411E+03 E0= -.19596411E+03  d E =-.462951E-04
