Al4C3 Pnma (POSCAR.IV, symmetrized via s
   1.00000000000000     
     8.2139127466022988    0.0000000000000000    0.0000000000000000
     0.0000000000000000    2.8336506272417195    0.0000000000000000
     0.0000000000000000    0.0000000000000000    9.7640292434316827
   Al   C 
    16    12
Direct
  0.2623990537520469  0.2500000000000000  0.2977738626197632
  0.2376009462479531  0.7500000000000000  0.7977738626197631
  0.7376009462479530  0.7500000000000000  0.7022261373802369
  0.7623990537520470  0.2500000000000000  0.2022261373802367
  0.3457700987506283  0.2500000000000000  0.0110497324521136
  0.1542299012493717  0.7500000000000000  0.5110497324521137
  0.6542299012493717  0.7500000000000000  0.9889502675478863
  0.8457700987506283  0.2500000000000000  0.4889502675478864
  0.5225417363660673  0.2500000000000000  0.7940011501528281
  0.9774582636339327  0.7500000000000000  0.2940011501528282
  0.4774582636339328  0.7500000000000000  0.2059988498471719
  0.0225417363660673  0.2500000000000000  0.7059988498471719
  0.0679908049129005  0.2500000000000000  0.0899758959412190
  0.4320091950871066  0.7500000000000000  0.5899758959412191
  0.9320091950870998  0.7500000000000000  0.9100241040587809
  0.5679908049129002  0.2500000000000000  0.4100241040587810
  0.2602594230889553  0.2500000000000000  0.6421802199387974
  0.2397405769110448  0.7500000000000000  0.1421802199387974
  0.7397405769110449  0.7500000000000000  0.3578197800612026
  0.7602594230889551  0.2500000000000000  0.8578197800612026
  0.6056112060515926  0.2500000000000000  0.6076392215186410
  0.8943887939484074  0.7500000000000000  0.1076392215186412
  0.3943887939484075  0.7500000000000000  0.3923607784813589
  0.1056112060515925  0.2500000000000000  0.8923607784813590
  0.0636062490207412  0.2500000000000000  0.3895271301852826
  0.4363937509792589  0.7500000000000000  0.8895271301852824
  0.9363937509792587  0.7500000000000000  0.6104728698147176
  0.5636062490207413  0.2500000000000000  0.1104728698147175
 
  0.00000000E+00  0.00000000E+00  0.00000000E+00
  0.00000000E+00  0.00000000E+00  0.00000000E+00
  0.00000000E+00  0.00000000E+00  0.00000000E+00
  0.00000000E+00  0.00000000E+00  0.00000000E+00
  0.00000000E+00  0.00000000E+00  0.00000000E+00
  0.00000000E+00  0.00000000E+00  0.00000000E+00
  0.00000000E+00  0.00000000E+00  0.00000000E+00
  0.00000000E+00  0.00000000E+00  0.00000000E+00
  0.00000000E+00  0.00000000E+00  0.00000000E+00
  0.00000000E+00  0.00000000E+00  0.00000000E+00
  0.00000000E+00  0.00000000E+00  0.00000000E+00
  0.00000000E+00  0.00000000E+00  0.00000000E+00
  0.00000000E+00  0.00000000E+00  0.00000000E+00
  0.00000000E+00  0.00000000E+00  0.00000000E+00
  0.00000000E+00  0.00000000E+00  0.00000000E+00
  0.00000000E+00  0.00000000E+00  0.00000000E+00
  0.00000000E+00  0.00000000E+00  0.00000000E+00
  0.00000000E+00  0.00000000E+00  0.00000000E+00
  0.00000000E+00  0.00000000E+00  0.00000000E+00
  0.00000000E+00  0.00000000E+00  0.00000000E+00
  0.00000000E+00  0.00000000E+00  0.00000000E+00
  0.00000000E+00  0.00000000E+00  0.00000000E+00
  0.00000000E+00  0.00000000E+00  0.00000000E+00
  0.00000000E+00  0.00000000E+00  0.00000000E+00
  0.00000000E+00  0.00000000E+00  0.00000000E+00
  0.00000000E+00  0.00000000E+00  0.00000000E+00
  0.00000000E+00  0.00000000E+00  0.00000000E+00
  0.00000000E+00  0.00000000E+00  0.00000000E+00
