  28  28   0   0
  0.8341194E+01  0.8289030E-09  0.2859565E-09  0.9853322E-09  0.5000000E-15
  1.000000000000000E-004
  CAR 
 Al4C3 Pnma - H(P) scan @ 60 GPa (ISIF=8)
     21.04812041     -5.69844660  301     12.67031551      1.00000000
     -5.698  0.0000E+00  0.0000E+00
     -5.609  0.0000E+00  0.0000E+00
     -5.520  0.0000E+00  0.0000E+00
     -5.431  0.0000E+00  0.0000E+00
     -5.342  0.0000E+00  0.0000E+00
     -5.253  0.0000E+00  0.0000E+00
     -5.164  0.0000E+00  0.0000E+00
     -5.074  0.0000E+00  0.0000E+00
     -4.985  0.0000E+00  0.0000E+00
     -4.896  0.0000E+00  0.0000E+00
     -4.807  0.0000E+00  0.0000E+00
     -4.718  0.9461E-14  0.8435E-15
     -4.629  0.1174E-07  0.1047E-08
     -4.539  0.3463E-04  0.3088E-05
     -4.450  0.5946E-03  0.5610E-04
     -4.361  0.2304E-02  0.2615E-03
     -4.272  0.4486E-02  0.6615E-03
     -4.183  0.5538E-02  0.1155E-02
     -4.094  0.5339E-02  0.1631E-02
     -4.004  0.4864E-02  0.2065E-02
     -3.915  0.7299E-02  0.2716E-02
     -3.826  0.1112E-01  0.3707E-02
     -3.737  0.1007E-01  0.4605E-02
     -3.648  0.5813E-02  0.5123E-02
     -3.559  0.8656E-02  0.5895E-02
     -3.470  0.1223E-01  0.6985E-02
     -3.380  0.8558E-02  0.7748E-02
     -3.291  0.6620E-02  0.8339E-02
     -3.202  0.1250E-01  0.9453E-02
     -3.113  0.1836E-01  0.1109E-01
     -3.024  0.1303E-01  0.1225E-01
     -2.935  0.1122E-01  0.1325E-01
     -2.845  0.9007E-02  0.1406E-01
     -2.756  0.1618E-01  0.1550E-01
     -2.667  0.1225E-01  0.1659E-01
     -2.578  0.1798E-01  0.1819E-01
     -2.489  0.1131E-01  0.1920E-01
     -2.400  0.1092E-01  0.2017E-01
     -2.311  0.1377E-01  0.2140E-01
     -2.221  0.2061E-01  0.2324E-01
     -2.132  0.2033E-01  0.2505E-01
     -2.043  0.1578E-01  0.2646E-01
     -1.954  0.2376E-01  0.2858E-01
     -1.865  0.1689E-01  0.3008E-01
     -1.776  0.1105E-01  0.3107E-01
     -1.686  0.1131E-01  0.3208E-01
     -1.597  0.2370E-01  0.3419E-01
     -1.508  0.1986E-01  0.3596E-01
     -1.419  0.2140E-01  0.3787E-01
     -1.330  0.1583E-01  0.3928E-01
     -1.241  0.2523E-01  0.4153E-01
     -1.152  0.2755E-01  0.4398E-01
     -1.062  0.2584E-01  0.4629E-01
     -0.973  0.2134E-01  0.4819E-01
     -0.884  0.2148E-01  0.5011E-01
     -0.795  0.2122E-01  0.5200E-01
     -0.706  0.1655E-01  0.5347E-01
     -0.617  0.2361E-01  0.5558E-01
     -0.527  0.3774E-01  0.5894E-01
     -0.438  0.3222E-01  0.6182E-01
     -0.349  0.2438E-01  0.6399E-01
     -0.260  0.3003E-01  0.6667E-01
     -0.171  0.3807E-01  0.7006E-01
     -0.082  0.2491E-01  0.7228E-01
      0.007  0.3917E-01  0.7577E-01
      0.097  0.3851E-01  0.7921E-01
      0.186  0.4388E-01  0.8312E-01
      0.275  0.6337E-01  0.8877E-01
      0.364  0.4413E-01  0.9270E-01
      0.453  0.1637E-01  0.9416E-01
      0.542  0.2425E-01  0.9632E-01
      0.632  0.3799E-01  0.9971E-01
      0.721  0.2562E-01  0.1020E+00
      0.810  0.1876E-01  0.1037E+00
      0.899  0.1429E-01  0.1049E+00
      0.988  0.1335E-01  0.1061E+00
      1.077  0.1547E-01  0.1075E+00
      1.167  0.2254E-01  0.1095E+00
      1.256  0.1335E-01  0.1107E+00
      1.345  0.1632E-01  0.1122E+00
      1.434  0.1419E-01  0.1134E+00
      1.523  0.1013E-01  0.1143E+00
      1.612  0.9421E-02  0.1152E+00
      1.701  0.9650E-02  0.1160E+00
      1.791  0.1198E-01  0.1171E+00
      1.880  0.6953E-02  0.1177E+00
      1.969  0.8434E-02  0.1185E+00
      2.058  0.1010E-01  0.1194E+00
      2.147  0.5617E-02  0.1199E+00
      2.236  0.1372E-02  0.1200E+00
      2.326  0.7997E-05  0.1200E+00
      2.415  0.1774E-09  0.1200E+00
      2.504  0.1250E-08  0.1200E+00
      2.593  0.1181E-04  0.1200E+00
      2.682  0.6783E-03  0.1201E+00
      2.771  0.2520E-02  0.1203E+00
      2.860  0.3904E-02  0.1206E+00
      2.950  0.4288E-02  0.1210E+00
      3.039  0.3578E-02  0.1213E+00
      3.128  0.7523E-02  0.1220E+00
      3.217  0.1323E-01  0.1232E+00
      3.306  0.2305E-01  0.1252E+00
      3.395  0.2744E-01  0.1277E+00
      3.485  0.1914E-01  0.1294E+00
      3.574  0.2306E-01  0.1314E+00
      3.663  0.3408E-01  0.1345E+00
      3.752  0.3162E-01  0.1373E+00
      3.841  0.3059E-01  0.1400E+00
      3.930  0.4132E-01  0.1437E+00
      4.019  0.4077E-01  0.1474E+00
      4.109  0.2961E-01  0.1500E+00
      4.198  0.3255E-01  0.1529E+00
      4.287  0.4474E-01  0.1569E+00
      4.376  0.3669E-01  0.1602E+00
      4.465  0.3273E-01  0.1631E+00
      4.554  0.3320E-01  0.1660E+00
      4.644  0.3592E-01  0.1692E+00
      4.733  0.3543E-01  0.1724E+00
      4.822  0.3080E-01  0.1751E+00
      4.911  0.4849E-01  0.1795E+00
      5.000  0.3798E-01  0.1828E+00
      5.089  0.3133E-01  0.1856E+00
      5.178  0.3386E-01  0.1887E+00
      5.268  0.3090E-01  0.1914E+00
      5.357  0.2067E-01  0.1933E+00
      5.446  0.2814E-01  0.1958E+00
      5.535  0.4533E-01  0.1998E+00
      5.624  0.3479E-01  0.2029E+00
      5.713  0.3180E-01  0.2057E+00
      5.803  0.2982E-01  0.2084E+00
      5.892  0.3372E-01  0.2114E+00
      5.981  0.4702E-01  0.2156E+00
      6.070  0.4263E-01  0.2194E+00
      6.159  0.3886E-01  0.2229E+00
      6.248  0.3726E-01  0.2262E+00
      6.338  0.2623E-01  0.2285E+00
      6.427  0.3211E-01  0.2314E+00
      6.516  0.4336E-01  0.2353E+00
      6.605  0.2501E-01  0.2375E+00
      6.694  0.2194E-01  0.2394E+00
      6.783  0.3650E-01  0.2427E+00
      6.872  0.5351E-01  0.2475E+00
      6.962  0.5045E-01  0.2520E+00
      7.051  0.4196E-01  0.2557E+00
      7.140  0.4530E-01  0.2597E+00
      7.229  0.5150E-01  0.2643E+00
      7.318  0.4613E-01  0.2684E+00
      7.407  0.3142E-01  0.2713E+00
      7.497  0.3781E-01  0.2746E+00
      7.586  0.4141E-01  0.2783E+00
      7.675  0.4268E-01  0.2821E+00
      7.764  0.5100E-01  0.2867E+00
      7.853  0.3608E-01  0.2899E+00
      7.942  0.3522E-01  0.2930E+00
      8.031  0.3270E-01  0.2959E+00
      8.121  0.3909E-01  0.2994E+00
      8.210  0.3595E-01  0.3026E+00
      8.299  0.4238E-01  0.3064E+00
      8.388  0.5520E-01  0.3113E+00
      8.477  0.4068E-01  0.3150E+00
      8.566  0.3943E-01  0.3185E+00
      8.656  0.3369E-01  0.3215E+00
      8.745  0.4427E-01  0.3254E+00
      8.834  0.4503E-01  0.3294E+00
      8.923  0.4573E-01  0.3335E+00
      9.012  0.5532E-01  0.3384E+00
      9.101  0.4848E-01  0.3428E+00
      9.190  0.3145E-01  0.3456E+00
      9.280  0.3932E-01  0.3491E+00
      9.369  0.5208E-01  0.3537E+00
      9.458  0.4372E-01  0.3576E+00
      9.547  0.3060E-01  0.3603E+00
      9.636  0.4479E-01  0.3643E+00
      9.725  0.4614E-01  0.3685E+00
      9.815  0.4817E-01  0.3727E+00
      9.904  0.4872E-01  0.3771E+00
      9.993  0.5990E-01  0.3824E+00
     10.082  0.7274E-01  0.3889E+00
     10.171  0.6217E-01  0.3945E+00
     10.260  0.6244E-01  0.4000E+00
     10.349  0.4780E-01  0.4043E+00
     10.439  0.4485E-01  0.4083E+00
     10.528  0.5089E-01  0.4128E+00
     10.617  0.6555E-01  0.4187E+00
     10.706  0.6114E-01  0.4241E+00
     10.795  0.8975E-01  0.4321E+00
     10.884  0.6777E-01  0.4382E+00
     10.974  0.5221E-01  0.4428E+00
     11.063  0.5307E-01  0.4475E+00
     11.152  0.5364E-01  0.4523E+00
     11.241  0.4851E-01  0.4567E+00
     11.330  0.3869E-01  0.4601E+00
     11.419  0.4589E-01  0.4642E+00
     11.509  0.3521E-01  0.4673E+00
     11.598  0.2884E-01  0.4699E+00
     11.687  0.2792E-01  0.4724E+00
     11.776  0.1988E-01  0.4742E+00
     11.865  0.1338E-01  0.4754E+00
     11.954  0.1067E-01  0.4763E+00
     12.043  0.1517E-01  0.4777E+00
     12.133  0.9697E-02  0.4785E+00
     12.222  0.6753E-02  0.4791E+00
     12.311  0.5284E-02  0.4796E+00
     12.400  0.3914E-02  0.4800E+00
     12.489  0.5421E-03  0.4800E+00
     12.578  0.2684E-05  0.4800E+00
     12.668  0.7236E-10  0.4800E+00
     12.757  0.4387E-17  0.4800E+00
     12.846  0.0000E+00  0.4800E+00
     12.935  0.0000E+00  0.4800E+00
     13.024  0.9906E-18  0.4800E+00
     13.113  0.3882E-10  0.4800E+00
     13.202  0.3253E-05  0.4800E+00
     13.292  0.7880E-03  0.4801E+00
     13.381  0.2189E-02  0.4803E+00
     13.470  0.7063E-02  0.4809E+00
     13.559  0.8766E-02  0.4817E+00
     13.648  0.5567E-02  0.4822E+00
     13.737  0.1943E-01  0.4839E+00
     13.827  0.2902E-01  0.4865E+00
     13.916  0.2459E-01  0.4887E+00
     14.005  0.9668E-02  0.4895E+00
     14.094  0.1013E-01  0.4904E+00
     14.183  0.9582E-02  0.4913E+00
     14.272  0.1027E-01  0.4922E+00
     14.361  0.1745E-01  0.4938E+00
     14.451  0.2351E-01  0.4959E+00
     14.540  0.3549E-01  0.4990E+00
     14.629  0.3692E-01  0.5023E+00
     14.718  0.2151E-01  0.5042E+00
     14.807  0.2046E-01  0.5061E+00
     14.896  0.2862E-01  0.5086E+00
     14.986  0.2085E-01  0.5105E+00
     15.075  0.3692E-01  0.5138E+00
     15.164  0.3012E-01  0.5165E+00
     15.253  0.3641E-01  0.5197E+00
     15.342  0.2196E-01  0.5217E+00
     15.431  0.1769E-01  0.5232E+00
     15.520  0.8339E-02  0.5240E+00
     15.610  0.1826E-01  0.5256E+00
     15.699  0.2163E-01  0.5275E+00
     15.788  0.1774E-01  0.5291E+00
     15.877  0.2660E-01  0.5315E+00
     15.966  0.2139E-01  0.5334E+00
     16.055  0.2873E-01  0.5360E+00
     16.145  0.1828E-01  0.5376E+00
     16.234  0.2620E-01  0.5399E+00
     16.323  0.5050E-01  0.5444E+00
     16.412  0.4874E-01  0.5488E+00
     16.501  0.4846E-01  0.5531E+00
     16.590  0.3421E-01  0.5561E+00
     16.680  0.3068E-01  0.5589E+00
     16.769  0.3647E-01  0.5621E+00
     16.858  0.3789E-01  0.5655E+00
     16.947  0.4756E-01  0.5697E+00
     17.036  0.4496E-01  0.5738E+00
     17.125  0.2544E-01  0.5760E+00
     17.214  0.3983E-01  0.5796E+00
     17.304  0.4281E-01  0.5834E+00
     17.393  0.4274E-01  0.5872E+00
     17.482  0.2710E-01  0.5896E+00
     17.571  0.3939E-01  0.5931E+00
     17.660  0.3581E-01  0.5963E+00
     17.749  0.4847E-01  0.6006E+00
     17.839  0.3754E-01  0.6040E+00
     17.928  0.3776E-01  0.6074E+00
     18.017  0.3209E-01  0.6102E+00
     18.106  0.2764E-01  0.6127E+00
     18.195  0.2398E-01  0.6148E+00
     18.284  0.2973E-01  0.6175E+00
     18.373  0.3660E-01  0.6207E+00
     18.463  0.3607E-01  0.6240E+00
     18.552  0.2980E-01  0.6266E+00
     18.641  0.4882E-01  0.6310E+00
     18.730  0.3000E-01  0.6336E+00
     18.819  0.2246E-01  0.6356E+00
     18.908  0.3503E-01  0.6388E+00
     18.998  0.3620E-01  0.6420E+00
     19.087  0.3098E-01  0.6448E+00
     19.176  0.2561E-01  0.6470E+00
     19.265  0.2864E-01  0.6496E+00
     19.354  0.1534E-01  0.6510E+00
     19.443  0.2650E-01  0.6533E+00
     19.532  0.3627E-01  0.6566E+00
     19.622  0.2048E-01  0.6584E+00
     19.711  0.1315E-01  0.6596E+00
     19.800  0.3827E-02  0.6599E+00
     19.889  0.1139E-02  0.6600E+00
     19.978  0.6930E-04  0.6600E+00
     20.067  0.2348E-07  0.6600E+00
     20.157  0.1892E-13  0.6600E+00
     20.246  0.0000E+00  0.6600E+00
     20.335  0.0000E+00  0.6600E+00
     20.424  0.0000E+00  0.6600E+00
     20.513  0.0000E+00  0.6600E+00
     20.602  0.0000E+00  0.6600E+00
     20.691  0.0000E+00  0.6600E+00
     20.781  0.0000E+00  0.6600E+00
     20.870  0.0000E+00  0.6600E+00
     20.959  0.0000E+00  0.6600E+00
     21.048  0.0000E+00  0.6600E+00
