       N       E                     dE             d eps       ncg     rms          rms(c)
DAV:   1    -0.159503879096E+03   -0.15950E+03   -0.72416E-04  6318   0.212E-01    0.362E-03
DAV:   2    -0.159503878892E+03    0.20420E-06   -0.21816E-06  4464   0.552E-03
   1 F= -.72040366E+02 E0= -.72040366E+02  d E =-.720404E+02
       N       E                     dE             d eps       ncg     rms          rms(c)
DAV:   1    -0.152891106337E+03    0.66128E+01   -0.15347E+01  8154   0.166E+01    0.412E+00
DAV:   2    -0.152540679459E+03    0.35043E+00   -0.91540E-01  8346   0.312E+00    0.193E+00
DAV:   3    -0.152509576804E+03    0.31103E-01   -0.14908E-01  8262   0.117E+00    0.554E-01
DAV:   4    -0.152505677479E+03    0.38993E-02   -0.83547E-03  8418   0.295E-01    0.191E-01
DAV:   5    -0.152505075169E+03    0.60231E-03   -0.81573E-04  8430   0.101E-01    0.115E-01
DAV:   6    -0.152505009372E+03    0.65797E-04   -0.18122E-04  8334   0.462E-02    0.181E-02
DAV:   7    -0.152505005884E+03    0.34881E-05   -0.15378E-05  5046   0.211E-02
   2 F= -.71505036E+02 E0= -.71505036E+02  d E =0.535330E+00
       N       E                     dE             d eps       ncg     rms          rms(c)
DAV:   1    -0.157622487671E+03   -0.51175E+01   -0.64235E+00  8166   0.104E+01    0.272E+00
DAV:   2    -0.157467575571E+03    0.15491E+00   -0.40947E-01  8286   0.205E+00    0.125E+00
DAV:   3    -0.157454676354E+03    0.12899E-01   -0.63073E-02  8304   0.750E-01    0.368E-01
DAV:   4    -0.157452782629E+03    0.18937E-02   -0.40172E-03  8472   0.200E-01    0.123E-01
DAV:   5    -0.157452432591E+03    0.35004E-03   -0.45427E-04  8412   0.729E-02    0.720E-02
DAV:   6    -0.157452376950E+03    0.55641E-04   -0.92851E-05  8112   0.322E-02    0.138E-02
DAV:   7    -0.157452371343E+03    0.56063E-05   -0.73370E-06  4500   0.145E-02
   3 F= -.72235410E+02 E0= -.72235410E+02  d E =-.195044E+00
       N       E                     dE             d eps       ncg     rms          rms(c)
DAV:   1    -0.157418992237E+03    0.33385E-01   -0.39163E-04  8196   0.812E-02    0.219E-02
DAV:   2    -0.157418985490E+03    0.67466E-05   -0.23667E-05  4842   0.160E-02
   4 F= -.72235456E+02 E0= -.72235456E+02  d E =-.195091E+00
       N       E                     dE             d eps       ncg     rms          rms(c)
DAV:   1    -0.157414387175E+03    0.46051E-02   -0.41042E-06  4320   0.777E-03    0.596E-03
DAV:   2    -0.157414387847E+03   -0.67177E-06   -0.73586E-07  4206   0.275E-03
   5 F= -.72235458E+02 E0= -.72235458E+02  d E =-.195092E+00
       N       E                     dE             d eps       ncg     rms          rms(c)
DAV:   1    -0.157416536009E+03   -0.21488E-02   -0.18813E-06  4152   0.584E-03    0.112E-03
DAV:   2    -0.157416535966E+03    0.43157E-07   -0.12213E-07  4026   0.139E-03
   6 F= -.72235459E+02 E0= -.72235459E+02  d E =-.195093E+00
       N       E                     dE             d eps       ncg     rms          rms(c)
DAV:   1    -0.157377358371E+03    0.39178E-01   -0.34093E-01  7164   0.240E+00    0.130E-01
DAV:   2    -0.157377331379E+03    0.26993E-04   -0.65449E-03  8676   0.308E-01    0.875E-02
DAV:   3    -0.157377121458E+03    0.20992E-03   -0.51538E-04  8466   0.938E-02    0.380E-02
DAV:   4    -0.157377109851E+03    0.11607E-04   -0.18266E-04  8520   0.482E-02    0.184E-02
DAV:   5    -0.157377108792E+03    0.10588E-05   -0.20544E-05  5202   0.168E-02
   7 F= -.72239063E+02 E0= -.72239063E+02  d E =-.360411E-02
       N       E                     dE             d eps       ncg     rms          rms(c)
DAV:   1    -0.157379359782E+03   -0.22499E-02   -0.89404E-04  7350   0.123E-01    0.715E-03
DAV:   2    -0.157379359558E+03    0.22484E-06   -0.15275E-05  5556   0.152E-02
   8 F= -.72239073E+02 E0= -.72239073E+02  d E =-.361345E-02
       N       E                     dE             d eps       ncg     rms          rms(c)
DAV:   1    -0.157366921399E+03    0.12438E-01   -0.26904E-01  7152   0.207E+00    0.106E-01
DAV:   2    -0.157366732444E+03    0.18896E-03   -0.57818E-03  8748   0.294E-01    0.645E-02
DAV:   3    -0.157366600901E+03    0.13154E-03   -0.42153E-04  8298   0.840E-02    0.283E-02
DAV:   4    -0.157366601987E+03   -0.10860E-05   -0.14471E-04  8322   0.381E-02    0.120E-02
DAV:   5    -0.157366602066E+03   -0.79188E-07   -0.67165E-06  4476   0.997E-03
   9 F= -.72240718E+02 E0= -.72240718E+02  d E =-.164552E-02
       N       E                     dE             d eps       ncg     rms          rms(c)
DAV:   1    -0.157368030735E+03   -0.14287E-02   -0.25416E-03  7224   0.201E-01    0.998E-03
DAV:   2    -0.157368029499E+03    0.12361E-05   -0.54468E-05  8376   0.285E-02
  10 F= -.72240738E+02 E0= -.72240738E+02  d E =-.166556E-02
       N       E                     dE             d eps       ncg     rms          rms(c)
DAV:   1    -0.157354089966E+03    0.13941E-01   -0.68739E-02  7146   0.107E+00    0.496E-02
DAV:   2    -0.157354123297E+03   -0.33331E-04   -0.15441E-03  8736   0.149E-01    0.351E-02
DAV:   3    -0.157354097458E+03    0.25839E-04   -0.73491E-05  8436   0.354E-02    0.194E-02
DAV:   4    -0.157354091987E+03    0.54711E-05   -0.46813E-05  7662   0.233E-02
  11 F= -.72241362E+02 E0= -.72241362E+02  d E =-.624399E-03
       N       E                     dE             d eps       ncg     rms          rms(c)
DAV:   1    -0.157353754152E+03    0.34331E-03   -0.42442E-05  6840   0.283E-02    0.430E-03
DAV:   2    -0.157353754363E+03   -0.21092E-06   -0.37756E-06  4260   0.729E-03
  12 F= -.72241363E+02 E0= -.72241363E+02  d E =-.624947E-03
       N       E                     dE             d eps       ncg     rms          rms(c)
DAV:   1    -0.157357550998E+03   -0.37968E-02   -0.16031E-02  7164   0.513E-01    0.222E-02
DAV:   2    -0.157357555670E+03   -0.46720E-05   -0.24392E-04  8568   0.601E-02    0.149E-02
DAV:   3    -0.157357548207E+03    0.74635E-05   -0.13216E-05  5316   0.167E-02
  13 F= -.72241601E+02 E0= -.72241601E+02  d E =-.238144E-03
       N       E                     dE             d eps       ncg     rms          rms(c)
DAV:   1    -0.157361118640E+03   -0.35630E-02   -0.15324E-02  7152   0.502E-01    0.223E-02
DAV:   2    -0.157361122373E+03   -0.37328E-05   -0.22037E-04  8622   0.570E-02    0.144E-02
DAV:   3    -0.157361115778E+03    0.65949E-05   -0.11559E-05  5190   0.157E-02
  14 F= -.72241674E+02 E0= -.72241674E+02  d E =-.310806E-03
       N       E                     dE             d eps       ncg     rms          rms(c)
DAV:   1    -0.157340561736E+03    0.20561E-01   -0.21625E-02  7146   0.598E-01    0.279E-02
DAV:   2    -0.157340562002E+03   -0.26609E-06   -0.26543E-04  8784   0.636E-02    0.161E-02
DAV:   3    -0.157340555080E+03    0.69223E-05   -0.20100E-05  5526   0.194E-02
  15 F= -.72241828E+02 E0= -.72241828E+02  d E =-.154374E-03
       N       E                     dE             d eps       ncg     rms          rms(c)
DAV:   1    -0.157330086236E+03    0.10476E-01   -0.55446E-03  7200   0.303E-01    0.146E-02
DAV:   2    -0.157330086630E+03   -0.39328E-06   -0.64357E-05  8892   0.315E-02
  16 F= -.72241855E+02 E0= -.72241855E+02  d E =-.180770E-03
       N       E                     dE             d eps       ncg     rms          rms(c)
DAV:   1    -0.157361974438E+03   -0.31888E-01   -0.18498E-02  7182   0.556E-01    0.301E-02
DAV:   2    -0.157361960678E+03    0.13760E-04   -0.23209E-04  8784   0.607E-02    0.183E-02
DAV:   3    -0.157361950300E+03    0.10378E-04   -0.24503E-05  5778   0.199E-02    0.682E-03
DAV:   4    -0.157361950013E+03    0.28736E-06   -0.78076E-06  4350   0.954E-03
  17 F= -.72241954E+02 E0= -.72241954E+02  d E =-.989281E-04
       N       E                     dE             d eps       ncg     rms          rms(c)
DAV:   1    -0.157364490363E+03   -0.25401E-02   -0.12043E-04  6942   0.454E-02    0.307E-03
DAV:   2    -0.157364490022E+03    0.34114E-06   -0.14547E-06  4050   0.510E-03
  18 F= -.72241954E+02 E0= -.72241954E+02  d E =-.994194E-04
       N       E                     dE             d eps       ncg     rms          rms(c)
DAV:   1    -0.157349198802E+03    0.15292E-01   -0.91925E-03  7152   0.392E-01    0.213E-02
DAV:   2    -0.157349194648E+03    0.41536E-05   -0.13325E-04  8778   0.449E-02    0.123E-02
DAV:   3    -0.157349190766E+03    0.38816E-05   -0.15742E-05  4878   0.167E-02
  19 F= -.72242025E+02 E0= -.72242025E+02  d E =-.710006E-04
