Al4C3 Pnma - H(P) scan @ 60 GPa (ISIF=8)
           1
     8.289029    0.000000    0.000000
     0.000000    2.859565    0.000000
     0.000000    0.000000    9.853322
   Al   C 
    16    12
Direct configuration=     1
   0.26293127  0.25000000  0.29819342
   0.23706873  0.75000000  0.79819342
   0.73706873  0.75000000  0.70180658
   0.76293127  0.25000000  0.20180658
   0.34690304  0.25000000  0.01121671
   0.15309696  0.75000000  0.51121671
   0.65309696  0.75000000  0.98878329
   0.84690304  0.25000000  0.48878329
   0.52250091  0.25000000  0.79425364
   0.97749909  0.75000000  0.29425364
   0.47749909  0.75000000  0.20574636
   0.02250091  0.25000000  0.70574636
   0.06895905  0.25000000  0.08948059
   0.43104095  0.75000000  0.58948059
   0.93104095  0.75000000  0.91051941
   0.56895905  0.25000000  0.41051941
   0.25922352  0.25000000  0.64192263
   0.24077648  0.75000000  0.14192263
   0.74077648  0.75000000  0.35807737
   0.75922352  0.25000000  0.85807737
   0.60435317  0.25000000  0.60818299
   0.89564683  0.75000000  0.10818299
   0.39564683  0.75000000  0.39181701
   0.10435317  0.25000000  0.89181701
   0.06417601  0.25000000  0.38912724
   0.43582399  0.75000000  0.88912724
   0.93582399  0.75000000  0.61087276
   0.56417601  0.25000000  0.11087276
Al4C3 Pnma - H(P) scan @ 60 GPa (ISIF=8)
           1
     8.079596    0.000000    0.000000
     0.000000    2.787314    0.000000
     0.000000    0.000000    9.604365
   Al   C 
    16    12
Direct configuration=     2
   0.26298787  0.25000000  0.29817835
   0.23701213  0.75000000  0.79817835
   0.73701213  0.75000000  0.70182165
   0.76298787  0.25000000  0.20182165
   0.34689414  0.25000000  0.01122872
   0.15310586  0.75000000  0.51122872
   0.65310586  0.75000000  0.98877128
   0.84689414  0.25000000  0.48877128
   0.52251880  0.25000000  0.79420704
   0.97748120  0.75000000  0.29420704
   0.47748120  0.75000000  0.20579296
   0.02251880  0.25000000  0.70579296
   0.06895500  0.25000000  0.08948434
   0.43104500  0.75000000  0.58948434
   0.93104500  0.75000000  0.91051566
   0.56895500  0.25000000  0.41051566
   0.25920475  0.25000000  0.64192315
   0.24079525  0.75000000  0.14192315
   0.74079525  0.75000000  0.35807685
   0.75920475  0.25000000  0.85807685
   0.60434432  0.25000000  0.60821841
   0.89565568  0.75000000  0.10821841
   0.39565568  0.75000000  0.39178159
   0.10434432  0.25000000  0.89178159
   0.06418489  0.25000000  0.38915002
   0.43581511  0.75000000  0.88915002
   0.93581511  0.75000000  0.61084998
   0.56418489  0.25000000  0.11084998
Al4C3 Pnma - H(P) scan @ 60 GPa (ISIF=8)
           1
     8.217443    0.000000    0.000000
     0.000000    2.834869    0.000000
     0.000000    0.000000    9.768226
   Al   C 
    16    12
Direct configuration=     3
   0.26294965  0.25000000  0.29818852
   0.23705035  0.75000000  0.79818852
   0.73705035  0.75000000  0.70181148
   0.76294965  0.25000000  0.20181148
   0.34690015  0.25000000  0.01122061
   0.15309985  0.75000000  0.51122061
   0.65309985  0.75000000  0.98877939
   0.84690015  0.25000000  0.48877939
   0.52250672  0.25000000  0.79423850
   0.97749328  0.75000000  0.29423850
   0.47749328  0.75000000  0.20576150
   0.02250672  0.25000000  0.70576150
   0.06895773  0.25000000  0.08948181
   0.43104227  0.75000000  0.58948181
   0.93104227  0.75000000  0.91051819
   0.56895773  0.25000000  0.41051819
   0.25921742  0.25000000  0.64192280
   0.24078258  0.75000000  0.14192280
   0.74078258  0.75000000  0.35807720
   0.75921742  0.25000000  0.85807720
   0.60435029  0.25000000  0.60819450
   0.89564971  0.75000000  0.10819450
   0.39564971  0.75000000  0.39180550
   0.10435029  0.25000000  0.89180550
   0.06417890  0.25000000  0.38913464
   0.43582110  0.75000000  0.88913464
   0.93582110  0.75000000  0.61086536
   0.56417890  0.25000000  0.11086536
Al4C3 Pnma - H(P) scan @ 60 GPa (ISIF=8)
           1
     8.216369    0.000000    0.000000
     0.000000    2.834498    0.000000
     0.000000    0.000000    9.766949
   Al   C 
    16    12
Direct configuration=     4
   0.26294994  0.25000000  0.29818844
   0.23705006  0.75000000  0.79818844
   0.73705006  0.75000000  0.70181156
   0.76294994  0.25000000  0.20181156
   0.34690011  0.25000000  0.01122067
   0.15309989  0.75000000  0.51122067
   0.65309989  0.75000000  0.98877933
   0.84690011  0.25000000  0.48877933
   0.52250681  0.25000000  0.79423826
   0.97749319  0.75000000  0.29423826
   0.47749319  0.75000000  0.20576174
   0.02250681  0.25000000  0.70576174
   0.06895771  0.25000000  0.08948183
   0.43104229  0.75000000  0.58948183
   0.93104229  0.75000000  0.91051817
   0.56895771  0.25000000  0.41051817
   0.25921733  0.25000000  0.64192280
   0.24078267  0.75000000  0.14192280
   0.74078267  0.75000000  0.35807720
   0.75921733  0.25000000  0.85807720
   0.60435025  0.25000000  0.60819468
   0.89564975  0.75000000  0.10819468
   0.39564975  0.75000000  0.39180532
   0.10435025  0.25000000  0.89180532
   0.06417894  0.25000000  0.38913476
   0.43582106  0.75000000  0.88913476
   0.93582106  0.75000000  0.61086524
   0.56417894  0.25000000  0.11086524
Al4C3 Pnma - H(P) scan @ 60 GPa (ISIF=8)
           1
     8.216221    0.000000    0.000000
     0.000000    2.834447    0.000000
     0.000000    0.000000    9.766773
   Al   C 
    16    12
Direct configuration=     5
   0.26294998  0.25000000  0.29818843
   0.23705002  0.75000000  0.79818843
   0.73705002  0.75000000  0.70181157
   0.76294998  0.25000000  0.20181157
   0.34690010  0.25000000  0.01122068
   0.15309990  0.75000000  0.51122068
   0.65309990  0.75000000  0.98877932
   0.84690010  0.25000000  0.48877932
   0.52250682  0.25000000  0.79423823
   0.97749318  0.75000000  0.29423823
   0.47749318  0.75000000  0.20576177
   0.02250682  0.25000000  0.70576177
   0.06895771  0.25000000  0.08948183
   0.43104229  0.75000000  0.58948183
   0.93104229  0.75000000  0.91051817
   0.56895771  0.25000000  0.41051817
   0.25921731  0.25000000  0.64192280
   0.24078269  0.75000000  0.14192280
   0.74078269  0.75000000  0.35807720
   0.75921731  0.25000000  0.85807720
   0.60435024  0.25000000  0.60819470
   0.89564976  0.75000000  0.10819470
   0.39564976  0.75000000  0.39180530
   0.10435024  0.25000000  0.89180530
   0.06417895  0.25000000  0.38913477
   0.43582105  0.75000000  0.88913477
   0.93582105  0.75000000  0.61086523
   0.56417895  0.25000000  0.11086523
Al4C3 Pnma - H(P) scan @ 60 GPa (ISIF=8)
           1
     8.216290    0.000000    0.000000
     0.000000    2.834471    0.000000
     0.000000    0.000000    9.766855
   Al   C 
    16    12
Direct configuration=     6
   0.26294996  0.25000000  0.29818844
   0.23705004  0.75000000  0.79818844
   0.73705004  0.75000000  0.70181156
   0.76294996  0.25000000  0.20181156
   0.34690010  0.25000000  0.01122068
   0.15309990  0.75000000  0.51122068
   0.65309990  0.75000000  0.98877932
   0.84690010  0.25000000  0.48877932
   0.52250682  0.25000000  0.79423825
   0.97749318  0.75000000  0.29423825
   0.47749318  0.75000000  0.20576175
   0.02250682  0.25000000  0.70576175
   0.06895771  0.25000000  0.08948183
   0.43104229  0.75000000  0.58948183
   0.93104229  0.75000000  0.91051817
   0.56895771  0.25000000  0.41051817
   0.25921732  0.25000000  0.64192280
   0.24078268  0.75000000  0.14192280
   0.74078268  0.75000000  0.35807720
   0.75921732  0.25000000  0.85807720
   0.60435025  0.25000000  0.60819469
   0.89564975  0.75000000  0.10819469
   0.39564975  0.75000000  0.39180531
   0.10435025  0.25000000  0.89180531
   0.06417894  0.25000000  0.38913476
   0.43582106  0.75000000  0.88913476
   0.93582106  0.75000000  0.61086524
   0.56417894  0.25000000  0.11086524
Al4C3 Pnma - H(P) scan @ 60 GPa (ISIF=8)
           1
     8.214906    0.000000    0.000000
     0.000000    2.833993    0.000000
     0.000000    0.000000    9.765210
   Al   C 
    16    12
Direct configuration=     7
   0.26320906  0.25000000  0.29796712
   0.23679094  0.75000000  0.79796712
   0.73679094  0.75000000  0.70203288
   0.76320906  0.25000000  0.20203288
   0.34648734  0.25000000  0.01121948
   0.15351266  0.75000000  0.51121948
   0.65351266  0.75000000  0.98878052
   0.84648734  0.25000000  0.48878052
   0.52236632  0.25000000  0.79387226
   0.97763368  0.75000000  0.29387226
   0.47763368  0.75000000  0.20612774
   0.02236632  0.25000000  0.70612774
   0.06890524  0.25000000  0.08981549
   0.43109476  0.75000000  0.58981549
   0.93109476  0.75000000  0.91018451
   0.56890524  0.25000000  0.41018451
   0.25947104  0.25000000  0.64190572
   0.24052896  0.75000000  0.14190572
   0.74052896  0.75000000  0.35809428
   0.75947104  0.25000000  0.85809428
   0.60472286  0.25000000  0.60791139
   0.89527714  0.75000000  0.10791139
   0.39527714  0.75000000  0.39208861
   0.10472286  0.25000000  0.89208861
   0.06411474  0.25000000  0.38949702
   0.43588526  0.75000000  0.88949702
   0.93588526  0.75000000  0.61050298
   0.56411474  0.25000000  0.11050298
Al4C3 Pnma - H(P) scan @ 60 GPa (ISIF=8)
           1
     8.214978    0.000000    0.000000
     0.000000    2.834018    0.000000
     0.000000    0.000000    9.765296
   Al   C 
    16    12
Direct configuration=     8
   0.26319556  0.25000000  0.29797866
   0.23680444  0.75000000  0.79797866
   0.73680444  0.75000000  0.70202134
   0.76319556  0.25000000  0.20202134
   0.34650884  0.25000000  0.01121954
   0.15349116  0.75000000  0.51121954
   0.65349116  0.75000000  0.98878046
   0.84650884  0.25000000  0.48878046
   0.52237364  0.25000000  0.79389133
   0.97762636  0.75000000  0.29389133
   0.47762636  0.75000000  0.20610867
   0.02237364  0.25000000  0.70610867
   0.06890797  0.25000000  0.08979810
   0.43109203  0.75000000  0.58979810
   0.93109203  0.75000000  0.91020190
   0.56890797  0.25000000  0.41020190
   0.25945782  0.25000000  0.64190661
   0.24054218  0.75000000  0.14190661
   0.74054218  0.75000000  0.35809339
   0.75945782  0.25000000  0.85809339
   0.60470344  0.25000000  0.60792615
   0.89529656  0.75000000  0.10792615
   0.39529656  0.75000000  0.39207385
   0.10470344  0.25000000  0.89207385
   0.06411808  0.25000000  0.38947814
   0.43588192  0.75000000  0.88947814
   0.93588192  0.75000000  0.61052186
   0.56411808  0.25000000  0.11052186
Al4C3 Pnma - H(P) scan @ 60 GPa (ISIF=8)
           1
     8.214515    0.000000    0.000000
     0.000000    2.833858    0.000000
     0.000000    0.000000    9.764745
   Al   C 
    16    12
Direct configuration=     9
   0.26299659  0.25000000  0.29791882
   0.23700341  0.75000000  0.79791882
   0.73700341  0.75000000  0.70208118
   0.76299659  0.25000000  0.20208118
   0.34618980  0.25000000  0.01113293
   0.15381020  0.75000000  0.51113293
   0.65381020  0.75000000  0.98886707
   0.84618980  0.25000000  0.48886707
   0.52191328  0.25000000  0.79389374
   0.97808672  0.75000000  0.29389374
   0.47808672  0.75000000  0.20610626
   0.02191328  0.25000000  0.70610626
   0.06865401  0.25000000  0.08997140
   0.43134599  0.75000000  0.58997140
   0.93134599  0.75000000  0.91002860
   0.56865401  0.25000000  0.41002860
   0.25971384  0.25000000  0.64203173
   0.24028616  0.75000000  0.14203173
   0.74028616  0.75000000  0.35796827
   0.75971384  0.25000000  0.85796827
   0.60506883  0.25000000  0.60760564
   0.89493117  0.75000000  0.10760564
   0.39493117  0.75000000  0.39239436
   0.10506883  0.25000000  0.89239436
   0.06409794  0.25000000  0.38945293
   0.43590206  0.75000000  0.88945293
   0.93590206  0.75000000  0.61054707
   0.56409794  0.25000000  0.11054707
Al4C3 Pnma - H(P) scan @ 60 GPa (ISIF=8)
           1
     8.214560    0.000000    0.000000
     0.000000    2.833874    0.000000
     0.000000    0.000000    9.764799
   Al   C 
    16    12
Direct configuration=    10
   0.26301604  0.25000000  0.29792466
   0.23698396  0.75000000  0.79792466
   0.73698396  0.75000000  0.70207534
   0.76301604  0.25000000  0.20207534
   0.34622098  0.25000000  0.01114139
   0.15377902  0.75000000  0.51114139
   0.65377902  0.75000000  0.98885861
   0.84622098  0.25000000  0.48885861
   0.52195827  0.25000000  0.79389350
   0.97804173  0.75000000  0.29389350
   0.47804173  0.75000000  0.20610650
   0.02195827  0.25000000  0.70610650
   0.06867882  0.25000000  0.08995446
   0.43132118  0.75000000  0.58995446
   0.93132118  0.75000000  0.91004554
   0.56867882  0.25000000  0.41004554
   0.25968882  0.25000000  0.64201950
   0.24031118  0.75000000  0.14201950
   0.74031118  0.75000000  0.35798050
   0.75968882  0.25000000  0.85798050
   0.60503312  0.25000000  0.60763696
   0.89496688  0.75000000  0.10763696
   0.39496688  0.75000000  0.39236304
   0.10503312  0.25000000  0.89236304
   0.06409991  0.25000000  0.38945539
   0.43590009  0.75000000  0.88945539
   0.93590009  0.75000000  0.61054461
   0.56409991  0.25000000  0.11054461
Al4C3 Pnma - H(P) scan @ 60 GPa (ISIF=8)
           1
     8.214092    0.000000    0.000000
     0.000000    2.833712    0.000000
     0.000000    0.000000    9.764242
   Al   C 
    16    12
Direct configuration=    11
   0.26296380  0.25000000  0.29788305
   0.23703620  0.75000000  0.79788305
   0.73703620  0.75000000  0.70211695
   0.76296380  0.25000000  0.20211695
   0.34603349  0.25000000  0.01114358
   0.15396651  0.75000000  0.51114358
   0.65396651  0.75000000  0.98885642
   0.84603349  0.25000000  0.48885642
   0.52191880  0.25000000  0.79382664
   0.97808120  0.75000000  0.29382664
   0.47808120  0.75000000  0.20617336
   0.02191880  0.25000000  0.70617336
   0.06833069  0.25000000  0.08990125
   0.43166931  0.75000000  0.58990125
   0.93166931  0.75000000  0.91009875
   0.56833069  0.25000000  0.41009875
   0.25978371  0.25000000  0.64220855
   0.24021629  0.75000000  0.14220855
   0.74021629  0.75000000  0.35779145
   0.75978371  0.25000000  0.85779145
   0.60522128  0.25000000  0.60766367
   0.89477872  0.75000000  0.10766367
   0.39477872  0.75000000  0.39233633
   0.10522128  0.25000000  0.89233633
   0.06401192  0.25000000  0.38946239
   0.43598808  0.75000000  0.88946239
   0.93598808  0.75000000  0.61053761
   0.56401192  0.25000000  0.11053761
Al4C3 Pnma - H(P) scan @ 60 GPa (ISIF=8)
           1
     8.214081    0.000000    0.000000
     0.000000    2.833709    0.000000
     0.000000    0.000000    9.764229
   Al   C 
    16    12
Direct configuration=    12
   0.26296259  0.25000000  0.29788208
   0.23703741  0.75000000  0.79788208
   0.73703741  0.75000000  0.70211792
   0.76296259  0.25000000  0.20211792
   0.34602913  0.25000000  0.01114363
   0.15397087  0.75000000  0.51114363
   0.65397087  0.75000000  0.98885637
   0.84602913  0.25000000  0.48885637
   0.52191789  0.25000000  0.79382509
   0.97808211  0.75000000  0.29382509
   0.47808211  0.75000000  0.20617491
   0.02191789  0.25000000  0.70617491
   0.06832260  0.25000000  0.08990002
   0.43167740  0.75000000  0.58990002
   0.93167740  0.75000000  0.91009998
   0.56832260  0.25000000  0.41009998
   0.25978591  0.25000000  0.64221294
   0.24021409  0.75000000  0.14221294
   0.74021409  0.75000000  0.35778706
   0.75978591  0.25000000  0.85778706
   0.60522565  0.25000000  0.60766429
   0.89477435  0.75000000  0.10766429
   0.39477435  0.75000000  0.39233571
   0.10522565  0.25000000  0.89233571
   0.06400988  0.25000000  0.38946255
   0.43599012  0.75000000  0.88946255
   0.93599012  0.75000000  0.61053745
   0.56400988  0.25000000  0.11053745
Al4C3 Pnma - H(P) scan @ 60 GPa (ISIF=8)
           1
     8.214195    0.000000    0.000000
     0.000000    2.833748    0.000000
     0.000000    0.000000    9.764365
   Al   C 
    16    12
Direct configuration=    13
   0.26283177  0.25000000  0.29781139
   0.23716823  0.75000000  0.79781139
   0.73716823  0.75000000  0.70218861
   0.76283177  0.25000000  0.20218861
   0.34600200  0.25000000  0.01119244
   0.15399800  0.75000000  0.51119244
   0.65399800  0.75000000  0.98880756
   0.84600200  0.25000000  0.48880756
   0.52200233  0.25000000  0.79385187
   0.97799767  0.75000000  0.29385187
   0.47799767  0.75000000  0.20614813
   0.02200233  0.25000000  0.70614813
   0.06825240  0.25000000  0.08989824
   0.43174760  0.75000000  0.58989824
   0.93174760  0.75000000  0.91010176
   0.56825240  0.25000000  0.41010176
   0.25990603  0.25000000  0.64225697
   0.24009397  0.75000000  0.14225697
   0.74009397  0.75000000  0.35774303
   0.75990603  0.25000000  0.85774303
   0.60526409  0.25000000  0.60765861
   0.89473591  0.75000000  0.10765861
   0.39473591  0.75000000  0.39234139
   0.10526409  0.25000000  0.89234139
   0.06395123  0.25000000  0.38950040
   0.43604877  0.75000000  0.88950040
   0.93604877  0.75000000  0.61049960
   0.56395123  0.25000000  0.11049960
Al4C3 Pnma - H(P) scan @ 60 GPa (ISIF=8)
           1
     8.214308    0.000000    0.000000
     0.000000    2.833787    0.000000
     0.000000    0.000000    9.764499
   Al   C 
    16    12
Direct configuration=    14
   0.26270320  0.25000000  0.29774190
   0.23729680  0.75000000  0.79774190
   0.73729680  0.75000000  0.70225810
   0.76270320  0.25000000  0.20225810
   0.34597533  0.25000000  0.01124041
   0.15402467  0.75000000  0.51124041
   0.65402467  0.75000000  0.98875959
   0.84597533  0.25000000  0.48875959
   0.52208533  0.25000000  0.79387819
   0.97791467  0.75000000  0.29387819
   0.47791467  0.75000000  0.20612181
   0.02208533  0.25000000  0.70612181
   0.06818339  0.25000000  0.08989649
   0.43181661  0.75000000  0.58989649
   0.93181661  0.75000000  0.91010351
   0.56818339  0.25000000  0.41010351
   0.26002409  0.25000000  0.64230025
   0.23997591  0.75000000  0.14230025
   0.73997591  0.75000000  0.35769975
   0.76002409  0.25000000  0.85769975
   0.60530187  0.25000000  0.60765304
   0.89469813  0.75000000  0.10765304
   0.39469813  0.75000000  0.39234696
   0.10530187  0.25000000  0.89234696
   0.06389359  0.25000000  0.38953759
   0.43610641  0.75000000  0.88953759
   0.93610641  0.75000000  0.61046241
   0.56389359  0.25000000  0.11046241
Al4C3 Pnma - H(P) scan @ 60 GPa (ISIF=8)
           1
     8.213641    0.000000    0.000000
     0.000000    2.833557    0.000000
     0.000000    0.000000    9.763707
   Al   C 
    16    12
Direct configuration=    15
   0.26256907  0.25000000  0.29776803
   0.23743093  0.75000000  0.79776803
   0.73743093  0.75000000  0.70223197
   0.76256907  0.25000000  0.20223197
   0.34593565  0.25000000  0.01119530
   0.15406435  0.75000000  0.51119530
   0.65406435  0.75000000  0.98880470
   0.84593565  0.25000000  0.48880470
   0.52220916  0.25000000  0.79391082
   0.97779084  0.75000000  0.29391082
   0.47779084  0.75000000  0.20608918
   0.02220916  0.25000000  0.70608918
   0.06810942  0.25000000  0.08991415
   0.43189058  0.75000000  0.58991415
   0.93189058  0.75000000  0.91008585
   0.56810942  0.25000000  0.41008585
   0.26013264  0.25000000  0.64227089
   0.23986736  0.75000000  0.14227089
   0.73986736  0.75000000  0.35772911
   0.76013264  0.25000000  0.85772911
   0.60541039  0.25000000  0.60768241
   0.89458961  0.75000000  0.10768241
   0.39458961  0.75000000  0.39231759
   0.10541039  0.25000000  0.89231759
   0.06382025  0.25000000  0.38957076
   0.43617975  0.75000000  0.88957076
   0.93617975  0.75000000  0.61042924
   0.56382025  0.25000000  0.11042924
Al4C3 Pnma - H(P) scan @ 60 GPa (ISIF=8)
           1
     8.213304    0.000000    0.000000
     0.000000    2.833440    0.000000
     0.000000    0.000000    9.763305
   Al   C 
    16    12
Direct configuration=    16
   0.26250111  0.25000000  0.29778127
   0.23749889  0.75000000  0.79778127
   0.73749889  0.75000000  0.70221873
   0.76250111  0.25000000  0.20221873
   0.34591555  0.25000000  0.01117244
   0.15408445  0.75000000  0.51117244
   0.65408445  0.75000000  0.98882756
   0.84591555  0.25000000  0.48882756
   0.52227191  0.25000000  0.79392736
   0.97772809  0.75000000  0.29392736
   0.47772809  0.75000000  0.20607264
   0.02227191  0.25000000  0.70607264
   0.06807193  0.25000000  0.08992309
   0.43192807  0.75000000  0.58992309
   0.93192807  0.75000000  0.91007691
   0.56807193  0.25000000  0.41007691
   0.26018765  0.25000000  0.64225602
   0.23981235  0.75000000  0.14225602
   0.73981235  0.75000000  0.35774398
   0.76018765  0.25000000  0.85774398
   0.60546538  0.25000000  0.60769729
   0.89453462  0.75000000  0.10769729
   0.39453462  0.75000000  0.39230271
   0.10546538  0.25000000  0.89230271
   0.06378308  0.25000000  0.38958757
   0.43621692  0.75000000  0.88958757
   0.93621692  0.75000000  0.61041243
   0.56378308  0.25000000  0.11041243
Al4C3 Pnma - H(P) scan @ 60 GPa (ISIF=8)
           1
     8.214326    0.000000    0.000000
     0.000000    2.833793    0.000000
     0.000000    0.000000    9.764520
   Al   C 
    16    12
Direct configuration=    17
   0.26244673  0.25000000  0.29779241
   0.23755327  0.75000000  0.79779241
   0.73755327  0.75000000  0.70220759
   0.76244673  0.25000000  0.20220759
   0.34583954  0.25000000  0.01111187
   0.15416046  0.75000000  0.51111187
   0.65416046  0.75000000  0.98888813
   0.84583954  0.25000000  0.48888813
   0.52240834  0.25000000  0.79396307
   0.97759166  0.75000000  0.29396307
   0.47759166  0.75000000  0.20603693
   0.02240834  0.25000000  0.70603693
   0.06802419  0.25000000  0.08994538
   0.43197581  0.75000000  0.58994538
   0.93197581  0.75000000  0.91005462
   0.56802419  0.25000000  0.41005462
   0.26024529  0.25000000  0.64220974
   0.23975471  0.75000000  0.14220974
   0.73975471  0.75000000  0.35779026
   0.76024529  0.25000000  0.85779026
   0.60556336  0.25000000  0.60768186
   0.89443664  0.75000000  0.10768186
   0.39443664  0.75000000  0.39231814
   0.10556336  0.25000000  0.89231814
   0.06367773  0.25000000  0.38958126
   0.43632227  0.75000000  0.88958126
   0.93632227  0.75000000  0.61041874
   0.56367773  0.25000000  0.11041874
Al4C3 Pnma - H(P) scan @ 60 GPa (ISIF=8)
           1
     8.214407    0.000000    0.000000
     0.000000    2.833821    0.000000
     0.000000    0.000000    9.764617
   Al   C 
    16    12
Direct configuration=    18
   0.26244238  0.25000000  0.29779330
   0.23755762  0.75000000  0.79779330
   0.73755762  0.75000000  0.70220670
   0.76244238  0.25000000  0.20220670
   0.34583346  0.25000000  0.01110702
   0.15416654  0.75000000  0.51110702
   0.65416654  0.75000000  0.98889298
   0.84583346  0.25000000  0.48889298
   0.52241925  0.25000000  0.79396592
   0.97758075  0.75000000  0.29396592
   0.47758075  0.75000000  0.20603408
   0.02241925  0.25000000  0.70603408
   0.06802037  0.25000000  0.08994716
   0.43197963  0.75000000  0.58994716
   0.93197963  0.75000000  0.91005284
   0.56802037  0.25000000  0.41005284
   0.26024990  0.25000000  0.64220604
   0.23975010  0.75000000  0.14220604
   0.73975010  0.75000000  0.35779396
   0.76024990  0.25000000  0.85779396
   0.60557120  0.25000000  0.60768063
   0.89442880  0.75000000  0.10768063
   0.39442880  0.75000000  0.39231937
   0.10557120  0.25000000  0.89231937
   0.06366931  0.25000000  0.38958076
   0.43633069  0.75000000  0.88958076
   0.93633069  0.75000000  0.61041924
   0.56366931  0.25000000  0.11041924
Al4C3 Pnma - H(P) scan @ 60 GPa (ISIF=8)
           1
     8.213913    0.000000    0.000000
     0.000000    2.833651    0.000000
     0.000000    0.000000    9.764029
   Al   C 
    16    12
Direct configuration=    19
   0.26239905  0.25000000  0.29777386
   0.23760095  0.75000000  0.79777386
   0.73760095  0.75000000  0.70222614
   0.76239905  0.25000000  0.20222614
   0.34577010  0.25000000  0.01104973
   0.15422990  0.75000000  0.51104973
   0.65422990  0.75000000  0.98895027
   0.84577010  0.25000000  0.48895027
   0.52254174  0.25000000  0.79400115
   0.97745826  0.75000000  0.29400115
   0.47745826  0.75000000  0.20599885
   0.02254174  0.25000000  0.70599885
   0.06799080  0.25000000  0.08997590
   0.43200920  0.75000000  0.58997590
   0.93200920  0.75000000  0.91002410
   0.56799080  0.25000000  0.41002410
   0.26025942  0.25000000  0.64218022
   0.23974058  0.75000000  0.14218022
   0.73974058  0.75000000  0.35781978
   0.76025942  0.25000000  0.85781978
   0.60561121  0.25000000  0.60763922
   0.89438879  0.75000000  0.10763922
   0.39438879  0.75000000  0.39236078
   0.10561121  0.25000000  0.89236078
   0.06360625  0.25000000  0.38952713
   0.43639375  0.75000000  0.88952713
   0.93639375  0.75000000  0.61047287
   0.56360625  0.25000000  0.11047287
