       N       E                     dE             d eps       ncg     rms          rms(c)
DAV:   1    -0.165264295986E+03   -0.16526E+03   -0.77910E-06  4536   0.940E-03    0.317E-03
DAV:   2    -0.165264296127E+03   -0.14019E-06   -0.13406E-06  4536   0.466E-03
   1 F= -.66631787E+02 E0= -.66631787E+02  d E =-.666318E+02
       N       E                     dE             d eps       ncg     rms          rms(c)
DAV:   1    -0.156981972583E+03    0.82823E+01   -0.19617E+01  7902   0.188E+01    0.479E+00
DAV:   2    -0.156448369439E+03    0.53360E+00   -0.13314E+00  8466   0.373E+00    0.214E+00
DAV:   3    -0.156401807328E+03    0.46562E-01   -0.25757E-01  8292   0.150E+00    0.633E-01
DAV:   4    -0.156395870525E+03    0.59368E-02   -0.20165E-02  8448   0.446E-01    0.229E-01
DAV:   5    -0.156394797596E+03    0.10729E-02   -0.26126E-03  8430   0.163E-01    0.142E-01
DAV:   6    -0.156394681374E+03    0.11622E-03   -0.47794E-04  8442   0.731E-02    0.254E-02
DAV:   7    -0.156394660693E+03    0.20681E-04   -0.37236E-05  7650   0.336E-02    0.161E-02
DAV:   8    -0.156394663850E+03   -0.31565E-05   -0.52520E-05  7242   0.241E-02
   2 F= -.65865074E+02 E0= -.65865074E+02  d E =0.766713E+00
       N       E                     dE             d eps       ncg     rms          rms(c)
DAV:   1    -0.163076148014E+03   -0.66815E+01   -0.85871E+00  7926   0.120E+01    0.322E+00
DAV:   2    -0.162829940706E+03    0.24621E+00   -0.61151E-01  8436   0.250E+00    0.141E+00
DAV:   3    -0.162809538143E+03    0.20403E-01   -0.11927E-01  8358   0.996E-01    0.427E-01
DAV:   4    -0.162806514122E+03    0.30240E-02   -0.11141E-02  8382   0.317E-01    0.157E-01
DAV:   5    -0.162805853885E+03    0.66024E-03   -0.17771E-03  8436   0.128E-01    0.921E-02
DAV:   6    -0.162805743242E+03    0.11064E-03   -0.25689E-04  8436   0.519E-02    0.161E-02
DAV:   7    -0.162805733191E+03    0.10050E-04   -0.12410E-05  5328   0.212E-02    0.108E-02
DAV:   8    -0.162805732077E+03    0.11139E-05   -0.37318E-05  6414   0.200E-02
   3 F= -.66863686E+02 E0= -.66863686E+02  d E =-.231899E+00
       N       E                     dE             d eps       ncg     rms          rms(c)
DAV:   1    -0.162758913218E+03    0.46820E-01   -0.64393E-04  7962   0.105E-01    0.270E-02
DAV:   2    -0.162758900229E+03    0.12989E-04   -0.43424E-05  7770   0.214E-02    0.130E-02
DAV:   3    -0.162758901453E+03   -0.12235E-05   -0.91143E-06  4254   0.910E-03
   4 F= -.66863769E+02 E0= -.66863769E+02  d E =-.231982E+00
       N       E                     dE             d eps       ncg     rms          rms(c)
DAV:   1    -0.162756175731E+03    0.27245E-02   -0.31005E-06  4188   0.646E-03    0.234E-03
DAV:   2    -0.162756176116E+03   -0.38482E-06   -0.26904E-07  4122   0.216E-03
   5 F= -.66863771E+02 E0= -.66863771E+02  d E =-.231984E+00
       N       E                     dE             d eps       ncg     rms          rms(c)
DAV:   1    -0.162733389549E+03    0.22786E-01   -0.12466E-01  7236   0.143E+00    0.806E-02
DAV:   2    -0.162733365779E+03    0.23770E-04   -0.31468E-03  8796   0.206E-01    0.525E-02
DAV:   3    -0.162733287506E+03    0.78273E-04   -0.19765E-04  8592   0.569E-02    0.248E-02
DAV:   4    -0.162733283840E+03    0.36663E-05   -0.79430E-05  8064   0.279E-02
   6 F= -.66865719E+02 E0= -.66865719E+02  d E =-.194806E-02
       N       E                     dE             d eps       ncg     rms          rms(c)
DAV:   1    -0.162735268401E+03   -0.19809E-02   -0.79665E-04  7476   0.114E-01    0.704E-03
DAV:   2    -0.162735267753E+03    0.64806E-06   -0.19624E-05  6252   0.163E-02
   7 F= -.66865734E+02 E0= -.66865734E+02  d E =-.196258E-02
       N       E                     dE             d eps       ncg     rms          rms(c)
DAV:   1    -0.162730988767E+03    0.42796E-02   -0.10943E-01  7176   0.134E+00    0.601E-02
DAV:   2    -0.162730927258E+03    0.61509E-04   -0.12058E-03  8634   0.134E-01    0.374E-02
DAV:   3    -0.162730863888E+03    0.63369E-04   -0.16035E-04  8544   0.514E-02    0.866E-03
DAV:   4    -0.162730867461E+03   -0.35728E-05   -0.45560E-05  5478   0.201E-02
   8 F= -.66866356E+02 E0= -.66866356E+02  d E =-.622098E-03
       N       E                     dE             d eps       ncg     rms          rms(c)
DAV:   1    -0.162730742186E+03    0.12170E-03   -0.72076E-05  7056   0.345E-02    0.441E-03
DAV:   2    -0.162730742142E+03    0.44090E-07   -0.93057E-07  4284   0.376E-03
   9 F= -.66866356E+02 E0= -.66866356E+02  d E =-.622739E-03
       N       E                     dE             d eps       ncg     rms          rms(c)
DAV:   1    -0.162722807502E+03    0.79347E-02   -0.46258E-02  7176   0.869E-01    0.411E-02
DAV:   2    -0.162722789342E+03    0.18159E-04   -0.63024E-04  8712   0.957E-02    0.261E-02
DAV:   3    -0.162722767005E+03    0.22337E-04   -0.67633E-05  8412   0.337E-02    0.969E-03
DAV:   4    -0.162722767763E+03   -0.75841E-06   -0.19639E-05  5106   0.144E-02
  10 F= -.66866776E+02 E0= -.66866776E+02  d E =-.419769E-03
       N       E                     dE             d eps       ncg     rms          rms(c)
DAV:   1    -0.162719400392E+03    0.33666E-02   -0.76408E-03  7188   0.353E-01    0.172E-02
DAV:   2    -0.162719397609E+03    0.27834E-05   -0.10343E-04  8772   0.388E-02    0.111E-02
DAV:   3    -0.162719393918E+03    0.36907E-05   -0.10549E-05  4680   0.140E-02
  11 F= -.66866817E+02 E0= -.66866817E+02  d E =-.460392E-03
       N       E                     dE             d eps       ncg     rms          rms(c)
DAV:   1    -0.162727166681E+03   -0.77691E-02   -0.23396E-02  7176   0.616E-01    0.324E-02
DAV:   2    -0.162727151362E+03    0.15319E-04   -0.31893E-04  8682   0.685E-02    0.202E-02
DAV:   3    -0.162727138390E+03    0.12972E-04   -0.37236E-05  7668   0.245E-02    0.703E-03
DAV:   4    -0.162727138825E+03   -0.43537E-06   -0.10633E-05  5100   0.988E-03
  12 F= -.66866965E+02 E0= -.66866965E+02  d E =-.148548E-03
       N       E                     dE             d eps       ncg     rms          rms(c)
DAV:   1    -0.162725582051E+03    0.15563E-02   -0.99787E-04  7236   0.127E-01    0.679E-03
DAV:   2    -0.162725581408E+03    0.64330E-06   -0.12813E-05  5460   0.143E-02
  13 F= -.66866974E+02 E0= -.66866974E+02  d E =-.157724E-03
       N       E                     dE             d eps       ncg     rms          rms(c)
DAV:   1    -0.162718163459E+03    0.74186E-02   -0.46132E-03  7212   0.268E-01    0.165E-02
DAV:   2    -0.162718165224E+03   -0.17648E-05   -0.13638E-04  8652   0.451E-02    0.122E-02
DAV:   3    -0.162718160939E+03    0.42851E-05   -0.10404E-05  4494   0.149E-02
  14 F= -.66866994E+02 E0= -.66866994E+02  d E =-.195892E-04
