Al4C3 Pnma-VII - H(P) scan @ 60 GPa (ISI
           1
     8.992398    0.000000    0.000000
     0.000000    3.089670    0.000000
     0.000000    0.000000    9.479639
   Al   C 
    16    12
Direct configuration=     1
   0.26818336  0.25000000  0.26647675
   0.76818336  0.25000000  0.23352325
   0.73181664  0.75000000  0.73352325
   0.23181664  0.75000000  0.76647675
   0.46568949  0.25000000  0.89163821
   0.96568949  0.25000000  0.60836179
   0.53431051  0.75000000  0.10836179
   0.03431051  0.75000000  0.39163821
   0.50604432  0.25000000  0.60480726
   0.00604432  0.25000000  0.89519274
   0.49395568  0.75000000  0.39519274
   0.99395568  0.75000000  0.10480726
   0.23679010  0.25000000  0.55794005
   0.73679010  0.25000000  0.94205995
   0.76320990  0.75000000  0.44205995
   0.26320990  0.75000000  0.05794005
   0.38469964  0.25000000  0.42533442
   0.88469964  0.25000000  0.07466558
   0.61530036  0.75000000  0.57466558
   0.11530036  0.75000000  0.92533442
   0.39440472  0.25000000  0.08775135
   0.89440472  0.25000000  0.41224865
   0.60559528  0.75000000  0.91224865
   0.10559528  0.75000000  0.58775135
   0.34710766  0.25000000  0.73421836
   0.84710766  0.25000000  0.76578164
   0.65289234  0.75000000  0.26578164
   0.15289234  0.75000000  0.23421836
Al4C3 Pnma-VII - H(P) scan @ 60 GPa (ISI
           1
     8.739079    0.000000    0.000000
     0.000000    3.002633    0.000000
     0.000000    0.000000    9.212595
   Al   C 
    16    12
Direct configuration=     2
   0.26818226  0.25000000  0.26646973
   0.76818226  0.25000000  0.23353027
   0.73181774  0.75000000  0.73353027
   0.23181774  0.75000000  0.76646973
   0.46568482  0.25000000  0.89163576
   0.96568482  0.25000000  0.60836424
   0.53431518  0.75000000  0.10836424
   0.03431518  0.75000000  0.39163576
   0.50601627  0.25000000  0.60481399
   0.00601627  0.25000000  0.89518601
   0.49398373  0.75000000  0.39518601
   0.99398373  0.75000000  0.10481399
   0.23680287  0.25000000  0.55790607
   0.73680287  0.25000000  0.94209393
   0.76319713  0.75000000  0.44209393
   0.26319713  0.75000000  0.05790607
   0.38472157  0.25000000  0.42531665
   0.88472157  0.25000000  0.07468335
   0.61527843  0.75000000  0.57468335
   0.11527843  0.75000000  0.92531665
   0.39438739  0.25000000  0.08774053
   0.89438739  0.25000000  0.41225947
   0.60561261  0.75000000  0.91225947
   0.10561261  0.75000000  0.58774053
   0.34709299  0.25000000  0.73422088
   0.84709299  0.25000000  0.76577912
   0.65290701  0.75000000  0.26577912
   0.15290701  0.75000000  0.23422088
Al4C3 Pnma-VII - H(P) scan @ 60 GPa (ISI
           1
     8.909879    0.000000    0.000000
     0.000000    3.061318    0.000000
     0.000000    0.000000    9.392649
   Al   C 
    16    12
Direct configuration=     3
   0.26818303  0.25000000  0.26647460
   0.76818303  0.25000000  0.23352540
   0.73181697  0.75000000  0.73352540
   0.23181697  0.75000000  0.76647460
   0.46568806  0.25000000  0.89163746
   0.96568806  0.25000000  0.60836254
   0.53431194  0.75000000  0.10836254
   0.03431194  0.75000000  0.39163746
   0.50603573  0.25000000  0.60480932
   0.00603573  0.25000000  0.89519068
   0.49396427  0.75000000  0.39519068
   0.99396427  0.75000000  0.10480932
   0.23679401  0.25000000  0.55792965
   0.73679401  0.25000000  0.94207035
   0.76320599  0.75000000  0.44207035
   0.26320599  0.75000000  0.05792965
   0.38470635  0.25000000  0.42532897
   0.88470635  0.25000000  0.07467103
   0.61529365  0.75000000  0.57467103
   0.11529365  0.75000000  0.92532897
   0.39439941  0.25000000  0.08774804
   0.89439941  0.25000000  0.41225196
   0.60560059  0.75000000  0.91225196
   0.10560059  0.75000000  0.58774804
   0.34710317  0.25000000  0.73421913
   0.84710317  0.25000000  0.76578087
   0.65289683  0.75000000  0.26578087
   0.15289683  0.75000000  0.23421913
Al4C3 Pnma-VII - H(P) scan @ 60 GPa (ISI
           1
     8.908427    0.000000    0.000000
     0.000000    3.060819    0.000000
     0.000000    0.000000    9.391118
   Al   C 
    16    12
Direct configuration=     4
   0.26818302  0.25000000  0.26647456
   0.76818302  0.25000000  0.23352544
   0.73181698  0.75000000  0.73352544
   0.23181698  0.75000000  0.76647456
   0.46568803  0.25000000  0.89163745
   0.96568803  0.25000000  0.60836255
   0.53431197  0.75000000  0.10836255
   0.03431197  0.75000000  0.39163745
   0.50603557  0.25000000  0.60480936
   0.00603557  0.25000000  0.89519064
   0.49396443  0.75000000  0.39519064
   0.99396443  0.75000000  0.10480936
   0.23679408  0.25000000  0.55792945
   0.73679408  0.25000000  0.94207055
   0.76320592  0.75000000  0.44207055
   0.26320592  0.75000000  0.05792945
   0.38470648  0.25000000  0.42532887
   0.88470648  0.25000000  0.07467113
   0.61529352  0.75000000  0.57467113
   0.11529352  0.75000000  0.92532887
   0.39439931  0.25000000  0.08774798
   0.89439931  0.25000000  0.41225202
   0.60560069  0.75000000  0.91225202
   0.10560069  0.75000000  0.58774798
   0.34710309  0.25000000  0.73421915
   0.84710309  0.25000000  0.76578085
   0.65289691  0.75000000  0.26578085
   0.15289691  0.75000000  0.23421915
Al4C3 Pnma-VII - H(P) scan @ 60 GPa (ISI
           1
     8.908342    0.000000    0.000000
     0.000000    3.060790    0.000000
     0.000000    0.000000    9.391029
   Al   C 
    16    12
Direct configuration=     5
   0.26818302  0.25000000  0.26647456
   0.76818302  0.25000000  0.23352544
   0.73181698  0.75000000  0.73352544
   0.23181698  0.75000000  0.76647456
   0.46568803  0.25000000  0.89163745
   0.96568803  0.25000000  0.60836255
   0.53431197  0.75000000  0.10836255
   0.03431197  0.75000000  0.39163745
   0.50603556  0.25000000  0.60480936
   0.00603556  0.25000000  0.89519064
   0.49396444  0.75000000  0.39519064
   0.99396444  0.75000000  0.10480936
   0.23679409  0.25000000  0.55792944
   0.73679409  0.25000000  0.94207056
   0.76320591  0.75000000  0.44207056
   0.26320591  0.75000000  0.05792944
   0.38470649  0.25000000  0.42532887
   0.88470649  0.25000000  0.07467113
   0.61529351  0.75000000  0.57467113
   0.11529351  0.75000000  0.92532887
   0.39439931  0.25000000  0.08774797
   0.89439931  0.25000000  0.41225203
   0.60560069  0.75000000  0.91225203
   0.10560069  0.75000000  0.58774797
   0.34710308  0.25000000  0.73421915
   0.84710308  0.25000000  0.76578085
   0.65289692  0.75000000  0.26578085
   0.15289692  0.75000000  0.23421915
Al4C3 Pnma-VII - H(P) scan @ 60 GPa (ISI
           1
     8.907573    0.000000    0.000000
     0.000000    3.060525    0.000000
     0.000000    0.000000    9.390218
   Al   C 
    16    12
Direct configuration=     6
   0.26835516  0.25000000  0.26644904
   0.76835516  0.25000000  0.23355096
   0.73164484  0.75000000  0.73355096
   0.23164484  0.75000000  0.76644904
   0.46569732  0.25000000  0.89164172
   0.96569732  0.25000000  0.60835828
   0.53430268  0.75000000  0.10835828
   0.03430268  0.75000000  0.39164172
   0.50602937  0.25000000  0.60518353
   0.00602937  0.25000000  0.89481647
   0.49397063  0.75000000  0.39481647
   0.99397063  0.75000000  0.10518353
   0.23644895  0.25000000  0.55760267
   0.73644895  0.25000000  0.94239733
   0.76355105  0.75000000  0.44239733
   0.26355105  0.75000000  0.05760267
   0.38474117  0.25000000  0.42538044
   0.88474117  0.25000000  0.07461956
   0.61525883  0.75000000  0.57461956
   0.11525883  0.75000000  0.92538044
   0.39446972  0.25000000  0.08808261
   0.89446972  0.25000000  0.41191739
   0.60553028  0.75000000  0.91191739
   0.10553028  0.75000000  0.58808261
   0.34716663  0.25000000  0.73423087
   0.84716663  0.25000000  0.76576913
   0.65283337  0.75000000  0.26576913
   0.15283337  0.75000000  0.23423087
Al4C3 Pnma-VII - H(P) scan @ 60 GPa (ISI
           1
     8.907634    0.000000    0.000000
     0.000000    3.060546    0.000000
     0.000000    0.000000    9.390282
   Al   C 
    16    12
Direct configuration=     7
   0.26834151  0.25000000  0.26645107
   0.76834151  0.25000000  0.23354893
   0.73165849  0.75000000  0.73354893
   0.23165849  0.75000000  0.76645107
   0.46569658  0.25000000  0.89164138
   0.96569658  0.25000000  0.60835862
   0.53430342  0.75000000  0.10835862
   0.03430342  0.75000000  0.39164138
   0.50602986  0.25000000  0.60515386
   0.00602986  0.25000000  0.89484614
   0.49397014  0.75000000  0.39484614
   0.99397014  0.75000000  0.10515386
   0.23647632  0.25000000  0.55762858
   0.73647632  0.25000000  0.94237142
   0.76352368  0.75000000  0.44237142
   0.26352368  0.75000000  0.05762858
   0.38473842  0.25000000  0.42537635
   0.88473842  0.25000000  0.07462365
   0.61526158  0.75000000  0.57462365
   0.11526158  0.75000000  0.92537635
   0.39446413  0.25000000  0.08805607
   0.89446413  0.25000000  0.41194393
   0.60553587  0.75000000  0.91194393
   0.10553587  0.75000000  0.58805607
   0.34716159  0.25000000  0.73422994
   0.84716159  0.25000000  0.76577006
   0.65283841  0.75000000  0.26577006
   0.15283841  0.75000000  0.23422994
Al4C3 Pnma-VII - H(P) scan @ 60 GPa (ISI
           1
     8.907479    0.000000    0.000000
     0.000000    3.060493    0.000000
     0.000000    0.000000    9.390118
   Al   C 
    16    12
Direct configuration=     8
   0.26835883  0.25000000  0.26641731
   0.76835883  0.25000000  0.23358269
   0.73164117  0.75000000  0.73358269
   0.23164117  0.75000000  0.76641731
   0.46555554  0.25000000  0.89166297
   0.96555554  0.25000000  0.60833703
   0.53444446  0.75000000  0.10833703
   0.03444446  0.75000000  0.39166297
   0.50602798  0.25000000  0.60521719
   0.00602798  0.25000000  0.89478281
   0.49397202  0.75000000  0.39478281
   0.99397202  0.75000000  0.10521719
   0.23644144  0.25000000  0.55745016
   0.73644144  0.25000000  0.94254984
   0.76355856  0.75000000  0.44254984
   0.26355856  0.75000000  0.05745016
   0.38477373  0.25000000  0.42545897
   0.88477373  0.25000000  0.07454103
   0.61522627  0.75000000  0.57454103
   0.11522627  0.75000000  0.92545897
   0.39469168  0.25000000  0.08818729
   0.89469168  0.25000000  0.41181271
   0.60530832  0.75000000  0.91181271
   0.10530832  0.75000000  0.58818729
   0.34691325  0.25000000  0.73423214
   0.84691325  0.25000000  0.76576786
   0.65308675  0.75000000  0.26576786
   0.15308675  0.75000000  0.23423214
Al4C3 Pnma-VII - H(P) scan @ 60 GPa (ISI
           1
     8.907475    0.000000    0.000000
     0.000000    3.060491    0.000000
     0.000000    0.000000    9.390114
   Al   C 
    16    12
Direct configuration=     9
   0.26835926  0.25000000  0.26641647
   0.76835926  0.25000000  0.23358353
   0.73164074  0.75000000  0.73358353
   0.23164074  0.75000000  0.76641647
   0.46555201  0.25000000  0.89166352
   0.96555201  0.25000000  0.60833648
   0.53444799  0.75000000  0.10833648
   0.03444799  0.75000000  0.39166352
   0.50602793  0.25000000  0.60521878
   0.00602793  0.25000000  0.89478122
   0.49397207  0.75000000  0.39478122
   0.99397207  0.75000000  0.10521878
   0.23644057  0.25000000  0.55744568
   0.73644057  0.25000000  0.94255432
   0.76355943  0.75000000  0.44255432
   0.26355943  0.75000000  0.05744568
   0.38477462  0.25000000  0.42546104
   0.88477462  0.25000000  0.07453896
   0.61522538  0.75000000  0.57453896
   0.11522538  0.75000000  0.92546104
   0.39469739  0.25000000  0.08819058
   0.89469739  0.25000000  0.41180942
   0.60530261  0.75000000  0.91180942
   0.10530261  0.75000000  0.58819058
   0.34690702  0.25000000  0.73423220
   0.84690702  0.25000000  0.76576780
   0.65309298  0.75000000  0.26576780
   0.15309298  0.75000000  0.23423220
Al4C3 Pnma-VII - H(P) scan @ 60 GPa (ISI
           1
     8.907215    0.000000    0.000000
     0.000000    3.060402    0.000000
     0.000000    0.000000    9.389840
   Al   C 
    16    12
Direct configuration=    10
   0.26848928  0.25000000  0.26639783
   0.76848928  0.25000000  0.23360217
   0.73151072  0.75000000  0.73360217
   0.23151072  0.75000000  0.76639783
   0.46536145  0.25000000  0.89164977
   0.96536145  0.25000000  0.60835023
   0.53463855  0.75000000  0.10835023
   0.03463855  0.75000000  0.39164977
   0.50594072  0.25000000  0.60523294
   0.00594072  0.25000000  0.89476706
   0.49405928  0.75000000  0.39476706
   0.99405928  0.75000000  0.10523294
   0.23631196  0.25000000  0.55748276
   0.73631196  0.25000000  0.94251724
   0.76368804  0.75000000  0.44251724
   0.26368804  0.75000000  0.05748276
   0.38482899  0.25000000  0.42541154
   0.88482899  0.25000000  0.07458846
   0.61517101  0.75000000  0.57458846
   0.11517101  0.75000000  0.92541154
   0.39485953  0.25000000  0.08824754
   0.89485953  0.25000000  0.41175246
   0.60514047  0.75000000  0.91175246
   0.10514047  0.75000000  0.58824754
   0.34676470  0.25000000  0.73419153
   0.84676470  0.25000000  0.76580847
   0.65323530  0.75000000  0.26580847
   0.15323530  0.75000000  0.23419153
Al4C3 Pnma-VII - H(P) scan @ 60 GPa (ISI
           1
     8.907109    0.000000    0.000000
     0.000000    3.060366    0.000000
     0.000000    0.000000    9.389729
   Al   C 
    16    12
Direct configuration=    11
   0.26854217  0.25000000  0.26639025
   0.76854217  0.25000000  0.23360975
   0.73145783  0.75000000  0.73360975
   0.23145783  0.75000000  0.76639025
   0.46528393  0.25000000  0.89164419
   0.96528393  0.25000000  0.60835581
   0.53471607  0.75000000  0.10835581
   0.03471607  0.75000000  0.39164419
   0.50590524  0.25000000  0.60523871
   0.00590524  0.25000000  0.89476129
   0.49409476  0.75000000  0.39476129
   0.99409476  0.75000000  0.10523871
   0.23625964  0.25000000  0.55749784
   0.73625964  0.25000000  0.94250216
   0.76374036  0.75000000  0.44250216
   0.26374036  0.75000000  0.05749784
   0.38485111  0.25000000  0.42539140
   0.88485111  0.25000000  0.07460860
   0.61514889  0.75000000  0.57460860
   0.11514889  0.75000000  0.92539140
   0.39492549  0.25000000  0.08827072
   0.89492549  0.25000000  0.41172928
   0.60507451  0.75000000  0.91172928
   0.10507451  0.75000000  0.58827072
   0.34670681  0.25000000  0.73417499
   0.84670681  0.25000000  0.76582501
   0.65329319  0.75000000  0.26582501
   0.15329319  0.75000000  0.23417499
Al4C3 Pnma-VII - H(P) scan @ 60 GPa (ISI
           1
     8.907344    0.000000    0.000000
     0.000000    3.060447    0.000000
     0.000000    0.000000    9.389977
   Al   C 
    16    12
Direct configuration=    12
   0.26871001  0.25000000  0.26635173
   0.76871001  0.25000000  0.23364827
   0.73128999  0.75000000  0.73364827
   0.23128999  0.75000000  0.76635173
   0.46512303  0.25000000  0.89162564
   0.96512303  0.25000000  0.60837436
   0.53487697  0.75000000  0.10837436
   0.03487697  0.75000000  0.39162564
   0.50576902  0.25000000  0.60520007
   0.00576902  0.25000000  0.89479993
   0.49423098  0.75000000  0.39479993
   0.99423098  0.75000000  0.10520007
   0.23620318  0.25000000  0.55748336
   0.73620318  0.25000000  0.94251664
   0.76379682  0.75000000  0.44251664
   0.26379682  0.75000000  0.05748336
   0.38478003  0.25000000  0.42548780
   0.88478003  0.25000000  0.07451220
   0.61521997  0.75000000  0.57451220
   0.11521997  0.75000000  0.92548780
   0.39500319  0.25000000  0.08829618
   0.89500319  0.25000000  0.41170382
   0.60499681  0.75000000  0.91170382
   0.10499681  0.75000000  0.58829618
   0.34665959  0.25000000  0.73412875
   0.84665959  0.25000000  0.76587125
   0.65334041  0.75000000  0.26587125
   0.15334041  0.75000000  0.23412875
Al4C3 Pnma-VII - H(P) scan @ 60 GPa (ISI
           1
     8.907296    0.000000    0.000000
     0.000000    3.060430    0.000000
     0.000000    0.000000    9.389925
   Al   C 
    16    12
Direct configuration=    13
   0.26867540  0.25000000  0.26635967
   0.76867540  0.25000000  0.23364033
   0.73132460  0.75000000  0.73364033
   0.23132460  0.75000000  0.76635967
   0.46515621  0.25000000  0.89162946
   0.96515621  0.25000000  0.60837054
   0.53484379  0.75000000  0.10837054
   0.03484379  0.75000000  0.39162946
   0.50579711  0.25000000  0.60520804
   0.00579711  0.25000000  0.89479196
   0.49420289  0.75000000  0.39479196
   0.99420289  0.75000000  0.10520804
   0.23621482  0.25000000  0.55748634
   0.73621482  0.25000000  0.94251366
   0.76378518  0.75000000  0.44251366
   0.26378518  0.75000000  0.05748634
   0.38479468  0.25000000  0.42546792
   0.88479468  0.25000000  0.07453208
   0.61520532  0.75000000  0.57453208
   0.11520532  0.75000000  0.92546792
   0.39498717  0.25000000  0.08829093
   0.89498717  0.25000000  0.41170907
   0.60501283  0.75000000  0.91170907
   0.10501283  0.75000000  0.58829093
   0.34666933  0.25000000  0.73413828
   0.84666933  0.25000000  0.76586172
   0.65333067  0.75000000  0.26586172
   0.15333067  0.75000000  0.23413828
Al4C3 Pnma-VII - H(P) scan @ 60 GPa (ISI
           1
     8.907065    0.000000    0.000000
     0.000000    3.060351    0.000000
     0.000000    0.000000    9.389683
   Al   C 
    16    12
Direct configuration=    14
   0.26874760  0.25000000  0.26632227
   0.76874760  0.25000000  0.23367773
   0.73125240  0.75000000  0.73367773
   0.23125240  0.75000000  0.76632227
   0.46514283  0.25000000  0.89164377
   0.96514283  0.25000000  0.60835623
   0.53485717  0.75000000  0.10835623
   0.03485717  0.75000000  0.39164377
   0.50580257  0.25000000  0.60515473
   0.00580257  0.25000000  0.89484527
   0.49419743  0.75000000  0.39484527
   0.99419743  0.75000000  0.10515473
   0.23613930  0.25000000  0.55748912
   0.73613930  0.25000000  0.94251088
   0.76386070  0.75000000  0.44251088
   0.26386070  0.75000000  0.05748912
   0.38479600  0.25000000  0.42551970
   0.88479600  0.25000000  0.07448030
   0.61520400  0.75000000  0.57448030
   0.11520400  0.75000000  0.92551970
   0.39499097  0.25000000  0.08829145
   0.89499097  0.25000000  0.41170855
   0.60500903  0.75000000  0.91170855
   0.10500903  0.75000000  0.58829145
   0.34663077  0.25000000  0.73413818
   0.84663077  0.25000000  0.76586182
   0.65336923  0.75000000  0.26586182
   0.15336923  0.75000000  0.23413818
