  28  28   0   0
  0.8578567E+01  0.6216190E-09  0.6216190E-09  0.6216190E-09  0.5000000E-15
  1.000000000000000E-004
  CAR 
 Al4C3 I-43d - r2SCAN H(P) scan @ 30 GPa 
     19.89016187     -6.68282059  301     12.18953300      1.00000000
     -6.683  0.0000E+00  0.0000E+00
     -6.594  0.0000E+00  0.0000E+00
     -6.506  0.0000E+00  0.0000E+00
     -6.417  0.0000E+00  0.0000E+00
     -6.329  0.0000E+00  0.0000E+00
     -6.240  0.0000E+00  0.0000E+00
     -6.151  0.0000E+00  0.0000E+00
     -6.063  0.0000E+00  0.0000E+00
     -5.974  0.0000E+00  0.0000E+00
     -5.886  0.0000E+00  0.0000E+00
     -5.797  0.0000E+00  0.0000E+00
     -5.708  0.1039E-13  0.9205E-15
     -5.620  0.1081E-07  0.9579E-09
     -5.531  0.2898E-04  0.2568E-05
     -5.443  0.4942E-03  0.4634E-04
     -5.354  0.2405E-02  0.2594E-03
     -5.266  0.4770E-02  0.6819E-03
     -5.177  0.4474E-02  0.1078E-02
     -5.088  0.3300E-02  0.1370E-02
     -5.000  0.5996E-02  0.1901E-02
     -4.911  0.1130E-01  0.2902E-02
     -4.823  0.9168E-02  0.3714E-02
     -4.734  0.1237E-02  0.3824E-02
     -4.646  0.6365E-02  0.4388E-02
     -4.557  0.1364E-01  0.5596E-02
     -4.468  0.1205E-01  0.6663E-02
     -4.380  0.1148E-01  0.7680E-02
     -4.291  0.5924E-02  0.8205E-02
     -4.203  0.9473E-02  0.9044E-02
     -4.114  0.1898E-01  0.1073E-01
     -4.026  0.1005E-01  0.1162E-01
     -3.937  0.1561E-02  0.1175E-01
     -3.848  0.1218E-01  0.1283E-01
     -3.760  0.2119E-01  0.1471E-01
     -3.671  0.1623E-01  0.1615E-01
     -3.583  0.1192E-01  0.1720E-01
     -3.494  0.1553E-01  0.1858E-01
     -3.405  0.2141E-01  0.2047E-01
     -3.317  0.9460E-02  0.2131E-01
     -3.228  0.3319E-02  0.2161E-01
     -3.140  0.1225E-01  0.2269E-01
     -3.051  0.1974E-01  0.2444E-01
     -2.963  0.3221E-01  0.2729E-01
     -2.874  0.1444E-01  0.2857E-01
     -2.785  0.1066E-01  0.2952E-01
     -2.697  0.3222E-01  0.3237E-01
     -2.608  0.1956E-01  0.3410E-01
     -2.520  0.3386E-02  0.3440E-01
     -2.431  0.1418E-01  0.3566E-01
     -2.343  0.2761E-01  0.3811E-01
     -2.254  0.2534E-01  0.4035E-01
     -2.165  0.2196E-01  0.4230E-01
     -2.077  0.1248E-01  0.4340E-01
     -1.988  0.3313E-01  0.4633E-01
     -1.900  0.1217E-01  0.4741E-01
     -1.811  0.1946E-01  0.4914E-01
     -1.723  0.5018E-01  0.5358E-01
     -1.634  0.2814E-01  0.5607E-01
     -1.545  0.2333E-01  0.5814E-01
     -1.457  0.2964E-01  0.6076E-01
     -1.368  0.2444E-01  0.6293E-01
     -1.280  0.4029E-01  0.6650E-01
     -1.191  0.2381E-01  0.6861E-01
     -1.102  0.4316E-01  0.7243E-01
     -1.014  0.7800E-01  0.7934E-01
     -0.925  0.1657E-01  0.8081E-01
     -0.837  0.1602E-01  0.8223E-01
     -0.748  0.1753E-01  0.8378E-01
     -0.660  0.1998E-01  0.8555E-01
     -0.571  0.1145E-01  0.8656E-01
     -0.482  0.1194E-02  0.8667E-01
     -0.394  0.5963E-02  0.8720E-01
     -0.305  0.1797E-01  0.8879E-01
     -0.217  0.1484E-01  0.9010E-01
     -0.128  0.5718E-01  0.9517E-01
     -0.040  0.2809E-01  0.9765E-01
      0.049  0.3120E-01  0.1004E+00
      0.138  0.4079E-01  0.1040E+00
      0.226  0.3396E-01  0.1070E+00
      0.315  0.6094E-01  0.1124E+00
      0.403  0.3506E-01  0.1155E+00
      0.492  0.2418E-02  0.1158E+00
      0.580  0.1122E-01  0.1168E+00
      0.669  0.1589E-01  0.1182E+00
      0.758  0.9249E-02  0.1190E+00
      0.846  0.9037E-02  0.1198E+00
      0.935  0.7631E-03  0.1198E+00
      1.023  0.1613E-02  0.1200E+00
      1.112  0.1297E-03  0.1200E+00
      1.200  0.5512E-07  0.1200E+00
      1.289  0.6075E-13  0.1200E+00
      1.378  0.0000E+00  0.1200E+00
      1.466  0.0000E+00  0.1200E+00
      1.555  0.0000E+00  0.1200E+00
      1.643  0.0000E+00  0.1200E+00
      1.732  0.0000E+00  0.1200E+00
      1.821  0.0000E+00  0.1200E+00
      1.909  0.0000E+00  0.1200E+00
      1.998  0.0000E+00  0.1200E+00
      2.086  0.0000E+00  0.1200E+00
      2.175  0.5193E-14  0.1200E+00
      2.263  0.2071E-07  0.1200E+00
      2.352  0.2001E-03  0.1200E+00
      2.441  0.8447E-02  0.1208E+00
      2.529  0.2181E-01  0.1227E+00
      2.618  0.2904E-01  0.1253E+00
      2.706  0.2914E-01  0.1279E+00
      2.795  0.4455E-01  0.1318E+00
      2.883  0.1572E-01  0.1332E+00
      2.972  0.2483E-01  0.1354E+00
      3.061  0.2516E-01  0.1376E+00
      3.149  0.4044E-01  0.1412E+00
      3.238  0.3840E-01  0.1446E+00
      3.326  0.3978E-01  0.1481E+00
      3.415  0.1486E-01  0.1494E+00
      3.503  0.2759E-01  0.1519E+00
      3.592  0.3829E-01  0.1553E+00
      3.681  0.3158E-01  0.1581E+00
      3.769  0.3426E-01  0.1611E+00
      3.858  0.1447E-01  0.1624E+00
      3.946  0.2220E-01  0.1644E+00
      4.035  0.5773E-02  0.1649E+00
      4.124  0.3148E-01  0.1677E+00
      4.212  0.6101E-01  0.1731E+00
      4.301  0.6562E-01  0.1789E+00
      4.389  0.4894E-01  0.1832E+00
      4.478  0.2344E-01  0.1853E+00
      4.566  0.1060E-01  0.1862E+00
      4.655  0.2523E-01  0.1885E+00
      4.744  0.4141E-01  0.1921E+00
      4.832  0.5897E-01  0.1973E+00
      4.921  0.5268E-01  0.2020E+00
      5.009  0.1490E-01  0.2033E+00
      5.098  0.4308E-01  0.2072E+00
      5.186  0.4772E-01  0.2114E+00
      5.275  0.4532E-01  0.2154E+00
      5.364  0.1345E-01  0.2166E+00
      5.452  0.3304E-01  0.2195E+00
      5.541  0.3107E-01  0.2223E+00
      5.629  0.1401E-01  0.2235E+00
      5.718  0.1812E-01  0.2251E+00
      5.806  0.3506E-01  0.2282E+00
      5.895  0.4853E-01  0.2325E+00
      5.984  0.4618E-01  0.2366E+00
      6.072  0.4921E-01  0.2410E+00
      6.161  0.3099E-01  0.2437E+00
      6.249  0.1552E-01  0.2451E+00
      6.338  0.2143E-01  0.2470E+00
      6.427  0.3473E-01  0.2501E+00
      6.515  0.5495E-01  0.2549E+00
      6.604  0.5366E-01  0.2597E+00
      6.692  0.3954E-01  0.2632E+00
      6.781  0.3327E-01  0.2661E+00
      6.869  0.5361E-01  0.2709E+00
      6.958  0.8111E-01  0.2781E+00
      7.047  0.4238E-01  0.2818E+00
      7.135  0.4586E-01  0.2859E+00
      7.224  0.2760E-01  0.2883E+00
      7.312  0.3103E-01  0.2911E+00
      7.401  0.4125E-01  0.2947E+00
      7.489  0.2308E-01  0.2968E+00
      7.578  0.3033E-01  0.2995E+00
      7.667  0.5204E-01  0.3041E+00
      7.755  0.4207E-01  0.3078E+00
      7.844  0.3643E-01  0.3110E+00
      7.932  0.3664E-01  0.3143E+00
      8.021  0.5572E-01  0.3192E+00
      8.109  0.2757E-01  0.3216E+00
      8.198  0.3631E-01  0.3249E+00
      8.287  0.2706E-01  0.3273E+00
      8.375  0.3717E-01  0.3305E+00
      8.464  0.1637E-01  0.3320E+00
      8.552  0.4360E-01  0.3359E+00
      8.641  0.4555E-01  0.3399E+00
      8.730  0.4605E-01  0.3440E+00
      8.818  0.7213E-01  0.3504E+00
      8.907  0.4146E-01  0.3540E+00
      8.995  0.3560E-01  0.3572E+00
      9.084  0.4353E-01  0.3610E+00
      9.172  0.3360E-01  0.3640E+00
      9.261  0.4586E-01  0.3681E+00
      9.350  0.6547E-01  0.3739E+00
      9.438  0.1632E-01  0.3753E+00
      9.527  0.2557E-01  0.3776E+00
      9.615  0.3076E-01  0.3803E+00
      9.704  0.7273E-01  0.3868E+00
      9.792  0.1058E+00  0.3961E+00
      9.881  0.6132E-01  0.4016E+00
      9.970  0.1603E-01  0.4030E+00
     10.058  0.4621E-01  0.4071E+00
     10.147  0.4887E-01  0.4114E+00
     10.235  0.5205E-01  0.4160E+00
     10.324  0.3317E-01  0.4189E+00
     10.412  0.3263E-01  0.4218E+00
     10.501  0.2995E-01  0.4245E+00
     10.590  0.4524E-01  0.4285E+00
     10.678  0.5162E-01  0.4331E+00
     10.767  0.4226E-01  0.4368E+00
     10.855  0.4350E-01  0.4407E+00
     10.944  0.3506E-01  0.4438E+00
     11.033  0.6201E-01  0.4493E+00
     11.121  0.1241E+00  0.4603E+00
     11.210  0.8670E-01  0.4679E+00
     11.298  0.5743E-01  0.4730E+00
     11.387  0.3191E-01  0.4758E+00
     11.475  0.1690E-01  0.4773E+00
     11.564  0.1295E-01  0.4785E+00
     11.653  0.6186E-02  0.4790E+00
     11.741  0.3086E-02  0.4793E+00
     11.830  0.4158E-02  0.4797E+00
     11.918  0.2608E-02  0.4799E+00
     12.007  0.9561E-03  0.4800E+00
     12.095  0.2143E-04  0.4800E+00
     12.184  0.1923E-08  0.4800E+00
     12.273  0.4157E-15  0.4800E+00
     12.361  0.0000E+00  0.4800E+00
     12.450  0.0000E+00  0.4800E+00
     12.538  0.0000E+00  0.4800E+00
     12.627  0.0000E+00  0.4800E+00
     12.715  0.0000E+00  0.4800E+00
     12.804  0.0000E+00  0.4800E+00
     12.893  0.0000E+00  0.4800E+00
     12.981  0.0000E+00  0.4800E+00
     13.070  0.0000E+00  0.4800E+00
     13.158  0.0000E+00  0.4800E+00
     13.247  0.0000E+00  0.4800E+00
     13.335  0.0000E+00  0.4800E+00
     13.424  0.0000E+00  0.4800E+00
     13.513  0.0000E+00  0.4800E+00
     13.601  0.0000E+00  0.4800E+00
     13.690  0.0000E+00  0.4800E+00
     13.778  0.2089E-17  0.4800E+00
     13.867  0.7119E-10  0.4800E+00
     13.956  0.5392E-05  0.4800E+00
     14.044  0.1272E-02  0.4801E+00
     14.133  0.2808E-02  0.4804E+00
     14.221  0.7059E-03  0.4804E+00
     14.310  0.9477E-02  0.4813E+00
     14.398  0.7655E-02  0.4819E+00
     14.487  0.2292E-01  0.4840E+00
     14.576  0.3437E-01  0.4870E+00
     14.664  0.4017E-01  0.4906E+00
     14.753  0.5437E-01  0.4954E+00
     14.841  0.3950E-01  0.4989E+00
     14.930  0.5380E-01  0.5037E+00
     15.018  0.5292E-01  0.5083E+00
     15.107  0.1895E-01  0.5100E+00
     15.196  0.1763E-01  0.5116E+00
     15.284  0.5309E-01  0.5163E+00
     15.373  0.4339E-01  0.5201E+00
     15.461  0.5590E-01  0.5251E+00
     15.550  0.3873E-01  0.5285E+00
     15.638  0.6311E-01  0.5341E+00
     15.727  0.4543E-01  0.5381E+00
     15.816  0.5524E-01  0.5430E+00
     15.904  0.4596E-01  0.5471E+00
     15.993  0.3842E-01  0.5505E+00
     16.081  0.3685E-01  0.5538E+00
     16.170  0.3808E-01  0.5571E+00
     16.259  0.3093E-01  0.5599E+00
     16.347  0.6422E-01  0.5656E+00
     16.436  0.5772E-01  0.5707E+00
     16.524  0.7359E-01  0.5772E+00
     16.613  0.5698E-01  0.5822E+00
     16.701  0.7974E-01  0.5893E+00
     16.790  0.6825E-01  0.5953E+00
     16.879  0.3778E-01  0.5987E+00
     16.967  0.5631E-01  0.6037E+00
     17.056  0.2907E-01  0.6062E+00
     17.144  0.3606E-01  0.6094E+00
     17.233  0.5894E-01  0.6147E+00
     17.321  0.6690E-01  0.6206E+00
     17.410  0.2997E-01  0.6232E+00
     17.499  0.2021E-01  0.6250E+00
     17.587  0.2783E-01  0.6275E+00
     17.676  0.3705E-01  0.6308E+00
     17.764  0.3110E-01  0.6335E+00
     17.853  0.4728E-01  0.6377E+00
     17.941  0.2915E-01  0.6403E+00
     18.030  0.2912E-01  0.6429E+00
     18.119  0.2786E-01  0.6454E+00
     18.207  0.5059E-01  0.6498E+00
     18.296  0.7081E-01  0.6561E+00
     18.384  0.3174E-01  0.6589E+00
     18.473  0.3175E-02  0.6592E+00
     18.562  0.4831E-02  0.6596E+00
     18.650  0.1635E-02  0.6598E+00
     18.739  0.2396E-02  0.6600E+00
     18.827  0.1738E-03  0.6600E+00
     18.916  0.6489E-07  0.6600E+00
     19.004  0.6235E-13  0.6600E+00
     19.093  0.0000E+00  0.6600E+00
     19.182  0.0000E+00  0.6600E+00
     19.270  0.0000E+00  0.6600E+00
     19.359  0.0000E+00  0.6600E+00
     19.447  0.0000E+00  0.6600E+00
     19.536  0.0000E+00  0.6600E+00
     19.624  0.0000E+00  0.6600E+00
     19.713  0.0000E+00  0.6600E+00
     19.802  0.0000E+00  0.6600E+00
     19.890  0.0000E+00  0.6600E+00
