  56  56   0   0
  0.8904722E+01  0.7929932E-09  0.7929932E-09  0.7929932E-09  0.5000000E-15
  1.000000000000000E-004
  CAR 
 Al4C3 Fd-3m - r2SCAN H(P) scan @ 70 GPa 
     19.16884215     -7.27139354  301     10.88974335      1.00000000
     -7.271  0.0000E+00  0.0000E+00
     -7.183  0.0000E+00  0.0000E+00
     -7.095  0.0000E+00  0.0000E+00
     -7.007  0.0000E+00  0.0000E+00
     -6.919  0.0000E+00  0.0000E+00
     -6.831  0.0000E+00  0.0000E+00
     -6.743  0.0000E+00  0.0000E+00
     -6.654  0.0000E+00  0.0000E+00
     -6.566  0.0000E+00  0.0000E+00
     -6.478  0.0000E+00  0.0000E+00
     -6.390  0.0000E+00  0.0000E+00
     -6.302  0.4402E-13  0.3880E-14
     -6.214  0.4007E-07  0.3531E-08
     -6.126  0.9983E-04  0.8802E-05
     -6.038  0.1415E-02  0.1335E-03
     -5.949  0.5535E-02  0.6213E-03
     -5.861  0.9407E-02  0.1450E-02
     -5.773  0.1686E-01  0.2937E-02
     -5.685  0.1186E-01  0.3982E-02
     -5.597  0.7639E-02  0.4655E-02
     -5.509  0.1584E-01  0.6051E-02
     -5.421  0.3665E-01  0.9281E-02
     -5.332  0.3485E-01  0.1235E-01
     -5.244  0.3797E-02  0.1269E-01
     -5.156  0.1658E-01  0.1415E-01
     -5.068  0.4288E-01  0.1793E-01
     -4.980  0.2485E-01  0.2012E-01
     -4.892  0.4962E-01  0.2449E-01
     -4.804  0.5191E-01  0.2907E-01
     -4.716  0.3875E-01  0.3248E-01
     -4.627  0.2618E-01  0.3479E-01
     -4.539  0.7002E-03  0.3485E-01
     -4.451  0.9024E-02  0.3565E-01
     -4.363  0.1221E-01  0.3672E-01
     -4.275  0.1903E-01  0.3840E-01
     -4.187  0.4853E-01  0.4268E-01
     -4.099  0.8383E-02  0.4342E-01
     -4.010  0.1845E-01  0.4504E-01
     -3.922  0.1584E-01  0.4644E-01
     -3.834  0.3479E-01  0.4950E-01
     -3.746  0.5450E-01  0.5431E-01
     -3.658  0.6987E-01  0.6046E-01
     -3.570  0.1219E-01  0.6154E-01
     -3.482  0.3537E-01  0.6466E-01
     -3.393  0.1032E-01  0.6557E-01
     -3.305  0.2588E-01  0.6785E-01
     -3.217  0.3501E-01  0.7093E-01
     -3.129  0.1819E-02  0.7109E-01
     -3.041  0.1023E-05  0.7109E-01
     -2.953  0.2600E-02  0.7132E-01
     -2.865  0.7066E-01  0.7755E-01
     -2.777  0.3636E-01  0.8076E-01
     -2.688  0.3642E-01  0.8396E-01
     -2.600  0.6275E-01  0.8950E-01
     -2.512  0.6363E-01  0.9510E-01
     -2.424  0.6375E-01  0.1007E+00
     -2.336  0.1288E-01  0.1019E+00
     -2.248  0.5580E-01  0.1068E+00
     -2.160  0.7197E-01  0.1131E+00
     -2.071  0.6485E-01  0.1188E+00
     -1.983  0.4784E-01  0.1230E+00
     -1.895  0.9067E-01  0.1310E+00
     -1.807  0.7765E-01  0.1379E+00
     -1.719  0.8228E-01  0.1451E+00
     -1.631  0.1324E+00  0.1568E+00
     -1.543  0.9503E-01  0.1652E+00
     -1.455  0.7386E-01  0.1717E+00
     -1.366  0.1205E-01  0.1727E+00
     -1.278  0.1126E+00  0.1827E+00
     -1.190  0.2067E+00  0.2009E+00
     -1.102  0.9628E-01  0.2094E+00
     -1.014  0.8294E-01  0.2167E+00
     -0.926  0.1294E+00  0.2281E+00
     -0.838  0.9751E-01  0.2367E+00
     -0.749  0.3556E-01  0.2398E+00
     -0.661  0.2030E-02  0.2400E+00
     -0.573  0.1768E-05  0.2400E+00
     -0.485  0.7053E-11  0.2400E+00
     -0.397  0.0000E+00  0.2400E+00
     -0.309  0.0000E+00  0.2400E+00
     -0.221  0.0000E+00  0.2400E+00
     -0.133  0.0000E+00  0.2400E+00
     -0.044  0.0000E+00  0.2400E+00
      0.044  0.0000E+00  0.2400E+00
      0.132  0.0000E+00  0.2400E+00
      0.220  0.0000E+00  0.2400E+00
      0.308  0.0000E+00  0.2400E+00
      0.396  0.0000E+00  0.2400E+00
      0.484  0.0000E+00  0.2400E+00
      0.573  0.0000E+00  0.2400E+00
      0.661  0.0000E+00  0.2400E+00
      0.749  0.0000E+00  0.2400E+00
      0.837  0.0000E+00  0.2400E+00
      0.925  0.0000E+00  0.2400E+00
      1.013  0.2912E-13  0.2400E+00
      1.101  0.3073E-07  0.2400E+00
      1.189  0.8812E-04  0.2400E+00
      1.278  0.1332E-02  0.2401E+00
      1.366  0.3520E-03  0.2402E+00
      1.454  0.7674E-06  0.2402E+00
      1.542  0.1736E-03  0.2402E+00
      1.630  0.6641E-02  0.2408E+00
      1.718  0.8860E-02  0.2415E+00
      1.806  0.1545E-01  0.2429E+00
      1.895  0.4567E-02  0.2433E+00
      1.983  0.9966E-02  0.2442E+00
      2.071  0.4365E-03  0.2442E+00
      2.159  0.8252E-03  0.2443E+00
      2.247  0.2754E-01  0.2467E+00
      2.335  0.3065E-01  0.2494E+00
      2.423  0.4892E-01  0.2537E+00
      2.511  0.3416E-01  0.2567E+00
      2.600  0.4240E-01  0.2605E+00
      2.688  0.8123E-01  0.2676E+00
      2.776  0.7042E-01  0.2738E+00
      2.864  0.1112E+00  0.2836E+00
      2.952  0.8305E-01  0.2910E+00
      3.040  0.7764E-01  0.2978E+00
      3.128  0.6074E-01  0.3032E+00
      3.217  0.3833E-01  0.3065E+00
      3.305  0.1357E+00  0.3185E+00
      3.393  0.1194E+00  0.3290E+00
      3.481  0.6502E-01  0.3348E+00
      3.569  0.9049E-01  0.3427E+00
      3.657  0.1284E+00  0.3540E+00
      3.745  0.9269E-01  0.3622E+00
      3.834  0.4495E-01  0.3662E+00
      3.922  0.1367E+00  0.3782E+00
      4.010  0.4364E-01  0.3821E+00
      4.098  0.4516E-01  0.3861E+00
      4.186  0.6887E-01  0.3921E+00
      4.274  0.3692E-01  0.3954E+00
      4.362  0.1083E+00  0.4049E+00
      4.450  0.9597E-01  0.4134E+00
      4.539  0.3241E-01  0.4162E+00
      4.627  0.6065E-01  0.4216E+00
      4.715  0.7952E-01  0.4286E+00
      4.803  0.6713E-01  0.4345E+00
      4.891  0.6646E-01  0.4404E+00
      4.979  0.5253E-01  0.4450E+00
      5.067  0.7125E-01  0.4513E+00
      5.156  0.6600E-01  0.4571E+00
      5.244  0.5443E-01  0.4619E+00
      5.332  0.4729E-01  0.4661E+00
      5.420  0.2707E-01  0.4684E+00
      5.508  0.7889E-01  0.4754E+00
      5.596  0.1455E+00  0.4882E+00
      5.684  0.5616E-01  0.4932E+00
      5.772  0.7676E-01  0.4999E+00
      5.861  0.1024E+00  0.5090E+00
      5.949  0.6157E-01  0.5144E+00
      6.037  0.7182E-01  0.5207E+00
      6.125  0.2502E-01  0.5229E+00
      6.213  0.3059E-01  0.5256E+00
      6.301  0.3468E-01  0.5287E+00
      6.389  0.6830E-01  0.5347E+00
      6.478  0.5641E-01  0.5397E+00
      6.566  0.9495E-01  0.5480E+00
      6.654  0.1305E+00  0.5595E+00
      6.742  0.1075E+00  0.5690E+00
      6.830  0.1520E+00  0.5824E+00
      6.918  0.1365E+00  0.5944E+00
      7.006  0.2254E-01  0.5964E+00
      7.094  0.3200E-01  0.5992E+00
      7.183  0.9751E-01  0.6078E+00
      7.271  0.6377E-01  0.6135E+00
      7.359  0.1270E+00  0.6246E+00
      7.447  0.1001E+00  0.6335E+00
      7.535  0.1384E+00  0.6457E+00
      7.623  0.1047E+00  0.6549E+00
      7.711  0.1171E+00  0.6652E+00
      7.800  0.1400E+00  0.6776E+00
      7.888  0.1520E+00  0.6909E+00
      7.976  0.1635E+00  0.7054E+00
      8.064  0.1815E+00  0.7214E+00
      8.152  0.1112E+00  0.7312E+00
      8.240  0.1185E+00  0.7416E+00
      8.328  0.1568E+00  0.7554E+00
      8.416  0.2246E+00  0.7752E+00
      8.505  0.1724E+00  0.7904E+00
      8.593  0.1048E+00  0.7996E+00
      8.681  0.1722E+00  0.8148E+00
      8.769  0.1968E+00  0.8322E+00
      8.857  0.2044E+00  0.8502E+00
      8.945  0.9678E-01  0.8587E+00
      9.033  0.1223E+00  0.8695E+00
      9.122  0.1152E+00  0.8796E+00
      9.210  0.2084E-01  0.8815E+00
      9.298  0.3149E-01  0.8842E+00
      9.386  0.6178E-01  0.8897E+00
      9.474  0.4571E-01  0.8937E+00
      9.562  0.5158E-01  0.8983E+00
      9.650  0.9494E-01  0.9066E+00
      9.738  0.9791E-01  0.9153E+00
      9.827  0.6421E-01  0.9209E+00
      9.915  0.5850E-01  0.9261E+00
     10.003  0.9419E-01  0.9344E+00
     10.091  0.1063E+00  0.9437E+00
     10.179  0.6292E-01  0.9493E+00
     10.267  0.2325E-01  0.9513E+00
     10.355  0.1914E-01  0.9530E+00
     10.444  0.3885E-01  0.9565E+00
     10.532  0.2698E-01  0.9588E+00
     10.620  0.9145E-02  0.9596E+00
     10.708  0.3929E-02  0.9600E+00
     10.796  0.2106E-03  0.9600E+00
     10.884  0.5733E-07  0.9600E+00
     10.972  0.4185E-13  0.9600E+00
     11.061  0.0000E+00  0.9600E+00
     11.149  0.0000E+00  0.9600E+00
     11.237  0.0000E+00  0.9600E+00
     11.325  0.0000E+00  0.9600E+00
     11.413  0.0000E+00  0.9600E+00
     11.501  0.0000E+00  0.9600E+00
     11.589  0.0000E+00  0.9600E+00
     11.677  0.0000E+00  0.9600E+00
     11.766  0.0000E+00  0.9600E+00
     11.854  0.0000E+00  0.9600E+00
     11.942  0.0000E+00  0.9600E+00
     12.030  0.0000E+00  0.9600E+00
     12.118  0.2730E-11  0.9600E+00
     12.206  0.5262E-06  0.9600E+00
     12.294  0.3065E-03  0.9600E+00
     12.383  0.1359E-02  0.9601E+00
     12.471  0.1071E-03  0.9602E+00
     12.559  0.4659E-07  0.9602E+00
     12.647  0.6636E-13  0.9602E+00
     12.735  0.2966E-07  0.9602E+00
     12.823  0.2152E-03  0.9602E+00
     12.911  0.6927E-02  0.9608E+00
     12.999  0.3478E-02  0.9611E+00
     13.088  0.1765E-04  0.9611E+00
     13.176  0.4889E-08  0.9611E+00
     13.264  0.1108E-03  0.9611E+00
     13.352  0.1025E-01  0.9620E+00
     13.440  0.1848E-01  0.9636E+00
     13.528  0.3055E-02  0.9639E+00
     13.616  0.7556E-03  0.9640E+00
     13.705  0.3508E-01  0.9671E+00
     13.793  0.3747E-01  0.9704E+00
     13.881  0.4463E-01  0.9743E+00
     13.969  0.1100E+00  0.9840E+00
     14.057  0.3647E-01  0.9872E+00
     14.145  0.6010E-01  0.9925E+00
     14.233  0.8731E-01  0.1000E+01
     14.321  0.4582E-01  0.1004E+01
     14.410  0.2007E-01  0.1006E+01
     14.498  0.3503E-01  0.1009E+01
     14.586  0.1177E+00  0.1019E+01
     14.674  0.1086E+00  0.1029E+01
     14.762  0.1696E-01  0.1031E+01
     14.850  0.1445E+00  0.1043E+01
     14.938  0.1170E+00  0.1054E+01
     15.027  0.4074E-01  0.1057E+01
     15.115  0.5039E-01  0.1062E+01
     15.203  0.1523E+00  0.1075E+01
     15.291  0.1648E+00  0.1090E+01
     15.379  0.1268E+00  0.1101E+01
     15.467  0.2748E-01  0.1103E+01
     15.555  0.2138E-01  0.1105E+01
     15.643  0.2068E-01  0.1107E+01
     15.732  0.7962E-01  0.1114E+01
     15.820  0.4016E-01  0.1117E+01
     15.908  0.2684E-01  0.1120E+01
     15.996  0.8507E-01  0.1127E+01
     16.084  0.5411E-01  0.1132E+01
     16.172  0.8487E-01  0.1140E+01
     16.260  0.6821E-01  0.1146E+01
     16.349  0.9361E-01  0.1154E+01
     16.437  0.1100E+00  0.1163E+01
     16.525  0.1152E+00  0.1174E+01
     16.613  0.1576E+00  0.1188E+01
     16.701  0.8614E-01  0.1195E+01
     16.789  0.1621E+00  0.1209E+01
     16.877  0.9616E-01  0.1218E+01
     16.965  0.7396E-01  0.1224E+01
     17.054  0.9685E-01  0.1233E+01
     17.142  0.1192E+00  0.1243E+01
     17.230  0.5876E-01  0.1249E+01
     17.318  0.5333E-01  0.1253E+01
     17.406  0.8364E-02  0.1254E+01
     17.494  0.2332E-02  0.1254E+01
     17.582  0.3577E-01  0.1257E+01
     17.671  0.2448E-01  0.1260E+01
     17.759  0.1334E-02  0.1260E+01
     17.847  0.1788E-05  0.1260E+01
     17.935  0.6454E-03  0.1260E+01
     18.023  0.2699E-02  0.1260E+01
     18.111  0.1996E-03  0.1260E+01
     18.199  0.8011E-07  0.1260E+01
     18.288  0.8800E-13  0.1260E+01
     18.376  0.0000E+00  0.1260E+01
     18.464  0.0000E+00  0.1260E+01
     18.552  0.0000E+00  0.1260E+01
     18.640  0.0000E+00  0.1260E+01
     18.728  0.0000E+00  0.1260E+01
     18.816  0.0000E+00  0.1260E+01
     18.904  0.0000E+00  0.1260E+01
     18.993  0.0000E+00  0.1260E+01
     19.081  0.0000E+00  0.1260E+01
     19.169  0.0000E+00  0.1260E+01
