Al4C3 Fd-3m - r2SCAN H(P) scan @ 70 GPa 
           1
     7.929932    0.000000    0.000000
     0.000000    7.929932    0.000000
     0.000000    0.000000    7.929932
   Al   C 
    32    24
Direct configuration=     1
   0.76020661  0.76020661  0.76020661
   0.23979339  0.23979339  0.23979339
   0.98979339  0.48979339  0.26020661
   0.01020661  0.51020661  0.73979339
   0.48979339  0.26020661  0.98979339
   0.51020661  0.73979339  0.01020661
   0.26020661  0.98979339  0.48979339
   0.73979339  0.01020661  0.51020661
   0.51020661  0.01020661  0.73979339
   0.48979339  0.98979339  0.26020661
   0.01020661  0.73979339  0.51020661
   0.98979339  0.26020661  0.48979339
   0.73979339  0.51020661  0.01020661
   0.26020661  0.48979339  0.98979339
   0.76020661  0.26020661  0.26020661
   0.23979339  0.73979339  0.73979339
   0.98979339  0.98979339  0.76020661
   0.01020661  0.01020661  0.23979339
   0.48979339  0.76020661  0.48979339
   0.51020661  0.23979339  0.51020661
   0.51020661  0.51020661  0.23979339
   0.48979339  0.48979339  0.76020661
   0.01020661  0.23979339  0.01020661
   0.98979339  0.76020661  0.98979339
   0.26020661  0.76020661  0.26020661
   0.73979339  0.23979339  0.73979339
   0.76020661  0.98979339  0.98979339
   0.23979339  0.01020661  0.01020661
   0.23979339  0.51020661  0.51020661
   0.76020661  0.48979339  0.48979339
   0.26020661  0.26020661  0.76020661
   0.73979339  0.73979339  0.23979339
   0.00000000  0.00000000  0.00000000
   0.75000000  0.25000000  0.50000000
   0.25000000  0.75000000  0.50000000
   0.25000000  0.50000000  0.75000000
   0.75000000  0.50000000  0.25000000
   0.50000000  0.75000000  0.25000000
   0.50000000  0.25000000  0.75000000
   0.00000000  0.50000000  0.50000000
   0.75000000  0.75000000  0.00000000
   0.25000000  0.25000000  0.00000000
   0.25000000  0.00000000  0.25000000
   0.75000000  0.00000000  0.75000000
   0.50000000  0.00000000  0.50000000
   0.00000000  0.75000000  0.75000000
   0.00000000  0.25000000  0.25000000
   0.50000000  0.50000000  0.00000000
   0.37500000  0.37500000  0.37500000
   0.62500000  0.62500000  0.62500000
   0.37500000  0.87500000  0.87500000
   0.62500000  0.12500000  0.12500000
   0.87500000  0.87500000  0.37500000
   0.12500000  0.12500000  0.62500000
   0.87500000  0.37500000  0.87500000
   0.12500000  0.62500000  0.12500000
Al4C3 Fd-3m - r2SCAN H(P) scan @ 70 GPa 
           1
     7.717241    0.000000    0.000000
     0.000000    7.717241    0.000000
     0.000000    0.000000    7.717241
   Al   C 
    32    24
Direct configuration=     2
   0.76021678  0.76021678  0.76021678
   0.23978322  0.23978322  0.23978322
   0.98978322  0.48978322  0.26021678
   0.01021678  0.51021678  0.73978322
   0.48978322  0.26021678  0.98978322
   0.51021678  0.73978322  0.01021678
   0.26021678  0.98978322  0.48978322
   0.73978322  0.01021678  0.51021678
   0.51021678  0.01021678  0.73978322
   0.48978322  0.98978322  0.26021678
   0.01021678  0.73978322  0.51021678
   0.98978322  0.26021678  0.48978322
   0.73978322  0.51021678  0.01021678
   0.26021678  0.48978322  0.98978322
   0.76021678  0.26021678  0.26021678
   0.23978322  0.73978322  0.73978322
   0.98978322  0.98978322  0.76021678
   0.01021678  0.01021678  0.23978322
   0.48978322  0.76021678  0.48978322
   0.51021678  0.23978322  0.51021678
   0.51021678  0.51021678  0.23978322
   0.48978322  0.48978322  0.76021678
   0.01021678  0.23978322  0.01021678
   0.98978322  0.76021678  0.98978322
   0.26021678  0.76021678  0.26021678
   0.73978322  0.23978322  0.73978322
   0.76021678  0.98978322  0.98978322
   0.23978322  0.01021678  0.01021678
   0.23978322  0.51021678  0.51021678
   0.76021678  0.48978322  0.48978322
   0.26021678  0.26021678  0.76021678
   0.73978322  0.73978322  0.23978322
   0.00000000  0.00000000  0.00000000
   0.75000000  0.25000000  0.50000000
   0.25000000  0.75000000  0.50000000
   0.25000000  0.50000000  0.75000000
   0.75000000  0.50000000  0.25000000
   0.50000000  0.75000000  0.25000000
   0.50000000  0.25000000  0.75000000
   0.00000000  0.50000000  0.50000000
   0.75000000  0.75000000  0.00000000
   0.25000000  0.25000000  0.00000000
   0.25000000  0.00000000  0.25000000
   0.75000000  0.00000000  0.75000000
   0.50000000  0.00000000  0.50000000
   0.00000000  0.75000000  0.75000000
   0.00000000  0.25000000  0.25000000
   0.50000000  0.50000000  0.00000000
   0.37500000  0.37500000  0.37500000
   0.62500000  0.62500000  0.62500000
   0.37500000  0.87500000  0.87500000
   0.62500000  0.12500000  0.12500000
   0.87500000  0.87500000  0.37500000
   0.12500000  0.12500000  0.62500000
   0.87500000  0.37500000  0.87500000
   0.12500000  0.62500000  0.12500000
Al4C3 Fd-3m - r2SCAN H(P) scan @ 70 GPa 
           1
     7.865181    0.000000    0.000000
     0.000000    7.865181    0.000000
     0.000000    0.000000    7.865181
   Al   C 
    32    24
Direct configuration=     3
   0.76020951  0.76020951  0.76020951
   0.23979049  0.23979049  0.23979049
   0.98979049  0.48979049  0.26020951
   0.01020951  0.51020951  0.73979049
   0.48979049  0.26020951  0.98979049
   0.51020951  0.73979049  0.01020951
   0.26020951  0.98979049  0.48979049
   0.73979049  0.01020951  0.51020951
   0.51020951  0.01020951  0.73979049
   0.48979049  0.98979049  0.26020951
   0.01020951  0.73979049  0.51020951
   0.98979049  0.26020951  0.48979049
   0.73979049  0.51020951  0.01020951
   0.26020951  0.48979049  0.98979049
   0.76020951  0.26020951  0.26020951
   0.23979049  0.73979049  0.73979049
   0.98979049  0.98979049  0.76020951
   0.01020951  0.01020951  0.23979049
   0.48979049  0.76020951  0.48979049
   0.51020951  0.23979049  0.51020951
   0.51020951  0.51020951  0.23979049
   0.48979049  0.48979049  0.76020951
   0.01020951  0.23979049  0.01020951
   0.98979049  0.76020951  0.98979049
   0.26020951  0.76020951  0.26020951
   0.73979049  0.23979049  0.73979049
   0.76020951  0.98979049  0.98979049
   0.23979049  0.01020951  0.01020951
   0.23979049  0.51020951  0.51020951
   0.76020951  0.48979049  0.48979049
   0.26020951  0.26020951  0.76020951
   0.73979049  0.73979049  0.23979049
   0.00000000  0.00000000  0.00000000
   0.75000000  0.25000000  0.50000000
   0.25000000  0.75000000  0.50000000
   0.25000000  0.50000000  0.75000000
   0.75000000  0.50000000  0.25000000
   0.50000000  0.75000000  0.25000000
   0.50000000  0.25000000  0.75000000
   0.00000000  0.50000000  0.50000000
   0.75000000  0.75000000  0.00000000
   0.25000000  0.25000000  0.00000000
   0.25000000  0.00000000  0.25000000
   0.75000000  0.00000000  0.75000000
   0.50000000  0.00000000  0.50000000
   0.00000000  0.75000000  0.75000000
   0.00000000  0.25000000  0.25000000
   0.50000000  0.50000000  0.00000000
   0.37500000  0.37500000  0.37500000
   0.62500000  0.62500000  0.62500000
   0.37500000  0.87500000  0.87500000
   0.62500000  0.12500000  0.12500000
   0.87500000  0.87500000  0.37500000
   0.12500000  0.12500000  0.62500000
   0.87500000  0.37500000  0.87500000
   0.12500000  0.62500000  0.12500000
Al4C3 Fd-3m - r2SCAN H(P) scan @ 70 GPa 
           1
     7.864272    0.000000    0.000000
     0.000000    7.864272    0.000000
     0.000000    0.000000    7.864272
   Al   C 
    32    24
Direct configuration=     4
   0.76020956  0.76020956  0.76020956
   0.23979044  0.23979044  0.23979044
   0.98979044  0.48979044  0.26020956
   0.01020956  0.51020956  0.73979044
   0.48979044  0.26020956  0.98979044
   0.51020956  0.73979044  0.01020956
   0.26020956  0.98979044  0.48979044
   0.73979044  0.01020956  0.51020956
   0.51020956  0.01020956  0.73979044
   0.48979044  0.98979044  0.26020956
   0.01020956  0.73979044  0.51020956
   0.98979044  0.26020956  0.48979044
   0.73979044  0.51020956  0.01020956
   0.26020956  0.48979044  0.98979044
   0.76020956  0.26020956  0.26020956
   0.23979044  0.73979044  0.73979044
   0.98979044  0.98979044  0.76020956
   0.01020956  0.01020956  0.23979044
   0.48979044  0.76020956  0.48979044
   0.51020956  0.23979044  0.51020956
   0.51020956  0.51020956  0.23979044
   0.48979044  0.48979044  0.76020956
   0.01020956  0.23979044  0.01020956
   0.98979044  0.76020956  0.98979044
   0.26020956  0.76020956  0.26020956
   0.73979044  0.23979044  0.73979044
   0.76020956  0.98979044  0.98979044
   0.23979044  0.01020956  0.01020956
   0.23979044  0.51020956  0.51020956
   0.76020956  0.48979044  0.48979044
   0.26020956  0.26020956  0.76020956
   0.73979044  0.73979044  0.23979044
   0.00000000  0.00000000  0.00000000
   0.75000000  0.25000000  0.50000000
   0.25000000  0.75000000  0.50000000
   0.25000000  0.50000000  0.75000000
   0.75000000  0.50000000  0.25000000
   0.50000000  0.75000000  0.25000000
   0.50000000  0.25000000  0.75000000
   0.00000000  0.50000000  0.50000000
   0.75000000  0.75000000  0.00000000
   0.25000000  0.25000000  0.00000000
   0.25000000  0.00000000  0.25000000
   0.75000000  0.00000000  0.75000000
   0.50000000  0.00000000  0.50000000
   0.00000000  0.75000000  0.75000000
   0.00000000  0.25000000  0.25000000
   0.50000000  0.50000000  0.00000000
   0.37500000  0.37500000  0.37500000
   0.62500000  0.62500000  0.62500000
   0.37500000  0.87500000  0.87500000
   0.62500000  0.12500000  0.12500000
   0.87500000  0.87500000  0.37500000
   0.12500000  0.12500000  0.62500000
   0.87500000  0.37500000  0.87500000
   0.12500000  0.62500000  0.12500000
Al4C3 Fd-3m - r2SCAN H(P) scan @ 70 GPa 
           1
     7.862823    0.000000    0.000000
     0.000000    7.862823    0.000000
     0.000000    0.000000    7.862823
   Al   C 
    32    24
Direct configuration=     5
   0.75986684  0.75986684  0.75986684
   0.24013316  0.24013316  0.24013316
   0.99013316  0.49013316  0.25986684
   0.00986684  0.50986684  0.74013316
   0.49013316  0.25986684  0.99013316
   0.50986684  0.74013316  0.00986684
   0.25986684  0.99013316  0.49013316
   0.74013316  0.00986684  0.50986684
   0.50986684  0.00986684  0.74013316
   0.49013316  0.99013316  0.25986684
   0.00986684  0.74013316  0.50986684
   0.99013316  0.25986684  0.49013316
   0.74013316  0.50986684  0.00986684
   0.25986684  0.49013316  0.99013316
   0.75986684  0.25986684  0.25986684
   0.24013316  0.74013316  0.74013316
   0.99013316  0.99013316  0.75986684
   0.00986684  0.00986684  0.24013316
   0.49013316  0.75986684  0.49013316
   0.50986684  0.24013316  0.50986684
   0.50986684  0.50986684  0.24013316
   0.49013316  0.49013316  0.75986684
   0.00986684  0.24013316  0.00986684
   0.99013316  0.75986684  0.99013316
   0.25986684  0.75986684  0.25986684
   0.74013316  0.24013316  0.74013316
   0.75986684  0.99013316  0.99013316
   0.24013316  0.00986684  0.00986684
   0.24013316  0.50986684  0.50986684
   0.75986684  0.49013316  0.49013316
   0.25986684  0.25986684  0.75986684
   0.74013316  0.74013316  0.24013316
   0.00000000 -0.00000000  0.00000000
   0.75000000  0.25000000  0.50000000
   0.25000000  0.75000000  0.50000000
   0.25000000  0.50000000  0.75000000
   0.75000000  0.50000000  0.25000000
   0.50000000  0.75000000  0.25000000
   0.50000000  0.25000000  0.75000000
   0.00000000  0.50000000  0.50000000
   0.75000000  0.75000000  0.00000000
   0.25000000  0.25000000  0.00000000
   0.25000000 -0.00000000  0.25000000
   0.75000000 -0.00000000  0.75000000
   0.50000000 -0.00000000  0.50000000
   0.00000000  0.75000000  0.75000000
   0.00000000  0.25000000  0.25000000
   0.50000000  0.50000000  0.00000000
   0.37500000  0.37500000  0.37500000
   0.62500000  0.62500000  0.62500000
   0.37500000  0.87500000  0.87500000
   0.62500000  0.12500000  0.12500000
   0.87500000  0.87500000  0.37500000
   0.12500000  0.12500000  0.62500000
   0.87500000  0.37500000  0.87500000
   0.12500000  0.62500000  0.12500000
Al4C3 Fd-3m - r2SCAN H(P) scan @ 70 GPa 
           1
     7.863659    0.000000    0.000000
     0.000000    7.863659    0.000000
     0.000000    0.000000    7.863659
   Al   C 
    32    24
Direct configuration=     6
   0.76006454  0.76006454  0.76006454
   0.23993546  0.23993546  0.23993546
   0.98993546  0.48993546  0.26006454
   0.01006454  0.51006454  0.73993546
   0.48993546  0.26006454  0.98993546
   0.51006454  0.73993546  0.01006454
   0.26006454  0.98993546  0.48993546
   0.73993546  0.01006454  0.51006454
   0.51006454  0.01006454  0.73993546
   0.48993546  0.98993546  0.26006454
   0.01006454  0.73993546  0.51006454
   0.98993546  0.26006454  0.48993546
   0.73993546  0.51006454  0.01006454
   0.26006454  0.48993546  0.98993546
   0.76006454  0.26006454  0.26006454
   0.23993546  0.73993546  0.73993546
   0.98993546  0.98993546  0.76006454
   0.01006454  0.01006454  0.23993546
   0.48993546  0.76006454  0.48993546
   0.51006454  0.23993546  0.51006454
   0.51006454  0.51006454  0.23993546
   0.48993546  0.48993546  0.76006454
   0.01006454  0.23993546  0.01006454
   0.98993546  0.76006454  0.98993546
   0.26006454  0.76006454  0.26006454
   0.73993546  0.23993546  0.73993546
   0.76006454  0.98993546  0.98993546
   0.23993546  0.01006454  0.01006454
   0.23993546  0.51006454  0.51006454
   0.76006454  0.48993546  0.48993546
   0.26006454  0.26006454  0.76006454
   0.73993546  0.73993546  0.23993546
   0.00000000 -0.00000000  0.00000000
   0.75000000  0.25000000  0.50000000
   0.25000000  0.75000000  0.50000000
   0.25000000  0.50000000  0.75000000
   0.75000000  0.50000000  0.25000000
   0.50000000  0.75000000  0.25000000
   0.50000000  0.25000000  0.75000000
   0.00000000  0.50000000  0.50000000
   0.75000000  0.75000000  0.00000000
   0.25000000  0.25000000  0.00000000
   0.25000000 -0.00000000  0.25000000
   0.75000000 -0.00000000  0.75000000
   0.50000000 -0.00000000  0.50000000
   0.00000000  0.75000000  0.75000000
   0.00000000  0.25000000  0.25000000
   0.50000000  0.50000000  0.00000000
   0.37500000  0.37500000  0.37500000
   0.62500000  0.62500000  0.62500000
   0.37500000  0.87500000  0.87500000
   0.62500000  0.12500000  0.12500000
   0.87500000  0.87500000  0.37500000
   0.12500000  0.12500000  0.62500000
   0.87500000  0.37500000  0.87500000
   0.12500000  0.62500000  0.12500000
