  14  14   0   0
  0.8609561E+01  0.8482350E-09  0.4897782E-09  0.2901305E-09  0.5000000E-15
  1.000000000000000E-004
  CAR 
 Al4C3 Pbam - H(P) scan @ 50 GPa (ISIF=8)
     21.12021364     -6.07195376  301     11.39876366      1.00000000
     -6.072  0.0000E+00  0.0000E+00
     -5.981  0.0000E+00  0.0000E+00
     -5.891  0.0000E+00  0.0000E+00
     -5.800  0.0000E+00  0.0000E+00
     -5.709  0.0000E+00  0.0000E+00
     -5.619  0.0000E+00  0.0000E+00
     -5.528  0.0000E+00  0.0000E+00
     -5.437  0.0000E+00  0.0000E+00
     -5.347  0.0000E+00  0.0000E+00
     -5.256  0.0000E+00  0.0000E+00
     -5.166  0.0000E+00  0.0000E+00
     -5.075  0.2491E-14  0.2258E-15
     -4.984  0.4884E-08  0.4427E-09
     -4.894  0.1841E-04  0.1669E-05
     -4.803  0.3059E-03  0.2940E-04
     -4.712  0.1362E-02  0.1529E-03
     -4.622  0.2426E-02  0.3728E-03
     -4.531  0.3131E-02  0.6566E-03
     -4.440  0.2581E-02  0.8905E-03
     -4.350  0.1952E-02  0.1067E-02
     -4.259  0.5662E-02  0.1581E-02
     -4.169  0.7108E-02  0.2225E-02
     -4.078  0.4265E-02  0.2611E-02
     -3.987  0.1317E-02  0.2731E-02
     -3.897  0.4362E-02  0.3126E-02
     -3.806  0.8919E-02  0.3935E-02
     -3.715  0.7283E-02  0.4595E-02
     -3.625  0.6023E-02  0.5141E-02
     -3.534  0.5648E-02  0.5653E-02
     -3.443  0.7576E-02  0.6339E-02
     -3.353  0.8193E-02  0.7082E-02
     -3.262  0.9552E-02  0.7948E-02
     -3.171  0.9575E-02  0.8816E-02
     -3.081  0.5217E-02  0.9288E-02
     -2.990  0.4251E-02  0.9674E-02
     -2.900  0.5662E-02  0.1019E-01
     -2.809  0.9407E-02  0.1104E-01
     -2.718  0.9879E-02  0.1194E-01
     -2.628  0.5369E-02  0.1242E-01
     -2.537  0.6387E-02  0.1300E-01
     -2.446  0.1351E-01  0.1422E-01
     -2.356  0.7207E-02  0.1488E-01
     -2.265  0.5421E-02  0.1537E-01
     -2.174  0.9806E-02  0.1626E-01
     -2.084  0.1751E-01  0.1784E-01
     -1.993  0.8882E-02  0.1865E-01
     -1.902  0.6612E-02  0.1925E-01
     -1.812  0.1071E-01  0.2022E-01
     -1.721  0.1732E-01  0.2179E-01
     -1.631  0.7881E-02  0.2250E-01
     -1.540  0.1479E-01  0.2385E-01
     -1.449  0.1229E-01  0.2496E-01
     -1.359  0.5864E-02  0.2549E-01
     -1.268  0.1630E-01  0.2697E-01
     -1.177  0.1800E-01  0.2860E-01
     -1.087  0.1053E-01  0.2955E-01
     -0.996  0.1190E-01  0.3063E-01
     -0.905  0.2127E-01  0.3256E-01
     -0.815  0.1674E-01  0.3408E-01
     -0.724  0.2121E-01  0.3600E-01
     -0.634  0.2455E-01  0.3823E-01
     -0.543  0.1953E-01  0.4000E-01
     -0.452  0.2961E-01  0.4268E-01
     -0.362  0.2186E-01  0.4466E-01
     -0.271  0.1586E-01  0.4610E-01
     -0.180  0.1382E-01  0.4735E-01
     -0.090  0.1677E-01  0.4887E-01
      0.001  0.1391E-01  0.5013E-01
      0.092  0.8185E-02  0.5087E-01
      0.182  0.6221E-02  0.5144E-01
      0.273  0.1267E-01  0.5259E-01
      0.364  0.1133E-01  0.5361E-01
      0.454  0.1119E-01  0.5463E-01
      0.545  0.8077E-02  0.5536E-01
      0.635  0.5016E-02  0.5581E-01
      0.726  0.5437E-02  0.5631E-01
      0.817  0.8824E-02  0.5711E-01
      0.907  0.7444E-02  0.5778E-01
      0.998  0.1675E-02  0.5793E-01
      1.089  0.1580E-02  0.5808E-01
      1.179  0.2768E-02  0.5833E-01
      1.270  0.5414E-02  0.5882E-01
      1.361  0.2070E-02  0.5901E-01
      1.451  0.3313E-02  0.5931E-01
      1.542  0.5221E-03  0.5935E-01
      1.632  0.1747E-02  0.5951E-01
      1.723  0.1838E-02  0.5968E-01
      1.814  0.1197E-02  0.5979E-01
      1.904  0.1416E-02  0.5992E-01
      1.995  0.2600E-03  0.5994E-01
      2.086  0.5613E-03  0.5999E-01
      2.176  0.1133E-03  0.6000E-01
      2.267  0.1896E-03  0.6002E-01
      2.358  0.1777E-02  0.6018E-01
      2.448  0.2725E-02  0.6043E-01
      2.539  0.2997E-02  0.6070E-01
      2.630  0.3510E-02  0.6102E-01
      2.720  0.7696E-02  0.6171E-01
      2.811  0.1085E-01  0.6270E-01
      2.901  0.1312E-01  0.6389E-01
      2.992  0.1150E-01  0.6493E-01
      3.083  0.1391E-01  0.6619E-01
      3.173  0.1764E-01  0.6779E-01
      3.264  0.2700E-01  0.7023E-01
      3.355  0.1975E-01  0.7203E-01
      3.445  0.2004E-01  0.7384E-01
      3.536  0.2071E-01  0.7572E-01
      3.627  0.1960E-01  0.7750E-01
      3.717  0.1997E-01  0.7931E-01
      3.808  0.1769E-01  0.8091E-01
      3.899  0.1585E-01  0.8235E-01
      3.989  0.1363E-01  0.8358E-01
      4.080  0.1593E-01  0.8502E-01
      4.170  0.1780E-01  0.8664E-01
      4.261  0.1326E-01  0.8784E-01
      4.352  0.2368E-01  0.8999E-01
      4.442  0.1836E-01  0.9165E-01
      4.533  0.1985E-01  0.9345E-01
      4.624  0.2027E-01  0.9529E-01
      4.714  0.1670E-01  0.9680E-01
      4.805  0.1569E-01  0.9822E-01
      4.896  0.2217E-01  0.1002E+00
      4.986  0.1957E-01  0.1020E+00
      5.077  0.1762E-01  0.1036E+00
      5.167  0.1549E-01  0.1050E+00
      5.258  0.1530E-01  0.1064E+00
      5.349  0.1693E-01  0.1079E+00
      5.439  0.1252E-01  0.1091E+00
      5.530  0.2060E-01  0.1109E+00
      5.621  0.2031E-01  0.1128E+00
      5.711  0.2396E-01  0.1149E+00
      5.802  0.2425E-01  0.1171E+00
      5.893  0.2410E-01  0.1193E+00
      5.983  0.2391E-01  0.1215E+00
      6.074  0.1345E-01  0.1227E+00
      6.165  0.1029E-01  0.1236E+00
      6.255  0.1307E-01  0.1248E+00
      6.346  0.2344E-01  0.1270E+00
      6.436  0.3550E-01  0.1302E+00
      6.527  0.2673E-01  0.1326E+00
      6.618  0.2234E-01  0.1346E+00
      6.708  0.1556E-01  0.1360E+00
      6.799  0.1733E-01  0.1376E+00
      6.890  0.1935E-01  0.1394E+00
      6.980  0.2150E-01  0.1413E+00
      7.071  0.2610E-01  0.1437E+00
      7.162  0.3115E-01  0.1465E+00
      7.252  0.2480E-01  0.1487E+00
      7.343  0.2332E-01  0.1509E+00
      7.433  0.1277E-01  0.1520E+00
      7.524  0.1563E-01  0.1534E+00
      7.615  0.1901E-01  0.1552E+00
      7.705  0.2260E-01  0.1572E+00
      7.796  0.2599E-01  0.1596E+00
      7.887  0.2045E-01  0.1614E+00
      7.977  0.2937E-01  0.1641E+00
      8.068  0.3055E-01  0.1668E+00
      8.159  0.2358E-01  0.1690E+00
      8.249  0.2131E-01  0.1709E+00
      8.340  0.1799E-01  0.1725E+00
      8.431  0.1964E-01  0.1743E+00
      8.521  0.2512E-01  0.1766E+00
      8.612  0.2277E-01  0.1787E+00
      8.702  0.2881E-01  0.1813E+00
      8.793  0.1564E-01  0.1827E+00
      8.884  0.2702E-01  0.1851E+00
      8.974  0.2636E-01  0.1875E+00
      9.065  0.3015E-01  0.1903E+00
      9.156  0.3018E-01  0.1930E+00
      9.246  0.2929E-01  0.1957E+00
      9.337  0.2994E-01  0.1984E+00
      9.428  0.2499E-01  0.2006E+00
      9.518  0.2029E-01  0.2025E+00
      9.609  0.2849E-01  0.2051E+00
      9.700  0.3273E-01  0.2080E+00
      9.790  0.2329E-01  0.2101E+00
      9.881  0.2030E-01  0.2120E+00
      9.971  0.2321E-01  0.2141E+00
     10.062  0.1860E-01  0.2158E+00
     10.153  0.3528E-01  0.2190E+00
     10.243  0.3534E-01  0.2222E+00
     10.334  0.2866E-01  0.2248E+00
     10.425  0.2516E-01  0.2270E+00
     10.515  0.3253E-01  0.2300E+00
     10.606  0.2352E-01  0.2321E+00
     10.697  0.2209E-01  0.2341E+00
     10.787  0.1743E-01  0.2357E+00
     10.878  0.1397E-01  0.2370E+00
     10.968  0.6868E-02  0.2376E+00
     11.059  0.7213E-02  0.2382E+00
     11.150  0.8067E-02  0.2390E+00
     11.240  0.5390E-02  0.2395E+00
     11.331  0.3925E-02  0.2398E+00
     11.422  0.2325E-02  0.2400E+00
     11.512  0.3045E-02  0.2403E+00
     11.603  0.3022E-02  0.2406E+00
     11.694  0.1303E-02  0.2407E+00
     11.784  0.7850E-03  0.2408E+00
     11.875  0.1008E-03  0.2408E+00
     11.966  0.5611E-04  0.2408E+00
     12.056  0.3399E-02  0.2411E+00
     12.147  0.4112E-02  0.2415E+00
     12.237  0.5384E-03  0.2415E+00
     12.328  0.4289E-02  0.2419E+00
     12.419  0.2977E-02  0.2422E+00
     12.509  0.2148E-02  0.2424E+00
     12.600  0.1106E-02  0.2425E+00
     12.691  0.2084E-02  0.2427E+00
     12.781  0.7521E-02  0.2433E+00
     12.872  0.6208E-02  0.2439E+00
     12.963  0.7932E-03  0.2440E+00
     13.053  0.6972E-03  0.2440E+00
     13.144  0.2894E-02  0.2443E+00
     13.234  0.4459E-02  0.2447E+00
     13.325  0.6346E-02  0.2453E+00
     13.416  0.1209E-01  0.2464E+00
     13.506  0.5813E-02  0.2469E+00
     13.597  0.3134E-02  0.2472E+00
     13.688  0.7223E-02  0.2478E+00
     13.778  0.1080E-01  0.2488E+00
     13.869  0.1059E-01  0.2498E+00
     13.960  0.1352E-01  0.2510E+00
     14.050  0.9318E-02  0.2518E+00
     14.141  0.1371E-01  0.2531E+00
     14.232  0.1705E-01  0.2546E+00
     14.322  0.1936E-01  0.2564E+00
     14.413  0.1344E-01  0.2576E+00
     14.503  0.1278E-01  0.2588E+00
     14.594  0.1631E-01  0.2602E+00
     14.685  0.1952E-01  0.2620E+00
     14.775  0.1190E-01  0.2631E+00
     14.866  0.1271E-01  0.2642E+00
     14.957  0.1917E-01  0.2660E+00
     15.047  0.2510E-01  0.2683E+00
     15.138  0.2002E-01  0.2701E+00
     15.229  0.2284E-01  0.2721E+00
     15.319  0.1536E-01  0.2735E+00
     15.410  0.1574E-01  0.2750E+00
     15.500  0.1618E-01  0.2764E+00
     15.591  0.1959E-01  0.2782E+00
     15.682  0.1043E-01  0.2792E+00
     15.772  0.1073E-01  0.2801E+00
     15.863  0.1423E-01  0.2814E+00
     15.954  0.1549E-01  0.2828E+00
     16.044  0.1736E-01  0.2844E+00
     16.135  0.1858E-01  0.2861E+00
     16.226  0.1638E-01  0.2876E+00
     16.316  0.1025E-01  0.2885E+00
     16.407  0.2068E-01  0.2904E+00
     16.498  0.2242E-01  0.2924E+00
     16.588  0.2003E-01  0.2942E+00
     16.679  0.2259E-01  0.2963E+00
     16.769  0.2576E-01  0.2986E+00
     16.860  0.3069E-01  0.3014E+00
     16.951  0.2292E-01  0.3035E+00
     17.041  0.2322E-01  0.3056E+00
     17.132  0.2488E-01  0.3078E+00
     17.223  0.2766E-01  0.3103E+00
     17.313  0.1958E-01  0.3121E+00
     17.404  0.2088E-01  0.3140E+00
     17.495  0.2667E-01  0.3164E+00
     17.585  0.2145E-01  0.3183E+00
     17.676  0.2965E-01  0.3210E+00
     17.767  0.2746E-01  0.3235E+00
     17.857  0.2689E-01  0.3260E+00
     17.948  0.2401E-01  0.3281E+00
     18.038  0.2697E-01  0.3306E+00
     18.129  0.2453E-01  0.3328E+00
     18.220  0.2516E-01  0.3351E+00
     18.310  0.2482E-01  0.3373E+00
     18.401  0.2448E-01  0.3396E+00
     18.492  0.2691E-01  0.3420E+00
     18.582  0.1976E-01  0.3438E+00
     18.673  0.1813E-01  0.3454E+00
     18.764  0.1767E-01  0.3470E+00
     18.854  0.1992E-01  0.3488E+00
     18.945  0.2540E-01  0.3511E+00
     19.035  0.2325E-01  0.3532E+00
     19.126  0.2107E-01  0.3552E+00
     19.217  0.1760E-01  0.3567E+00
     19.307  0.4755E-02  0.3572E+00
     19.398  0.8870E-02  0.3580E+00
     19.489  0.1266E-01  0.3591E+00
     19.579  0.4902E-02  0.3596E+00
     19.670  0.2165E-02  0.3598E+00
     19.761  0.3592E-03  0.3598E+00
     19.851  0.4724E-03  0.3598E+00
     19.942  0.1590E-02  0.3600E+00
     20.033  0.8780E-04  0.3600E+00
     20.123  0.2090E-07  0.3600E+00
     20.214  0.1020E-13  0.3600E+00
     20.304  0.0000E+00  0.3600E+00
     20.395  0.0000E+00  0.3600E+00
     20.486  0.0000E+00  0.3600E+00
     20.576  0.0000E+00  0.3600E+00
     20.667  0.0000E+00  0.3600E+00
     20.758  0.0000E+00  0.3600E+00
     20.848  0.0000E+00  0.3600E+00
     20.939  0.0000E+00  0.3600E+00
     21.030  0.0000E+00  0.3600E+00
     21.120  0.0000E+00  0.3600E+00
