Al4C3 Pnma (CIF findsym, P21/n21/m21/a) 
   1.00000000000000     
     8.6772289093245352    0.0000000000000000    0.0000000000000000
     0.0000000000000000    2.9813819399303720    0.0000000000000000
     0.0000000000000000    0.0000000000000000    9.1473928131512121
   Al   C 
    16    12
Direct
  0.2694623760899815  0.2500000000000000  0.2662520509942884
  0.7694623760899887  0.2500000000000000  0.2337479490057115
  0.7305376239100113  0.7500000000000000  0.7337479490057113
  0.2305376239100184  0.7500000000000000  0.7662520509942887
  0.4646765583501771  0.2500000000000000  0.8918465602184097
  0.9646765583501771  0.2500000000000000  0.6081534397815903
  0.5353234416498229  0.7500000000000000  0.1081534397815902
  0.0353234416498229  0.7500000000000000  0.3918465602184100
  0.5053813562644939  0.2500000000000000  0.6054695646466660
  0.0053813562644937  0.2500000000000000  0.8945304353533340
  0.4946186437355063  0.7500000000000000  0.3945304353533339
  0.9946186437355061  0.7500000000000000  0.1054695646466661
  0.2353901380539321  0.2500000000000000  0.5572218139383016
  0.7353901380539322  0.2500000000000000  0.9427781860616984
  0.7646098619460678  0.7500000000000000  0.4427781860616985
  0.2646098619460679  0.7500000000000000  0.0572218139383015
  0.3847906932246748  0.2500000000000000  0.4258525116582101
  0.8847906932246751  0.2500000000000000  0.0741474883417900
  0.6152093067753249  0.7500000000000000  0.5741474883417901
  0.1152093067753252  0.7500000000000000  0.9258525116582099
  0.3956680978978829  0.2500000000000000  0.0890400943309928
  0.8956680978978832  0.2500000000000000  0.4109599056690073
  0.6043319021021168  0.7500000000000000  0.9109599056690072
  0.1043319021021170  0.7500000000000000  0.5890400943309928
  0.3461551905108253  0.2500000000000000  0.7342884818533998
  0.8461551905108252  0.2500000000000000  0.7657115181466002
  0.6538448094891748  0.7500000000000000  0.2657115181466002
  0.1538448094891747  0.7500000000000000  0.2342884818533998
 
  0.00000000E+00  0.00000000E+00  0.00000000E+00
  0.00000000E+00  0.00000000E+00  0.00000000E+00
  0.00000000E+00  0.00000000E+00  0.00000000E+00
  0.00000000E+00  0.00000000E+00  0.00000000E+00
  0.00000000E+00  0.00000000E+00  0.00000000E+00
  0.00000000E+00  0.00000000E+00  0.00000000E+00
  0.00000000E+00  0.00000000E+00  0.00000000E+00
  0.00000000E+00  0.00000000E+00  0.00000000E+00
  0.00000000E+00  0.00000000E+00  0.00000000E+00
  0.00000000E+00  0.00000000E+00  0.00000000E+00
  0.00000000E+00  0.00000000E+00  0.00000000E+00
  0.00000000E+00  0.00000000E+00  0.00000000E+00
  0.00000000E+00  0.00000000E+00  0.00000000E+00
  0.00000000E+00  0.00000000E+00  0.00000000E+00
  0.00000000E+00  0.00000000E+00  0.00000000E+00
  0.00000000E+00  0.00000000E+00  0.00000000E+00
  0.00000000E+00  0.00000000E+00  0.00000000E+00
  0.00000000E+00  0.00000000E+00  0.00000000E+00
  0.00000000E+00  0.00000000E+00  0.00000000E+00
  0.00000000E+00  0.00000000E+00  0.00000000E+00
  0.00000000E+00  0.00000000E+00  0.00000000E+00
  0.00000000E+00  0.00000000E+00  0.00000000E+00
  0.00000000E+00  0.00000000E+00  0.00000000E+00
  0.00000000E+00  0.00000000E+00  0.00000000E+00
  0.00000000E+00  0.00000000E+00  0.00000000E+00
  0.00000000E+00  0.00000000E+00  0.00000000E+00
  0.00000000E+00  0.00000000E+00  0.00000000E+00
  0.00000000E+00  0.00000000E+00  0.00000000E+00
