  28  28   0   0
  0.8495105E+01  0.8692099E-09  0.2986491E-09  0.9163068E-09  0.5000000E-15
  1.000000000000000E-004
  CAR 
 Al4C3 Pnma-VII - r2SCAN H(P) scan @ 90 G
     20.94179652     -7.21291176  301     10.91168170      1.00000000
     -7.213  0.0000E+00  0.0000E+00
     -7.119  0.0000E+00  0.0000E+00
     -7.025  0.0000E+00  0.0000E+00
     -6.931  0.0000E+00  0.0000E+00
     -6.838  0.0000E+00  0.0000E+00
     -6.744  0.0000E+00  0.0000E+00
     -6.650  0.0000E+00  0.0000E+00
     -6.556  0.0000E+00  0.0000E+00
     -6.462  0.0000E+00  0.0000E+00
     -6.368  0.0000E+00  0.0000E+00
     -6.274  0.0000E+00  0.0000E+00
     -6.181  0.7854E-15  0.7371E-16
     -6.087  0.4242E-08  0.3981E-09
     -5.993  0.2763E-04  0.2594E-05
     -5.899  0.6268E-03  0.6142E-04
     -5.805  0.2978E-02  0.3409E-03
     -5.711  0.5899E-02  0.8945E-03
     -5.617  0.5933E-02  0.1451E-02
     -5.524  0.5666E-02  0.1983E-02
     -5.430  0.9929E-02  0.2915E-02
     -5.336  0.1375E-01  0.4205E-02
     -5.242  0.1019E-01  0.5162E-02
     -5.148  0.7628E-02  0.5878E-02
     -5.054  0.1294E-01  0.7092E-02
     -4.961  0.7907E-02  0.7834E-02
     -4.867  0.4091E-02  0.8218E-02
     -4.773  0.1107E-01  0.9256E-02
     -4.679  0.1206E-01  0.1039E-01
     -4.585  0.8672E-02  0.1120E-01
     -4.491  0.1833E-01  0.1292E-01
     -4.397  0.1557E-01  0.1438E-01
     -4.304  0.7538E-02  0.1509E-01
     -4.210  0.1912E-01  0.1689E-01
     -4.116  0.2115E-01  0.1887E-01
     -4.022  0.1345E-01  0.2013E-01
     -3.928  0.1031E-01  0.2110E-01
     -3.834  0.1144E-01  0.2217E-01
     -3.740  0.1698E-01  0.2377E-01
     -3.647  0.2527E-01  0.2614E-01
     -3.553  0.1488E-01  0.2753E-01
     -3.459  0.1568E-01  0.2901E-01
     -3.365  0.1654E-01  0.3056E-01
     -3.271  0.1900E-01  0.3234E-01
     -3.177  0.1994E-01  0.3421E-01
     -3.084  0.2067E-01  0.3615E-01
     -2.990  0.1969E-01  0.3800E-01
     -2.896  0.2147E-01  0.4002E-01
     -2.802  0.3147E-01  0.4297E-01
     -2.708  0.2162E-01  0.4500E-01
     -2.614  0.2551E-01  0.4739E-01
     -2.520  0.2201E-01  0.4946E-01
     -2.427  0.2120E-01  0.5145E-01
     -2.333  0.2513E-01  0.5381E-01
     -2.239  0.1962E-01  0.5565E-01
     -2.145  0.2676E-01  0.5816E-01
     -2.051  0.5029E-01  0.6288E-01
     -1.957  0.3653E-01  0.6631E-01
     -1.864  0.3806E-01  0.6988E-01
     -1.770  0.3416E-01  0.7308E-01
     -1.676  0.3091E-01  0.7598E-01
     -1.582  0.4459E-01  0.8017E-01
     -1.488  0.4139E-01  0.8405E-01
     -1.394  0.2874E-01  0.8675E-01
     -1.300  0.2572E-01  0.8916E-01
     -1.207  0.2846E-01  0.9183E-01
     -1.113  0.2899E-01  0.9456E-01
     -1.019  0.3060E-01  0.9743E-01
     -0.925  0.4421E-01  0.1016E+00
     -0.831  0.4360E-01  0.1057E+00
     -0.737  0.3729E-01  0.1092E+00
     -0.643  0.4434E-01  0.1133E+00
     -0.550  0.5090E-01  0.1181E+00
     -0.456  0.1979E-01  0.1200E+00
     -0.362  0.3949E-03  0.1200E+00
     -0.268  0.4329E-07  0.1200E+00
     -0.174  0.7731E-14  0.1200E+00
     -0.080  0.0000E+00  0.1200E+00
      0.013  0.0000E+00  0.1200E+00
      0.107  0.0000E+00  0.1200E+00
      0.201  0.0000E+00  0.1200E+00
      0.295  0.0000E+00  0.1200E+00
      0.389  0.0000E+00  0.1200E+00
      0.483  0.0000E+00  0.1200E+00
      0.577  0.0000E+00  0.1200E+00
      0.670  0.0000E+00  0.1200E+00
      0.764  0.0000E+00  0.1200E+00
      0.858  0.0000E+00  0.1200E+00
      0.952  0.0000E+00  0.1200E+00
      1.046  0.0000E+00  0.1200E+00
      1.140  0.0000E+00  0.1200E+00
      1.234  0.0000E+00  0.1200E+00
      1.327  0.2280E-12  0.1200E+00
      1.421  0.1862E-06  0.1200E+00
      1.515  0.2145E-03  0.1200E+00
      1.609  0.2777E-02  0.1203E+00
      1.703  0.6866E-02  0.1209E+00
      1.797  0.7759E-02  0.1217E+00
      1.890  0.6555E-02  0.1223E+00
      1.984  0.1076E-01  0.1233E+00
      2.078  0.1948E-01  0.1251E+00
      2.172  0.1553E-01  0.1266E+00
      2.266  0.2115E-01  0.1285E+00
      2.360  0.2589E-01  0.1310E+00
      2.454  0.2787E-01  0.1336E+00
      2.547  0.1902E-01  0.1354E+00
      2.641  0.1687E-01  0.1370E+00
      2.735  0.1537E-01  0.1384E+00
      2.829  0.1351E-01  0.1397E+00
      2.923  0.2273E-01  0.1418E+00
      3.017  0.3321E-01  0.1449E+00
      3.110  0.2700E-01  0.1475E+00
      3.204  0.2220E-01  0.1495E+00
      3.298  0.2258E-01  0.1517E+00
      3.392  0.2365E-01  0.1539E+00
      3.486  0.1945E-01  0.1557E+00
      3.580  0.2774E-01  0.1583E+00
      3.674  0.3433E-01  0.1615E+00
      3.767  0.5054E-01  0.1663E+00
      3.861  0.5695E-01  0.1716E+00
      3.955  0.5338E-01  0.1766E+00
      4.049  0.4628E-01  0.1810E+00
      4.143  0.3217E-01  0.1840E+00
      4.237  0.4309E-01  0.1880E+00
      4.331  0.5175E-01  0.1929E+00
      4.424  0.3478E-01  0.1962E+00
      4.518  0.4142E-01  0.2000E+00
      4.612  0.3166E-01  0.2030E+00
      4.706  0.4076E-01  0.2068E+00
      4.800  0.3449E-01  0.2101E+00
      4.894  0.3057E-01  0.2129E+00
      4.987  0.3802E-01  0.2165E+00
      5.081  0.3079E-01  0.2194E+00
      5.175  0.2905E-01  0.2221E+00
      5.269  0.2972E-01  0.2249E+00
      5.363  0.3542E-01  0.2282E+00
      5.457  0.4668E-01  0.2326E+00
      5.551  0.3484E-01  0.2359E+00
      5.644  0.2883E-01  0.2386E+00
      5.738  0.3669E-01  0.2420E+00
      5.832  0.3289E-01  0.2451E+00
      5.926  0.4236E-01  0.2491E+00
      6.020  0.4720E-01  0.2535E+00
      6.114  0.4249E-01  0.2575E+00
      6.207  0.3694E-01  0.2610E+00
      6.301  0.4177E-01  0.2649E+00
      6.395  0.5522E-01  0.2701E+00
      6.489  0.4703E-01  0.2745E+00
      6.583  0.3992E-01  0.2782E+00
      6.677  0.4107E-01  0.2821E+00
      6.771  0.3558E-01  0.2854E+00
      6.864  0.5244E-01  0.2904E+00
      6.958  0.3520E-01  0.2937E+00
      7.052  0.3786E-01  0.2972E+00
      7.146  0.5039E-01  0.3019E+00
      7.240  0.5453E-01  0.3071E+00
      7.334  0.5311E-01  0.3120E+00
      7.428  0.5261E-01  0.3170E+00
      7.521  0.5255E-01  0.3219E+00
      7.615  0.5020E-01  0.3266E+00
      7.709  0.5030E-01  0.3313E+00
      7.803  0.6668E-01  0.3376E+00
      7.897  0.7011E-01  0.3442E+00
      7.991  0.4717E-01  0.3486E+00
      8.084  0.5091E-01  0.3534E+00
      8.178  0.5610E-01  0.3587E+00
      8.272  0.5936E-01  0.3642E+00
      8.366  0.7777E-01  0.3715E+00
      8.460  0.7008E-01  0.3781E+00
      8.554  0.6097E-01  0.3838E+00
      8.648  0.6255E-01  0.3897E+00
      8.741  0.7396E-01  0.3966E+00
      8.835  0.5663E-01  0.4020E+00
      8.929  0.4636E-01  0.4063E+00
      9.023  0.5120E-01  0.4111E+00
      9.117  0.5525E-01  0.4163E+00
      9.211  0.8557E-01  0.4243E+00
      9.305  0.6324E-01  0.4303E+00
      9.398  0.5813E-01  0.4357E+00
      9.492  0.5985E-01  0.4413E+00
      9.586  0.3759E-01  0.4449E+00
      9.680  0.4573E-01  0.4492E+00
      9.774  0.6057E-01  0.4548E+00
      9.868  0.5725E-01  0.4602E+00
      9.961  0.4547E-01  0.4645E+00
     10.055  0.3009E-01  0.4673E+00
     10.149  0.2633E-01  0.4698E+00
     10.243  0.3345E-01  0.4729E+00
     10.337  0.3892E-01  0.4766E+00
     10.431  0.1623E-01  0.4781E+00
     10.525  0.9048E-03  0.4782E+00
     10.618  0.6624E-02  0.4788E+00
     10.712  0.1174E-01  0.4799E+00
     10.806  0.1102E-02  0.4800E+00
     10.900  0.1055E-05  0.4800E+00
     10.994  0.1984E-11  0.4800E+00
     11.088  0.0000E+00  0.4800E+00
     11.181  0.1323E-11  0.4800E+00
     11.275  0.7671E-06  0.4800E+00
     11.369  0.6202E-03  0.4801E+00
     11.463  0.2308E-02  0.4803E+00
     11.557  0.1117E-02  0.4804E+00
     11.651  0.2518E-02  0.4806E+00
     11.745  0.1034E-03  0.4806E+00
     11.838  0.2243E-02  0.4808E+00
     11.932  0.6238E-02  0.4814E+00
     12.026  0.5206E-02  0.4819E+00
     12.120  0.7764E-02  0.4826E+00
     12.214  0.7198E-02  0.4833E+00
     12.308  0.1772E-02  0.4835E+00
     12.402  0.2159E-02  0.4837E+00
     12.495  0.8026E-02  0.4844E+00
     12.589  0.1359E-01  0.4857E+00
     12.683  0.4100E-02  0.4861E+00
     12.777  0.5928E-02  0.4867E+00
     12.871  0.1020E-01  0.4876E+00
     12.965  0.1770E-01  0.4893E+00
     13.058  0.1417E-01  0.4906E+00
     13.152  0.9298E-02  0.4915E+00
     13.246  0.6346E-02  0.4921E+00
     13.340  0.1334E-01  0.4933E+00
     13.434  0.1292E-01  0.4945E+00
     13.528  0.1444E-01  0.4959E+00
     13.622  0.2285E-01  0.4980E+00
     13.715  0.1225E-01  0.4992E+00
     13.809  0.1508E-01  0.5006E+00
     13.903  0.1165E-01  0.5017E+00
     13.997  0.2046E-01  0.5036E+00
     14.091  0.1189E-01  0.5047E+00
     14.185  0.1234E-01  0.5059E+00
     14.279  0.2467E-01  0.5082E+00
     14.372  0.1559E-01  0.5097E+00
     14.466  0.1295E-01  0.5109E+00
     14.560  0.2919E-01  0.5136E+00
     14.654  0.3281E-01  0.5167E+00
     14.748  0.2680E-01  0.5192E+00
     14.842  0.2917E-01  0.5220E+00
     14.935  0.2343E-01  0.5242E+00
     15.029  0.2736E-01  0.5267E+00
     15.123  0.2567E-01  0.5291E+00
     15.217  0.2680E-01  0.5316E+00
     15.311  0.2731E-01  0.5342E+00
     15.405  0.1653E-01  0.5358E+00
     15.499  0.2552E-01  0.5382E+00
     15.592  0.2359E-01  0.5404E+00
     15.686  0.2203E-01  0.5424E+00
     15.780  0.1793E-01  0.5441E+00
     15.874  0.2076E-01  0.5461E+00
     15.968  0.4252E-01  0.5501E+00
     16.062  0.2645E-01  0.5525E+00
     16.155  0.2464E-01  0.5548E+00
     16.249  0.2396E-01  0.5571E+00
     16.343  0.2812E-01  0.5597E+00
     16.437  0.3096E-01  0.5626E+00
     16.531  0.2159E-01  0.5647E+00
     16.625  0.1541E-01  0.5661E+00
     16.719  0.1688E-01  0.5677E+00
     16.812  0.2448E-01  0.5700E+00
     16.906  0.3791E-01  0.5736E+00
     17.000  0.2707E-01  0.5761E+00
     17.094  0.1483E-01  0.5775E+00
     17.188  0.2598E-01  0.5799E+00
     17.282  0.3498E-01  0.5832E+00
     17.376  0.4445E-01  0.5874E+00
     17.469  0.3017E-01  0.5902E+00
     17.563  0.2170E-01  0.5922E+00
     17.657  0.2692E-01  0.5948E+00
     17.751  0.2262E-01  0.5969E+00
     17.845  0.2152E-01  0.5989E+00
     17.939  0.2654E-01  0.6014E+00
     18.032  0.1784E-01  0.6031E+00
     18.126  0.3722E-01  0.6066E+00
     18.220  0.4724E-01  0.6110E+00
     18.314  0.3017E-01  0.6138E+00
     18.408  0.3562E-01  0.6172E+00
     18.502  0.3264E-01  0.6202E+00
     18.596  0.4430E-01  0.6244E+00
     18.689  0.4669E-01  0.6288E+00
     18.783  0.3437E-01  0.6320E+00
     18.877  0.2754E-01  0.6346E+00
     18.971  0.3386E-01  0.6378E+00
     19.065  0.4513E-01  0.6420E+00
     19.159  0.3503E-01  0.6453E+00
     19.253  0.3145E-01  0.6482E+00
     19.346  0.3000E-01  0.6511E+00
     19.440  0.2404E-01  0.6533E+00
     19.534  0.3268E-01  0.6564E+00
     19.628  0.2488E-01  0.6587E+00
     19.722  0.1327E-01  0.6600E+00
     19.816  0.3511E-03  0.6600E+00
     19.909  0.3331E-07  0.6600E+00
     20.003  0.4644E-14  0.6600E+00
     20.097  0.0000E+00  0.6600E+00
     20.191  0.0000E+00  0.6600E+00
     20.285  0.0000E+00  0.6600E+00
     20.379  0.0000E+00  0.6600E+00
     20.473  0.0000E+00  0.6600E+00
     20.566  0.0000E+00  0.6600E+00
     20.660  0.0000E+00  0.6600E+00
     20.754  0.0000E+00  0.6600E+00
     20.848  0.0000E+00  0.6600E+00
     20.942  0.0000E+00  0.6600E+00
