       N       E                     dE             d eps       ncg     rms          rms(c)
DAV:   1    -0.231275415134E+03   -0.23128E+03   -0.46236E+00  7140   0.103E+01    0.947E+00
DAV:   2    -0.215704172844E+03    0.15571E+02   -0.16084E+00  7176   0.668E+00    0.680E+00
DAV:   3    -0.216128580359E+03   -0.42441E+00   -0.22311E-01  8616   0.223E+00    0.528E+00
DAV:   4    -0.216166949050E+03   -0.38369E-01   -0.13119E-01  8436   0.123E+00    0.101E+00
DAV:   5    -0.216168812173E+03   -0.18631E-02   -0.81301E-03  8328   0.353E-01    0.456E-01
DAV:   6    -0.216169589303E+03   -0.77713E-03   -0.24262E-03  8142   0.179E-01    0.174E-01
DAV:   7    -0.216169636443E+03   -0.47140E-04   -0.13459E-04  8388   0.436E-02    0.116E-01
DAV:   8    -0.216169632927E+03    0.35159E-05   -0.14292E-04  8484   0.477E-02    0.636E-02
DAV:   9    -0.216169666636E+03   -0.33710E-04   -0.70056E-05  8100   0.332E-02    0.786E-03
DAV:  10    -0.216169671978E+03   -0.53419E-05   -0.14266E-06  4302   0.597E-03
   1 F= -.82553602E+02 E0= -.82553602E+02  d E =-.825536E+02
       N       E                     dE             d eps       ncg     rms          rms(c)
DAV:   1    -0.213344964503E+03    0.28247E+01   -0.15747E+00  7656   0.544E+00    0.117E+00
DAV:   2    -0.213332084381E+03    0.12880E-01   -0.75178E-02  8646   0.975E-01    0.629E-01
DAV:   3    -0.213331866748E+03    0.21763E-03   -0.13233E-02  8238   0.358E-01    0.217E-01
DAV:   4    -0.213332361216E+03   -0.49447E-03   -0.46907E-04  8544   0.878E-02    0.121E-01
DAV:   5    -0.213332435235E+03   -0.74019E-04   -0.13740E-04  8238   0.436E-02    0.916E-02
DAV:   6    -0.213332592662E+03   -0.15743E-03   -0.50080E-05  7788   0.336E-02    0.190E-02
DAV:   7    -0.213332577700E+03    0.14962E-04   -0.40261E-06  4470   0.753E-03    0.759E-03
DAV:   8    -0.213332570441E+03    0.72586E-05   -0.11639E-06  4344   0.415E-03
   2 F= -.82486448E+02 E0= -.82486448E+02  d E =0.671540E-01
       N       E                     dE             d eps       ncg     rms          rms(c)
DAV:   1    -0.215323411286E+03   -0.19908E+01   -0.73606E-01  7686   0.369E+00    0.801E-01
DAV:   2    -0.215316345328E+03    0.70660E-02   -0.35233E-02  8646   0.665E-01    0.435E-01
DAV:   3    -0.215315183576E+03    0.11618E-02   -0.62512E-03  8238   0.245E-01    0.151E-01
DAV:   4    -0.215315069320E+03    0.11426E-03   -0.21950E-04  8556   0.603E-02    0.831E-02
DAV:   5    -0.215315006105E+03    0.63215E-04   -0.68584E-05  7860   0.305E-02    0.629E-02
DAV:   6    -0.215314901934E+03    0.10417E-03   -0.23027E-05  5142   0.231E-02    0.901E-03
DAV:   7    -0.215314906788E+03   -0.48540E-05   -0.27993E-06  4380   0.716E-03
   3 F= -.82570590E+02 E0= -.82570590E+02  d E =-.169883E-01
       N       E                     dE             d eps       ncg     rms          rms(c)
DAV:   1    -0.215336735819E+03   -0.21834E-01   -0.10386E-04  7944   0.438E-02    0.818E-03
DAV:   2    -0.215336726679E+03    0.91398E-05   -0.45658E-06  4278   0.792E-03
   4 F= -.82570598E+02 E0= -.82570598E+02  d E =-.169966E-01
       N       E                     dE             d eps       ncg     rms          rms(c)
DAV:   1    -0.215472884391E+03   -0.13615E+00   -0.26425E-01  7140   0.216E+00    0.106E-01
DAV:   2    -0.215472842439E+03    0.41952E-04   -0.31635E-03  8664   0.220E-01    0.645E-02
DAV:   3    -0.215472773905E+03    0.68533E-04   -0.15659E-04  8520   0.496E-02    0.390E-02
DAV:   4    -0.215472749384E+03    0.24522E-04   -0.87057E-05  8424   0.359E-02    0.129E-02
DAV:   5    -0.215472754110E+03   -0.47267E-05   -0.20427E-05  5142   0.148E-02
   5 F= -.82574397E+02 E0= -.82574397E+02  d E =-.379865E-02
       N       E                     dE             d eps       ncg     rms          rms(c)
DAV:   1    -0.215488068237E+03   -0.15319E-01   -0.35185E-03  7344   0.249E-01    0.132E-02
DAV:   2    -0.215488066119E+03    0.21175E-05   -0.41092E-05  8100   0.253E-02
   6 F= -.82574442E+02 E0= -.82574442E+02  d E =-.384338E-02
       N       E                     dE             d eps       ncg     rms          rms(c)
DAV:   1    -0.215510418140E+03   -0.22350E-01   -0.11085E-01  7140   0.136E+00    0.659E-02
DAV:   2    -0.215510367640E+03    0.50500E-04   -0.12317E-03  8562   0.143E-01    0.424E-02
DAV:   3    -0.215510330775E+03    0.36864E-04   -0.90829E-05  8592   0.396E-02    0.267E-02
DAV:   4    -0.215510316084E+03    0.14692E-04   -0.57181E-05  8292   0.308E-02    0.874E-03
DAV:   5    -0.215510318765E+03   -0.26809E-05   -0.14676E-05  5082   0.127E-02
   7 F= -.82575778E+02 E0= -.82575778E+02  d E =-.133663E-02
       N       E                     dE             d eps       ncg     rms          rms(c)
DAV:   1    -0.215532220998E+03   -0.21905E-01   -0.11562E-01  7152   0.139E+00    0.652E-02
DAV:   2    -0.215532184373E+03    0.36626E-04   -0.12937E-03  8574   0.146E-01    0.422E-02
DAV:   3    -0.215532148626E+03    0.35746E-04   -0.90986E-05  8592   0.398E-02    0.268E-02
DAV:   4    -0.215532134180E+03    0.14446E-04   -0.55434E-05  8316   0.305E-02    0.893E-03
DAV:   5    -0.215532136795E+03   -0.26153E-05   -0.14525E-05  5052   0.127E-02
   8 F= -.82576244E+02 E0= -.82576244E+02  d E =-.180253E-02
       N       E                     dE             d eps       ncg     rms          rms(c)
DAV:   1    -0.215444588567E+03    0.87546E-01   -0.99558E-02  7152   0.128E+00    0.744E-02
DAV:   2    -0.215444602581E+03   -0.14014E-04   -0.15711E-03  8544   0.160E-01    0.485E-02
DAV:   3    -0.215444589656E+03    0.12925E-04   -0.11248E-04  8508   0.440E-02    0.284E-02
DAV:   4    -0.215444606690E+03   -0.17034E-04   -0.65006E-05  8004   0.302E-02    0.105E-02
DAV:   5    -0.215444613090E+03   -0.64004E-05   -0.83079E-06  4392   0.111E-02
   9 F= -.82576493E+02 E0= -.82576493E+02  d E =-.249100E-03
       N       E                     dE             d eps       ncg     rms          rms(c)
DAV:   1    -0.215477817724E+03   -0.33211E-01   -0.14038E-02  7152   0.481E-01    0.276E-02
DAV:   2    -0.215477791316E+03    0.26408E-04   -0.22052E-04  8544   0.600E-02    0.180E-02
DAV:   3    -0.215477775153E+03    0.16164E-04   -0.14101E-05  5094   0.164E-02    0.105E-02
DAV:   4    -0.215477764308E+03    0.10845E-04   -0.10795E-05  4044   0.127E-02    0.351E-03
DAV:   5    -0.215477762788E+03    0.15198E-05   -0.19839E-06  3780   0.552E-03
  10 F= -.82576686E+02 E0= -.82576686E+02  d E =-.441453E-03
       N       E                     dE             d eps       ncg     rms          rms(c)
DAV:   1    -0.215483274775E+03   -0.55105E-02   -0.39090E-04  7242   0.807E-02    0.480E-03
DAV:   2    -0.215483271040E+03    0.37343E-05   -0.57750E-06  4506   0.101E-02
  11 F= -.82576685E+02 E0= -.82576685E+02  d E =-.441252E-03
       N       E                     dE             d eps       ncg     rms          rms(c)
DAV:   1    -0.215520866122E+03   -0.37591E-01   -0.82986E-03  7176   0.365E-01    0.247E-02
DAV:   2    -0.215520855344E+03    0.10778E-04   -0.14813E-04  8676   0.481E-02    0.166E-02
DAV:   3    -0.215520843751E+03    0.11593E-04   -0.13448E-05  4692   0.164E-02    0.760E-03
DAV:   4    -0.215520840586E+03    0.31646E-05   -0.95670E-06  4056   0.117E-02
  12 F= -.82576712E+02 E0= -.82576712E+02  d E =-.263989E-04
       N       E                     dE             d eps       ncg     rms          rms(c)
DAV:   1    -0.215508232870E+03    0.12611E-01   -0.92097E-04  7224   0.121E-01    0.869E-03
DAV:   2    -0.215508234786E+03   -0.19159E-05   -0.13924E-05  5478   0.156E-02
  13 F= -.82576728E+02 E0= -.82576728E+02  d E =-.426327E-04
