Al4C3 Pnma (POSCAR.IV, symmetrized via s
   1.00000000000000     
     8.5304457652735017    0.0000000000000000    0.0000000000000000
     0.0000000000000000    2.9428487663711365    0.0000000000000000
     0.0000000000000000    0.0000000000000000   10.1402978679183189
   Al   C 
    16    12
Direct
  0.2677173924387619  0.2500000000000000  0.3011042094947401
  0.2322826075612382  0.7500000000000000  0.8011042094947401
  0.7322826075612381  0.7500000000000000  0.6988957905052599
  0.7677173924387619  0.2500000000000000  0.1988957905052599
  0.3532917287338174  0.2500000000000000  0.0138201590836994
  0.1467082712661826  0.7500000000000000  0.5138201590836994
  0.6467082712661826  0.7500000000000000  0.9861798409163006
  0.8532917287338174  0.2500000000000000  0.4861798409163007
  0.5197782165876704  0.2500000000000000  0.7946191745769710
  0.9802217834123296  0.7500000000000000  0.2946191745769709
  0.4802217834123296  0.7500000000000000  0.2053808254230290
  0.0197782165876704  0.2500000000000000  0.7053808254230290
  0.0743736343680664  0.2500000000000000  0.0870199954531807
  0.4256263656319407  0.7500000000000000  0.5870199954531807
  0.9256263656319335  0.7500000000000000  0.9129800045468193
  0.5743736343680665  0.2500000000000000  0.4129800045468193
  0.2528121505636116  0.2500000000000000  0.6409784383500011
  0.2471878494363884  0.7500000000000000  0.1409784383500012
  0.7471878494363884  0.7500000000000000  0.3590215616499988
  0.7528121505636116  0.2500000000000000  0.8590215616499989
  0.5966264776703500  0.2500000000000000  0.6107131485691617
  0.9033735223296500  0.7500000000000000  0.1107131485691617
  0.4033735223296573  0.7500000000000000  0.3892868514308382
  0.0966264776703498  0.2500000000000000  0.8892868514308383
  0.0680131691021273  0.2500000000000000  0.3876037699479962
  0.4319868308978727  0.7500000000000000  0.8876037699479962
  0.9319868308978727  0.7500000000000000  0.6123962300520038
  0.5680131691021273  0.2500000000000000  0.1123962300520038
 
  0.00000000E+00  0.00000000E+00  0.00000000E+00
  0.00000000E+00  0.00000000E+00  0.00000000E+00
  0.00000000E+00  0.00000000E+00  0.00000000E+00
  0.00000000E+00  0.00000000E+00  0.00000000E+00
  0.00000000E+00  0.00000000E+00  0.00000000E+00
  0.00000000E+00  0.00000000E+00  0.00000000E+00
  0.00000000E+00  0.00000000E+00  0.00000000E+00
  0.00000000E+00  0.00000000E+00  0.00000000E+00
  0.00000000E+00  0.00000000E+00  0.00000000E+00
  0.00000000E+00  0.00000000E+00  0.00000000E+00
  0.00000000E+00  0.00000000E+00  0.00000000E+00
  0.00000000E+00  0.00000000E+00  0.00000000E+00
  0.00000000E+00  0.00000000E+00  0.00000000E+00
  0.00000000E+00  0.00000000E+00  0.00000000E+00
  0.00000000E+00  0.00000000E+00  0.00000000E+00
  0.00000000E+00  0.00000000E+00  0.00000000E+00
  0.00000000E+00  0.00000000E+00  0.00000000E+00
  0.00000000E+00  0.00000000E+00  0.00000000E+00
  0.00000000E+00  0.00000000E+00  0.00000000E+00
  0.00000000E+00  0.00000000E+00  0.00000000E+00
  0.00000000E+00  0.00000000E+00  0.00000000E+00
  0.00000000E+00  0.00000000E+00  0.00000000E+00
  0.00000000E+00  0.00000000E+00  0.00000000E+00
  0.00000000E+00  0.00000000E+00  0.00000000E+00
  0.00000000E+00  0.00000000E+00  0.00000000E+00
  0.00000000E+00  0.00000000E+00  0.00000000E+00
  0.00000000E+00  0.00000000E+00  0.00000000E+00
  0.00000000E+00  0.00000000E+00  0.00000000E+00
