       N       E                     dE             d eps       ncg     rms          rms(c)
DAV:   1    -0.259075832168E+03   -0.25908E+03   -0.92788E+01  8382   0.266E+01    0.278E+01
DAV:   2    -0.224022267176E+03    0.35054E+02   -0.56582E+01  8094   0.214E+01    0.108E+01
DAV:   3    -0.224519968795E+03   -0.49770E+00   -0.56594E+00  8184   0.799E+00    0.798E+00
DAV:   4    -0.224760736507E+03   -0.24077E+00   -0.41748E-01  8688   0.232E+00    0.509E+00
DAV:   5    -0.224862475760E+03   -0.10174E+00   -0.21130E-01  8004   0.214E+00    0.686E-01
DAV:   6    -0.224861693694E+03    0.78207E-03   -0.27800E-02  8436   0.616E-01    0.238E-01
DAV:   7    -0.224862429370E+03   -0.73568E-03   -0.26951E-03  9582   0.210E-01    0.169E-01
DAV:   8    -0.224863268306E+03   -0.83894E-03   -0.14973E-03  8418   0.155E-01    0.831E-02
DAV:   9    -0.224863441653E+03   -0.17335E-03   -0.20434E-04  8586   0.674E-02    0.453E-02
DAV:  10    -0.224863486189E+03   -0.44536E-04   -0.17376E-04  8316   0.559E-02    0.125E-02
DAV:  11    -0.224863486746E+03   -0.55682E-06   -0.53992E-06  4566   0.103E-02
   1 F= -.19258080E+03 E0= -.19258080E+03  d E =-.192581E+03
       N       E                     dE             d eps       ncg     rms          rms(c)
DAV:   1    -0.223740309772E+03    0.11232E+01   -0.36227E+00  8118   0.794E+00    0.184E+00
DAV:   2    -0.223700887791E+03    0.39422E-01   -0.21840E-01  8442   0.155E+00    0.101E+00
DAV:   3    -0.223700699849E+03    0.18794E-03   -0.30386E-02  8316   0.533E-01    0.404E-01
DAV:   4    -0.223701168252E+03   -0.46840E-03   -0.90826E-04  8532   0.135E-01    0.182E-01
DAV:   5    -0.223701245224E+03   -0.76972E-04   -0.25113E-04  8328   0.667E-02    0.112E-01
DAV:   6    -0.223701257583E+03   -0.12360E-04   -0.66614E-05  8172   0.395E-02    0.380E-02
DAV:   7    -0.223701264987E+03   -0.74036E-05   -0.10545E-05  4452   0.124E-02
   2 F= -.19254644E+03 E0= -.19254644E+03  d E =0.343596E-01
       N       E                     dE             d eps       ncg     rms          rms(c)
DAV:   1    -0.224427057488E+03   -0.72580E+00   -0.11075E+00  8172   0.432E+00    0.103E+00
DAV:   2    -0.224416690764E+03    0.10367E-01   -0.69814E-02  8430   0.869E-01    0.562E-01
DAV:   3    -0.224416832252E+03   -0.14149E-03   -0.94551E-03  8292   0.296E-01    0.228E-01
DAV:   4    -0.224416996976E+03   -0.16472E-03   -0.29361E-04  8604   0.768E-02    0.102E-01
DAV:   5    -0.224417020969E+03   -0.23992E-04   -0.80068E-05  8196   0.376E-02    0.619E-02
DAV:   6    -0.224417014737E+03    0.62320E-05   -0.19398E-05  4794   0.220E-02
   3 F= -.19263641E+03 E0= -.19263641E+03  d E =-.556071E-01
       N       E                     dE             d eps       ncg     rms          rms(c)
DAV:   1    -0.224413258925E+03    0.37620E-02   -0.36758E-05  6720   0.257E-02    0.135E-02
DAV:   2    -0.224413256866E+03    0.20592E-05   -0.34969E-06  4248   0.695E-03
   4 F= -.19263641E+03 E0= -.19263641E+03  d E =-.556031E-01
       N       E                     dE             d eps       ncg     rms          rms(c)
DAV:   1    -0.224413969395E+03   -0.71047E-03   -0.46952E-06  4164   0.789E-03    0.322E-03
DAV:   2    -0.224413969259E+03    0.13590E-06   -0.36898E-07  3966   0.262E-03
   5 F= -.19263640E+03 E0= -.19263640E+03  d E =-.556023E-01
       N       E                     dE             d eps       ncg     rms          rms(c)
DAV:   1    -0.224411990718E+03    0.19787E-02   -0.39966E-02  7206   0.827E-01    0.431E-02
DAV:   2    -0.224412085944E+03   -0.95227E-04   -0.15056E-03  8898   0.148E-01    0.375E-02
DAV:   3    -0.224412069955E+03    0.15989E-04   -0.56854E-05  8274   0.333E-02    0.247E-02
DAV:   4    -0.224412069386E+03    0.56893E-06   -0.53979E-05  7914   0.276E-02
   6 F= -.19263723E+03 E0= -.19263723E+03  d E =-.821506E-03
       N       E                     dE             d eps       ncg     rms          rms(c)
DAV:   1    -0.224411837892E+03    0.23206E-03   -0.34132E-04  7626   0.773E-02    0.863E-03
DAV:   2    -0.224411839396E+03   -0.15038E-05   -0.14481E-05  5142   0.149E-02
   7 F= -.19263724E+03 E0= -.19263724E+03  d E =-.833113E-03
       N       E                     dE             d eps       ncg     rms          rms(c)
DAV:   1    -0.224414597393E+03   -0.27595E-02   -0.57674E-02  7128   0.978E-01    0.411E-02
DAV:   2    -0.224414590671E+03    0.67219E-05   -0.88003E-04  8880   0.117E-01    0.301E-02
DAV:   3    -0.224414576046E+03    0.14625E-04   -0.56341E-05  8400   0.298E-02    0.198E-02
DAV:   4    -0.224414568310E+03    0.77368E-05   -0.32582E-05  7098   0.221E-02
   8 F= -.19263751E+03 E0= -.19263751E+03  d E =-.269066E-03
       N       E                     dE             d eps       ncg     rms          rms(c)
DAV:   1    -0.224414264990E+03    0.31106E-03   -0.91429E-04  7224   0.123E-01    0.545E-03
DAV:   2    -0.224414266338E+03   -0.13473E-05   -0.17812E-05  5994   0.159E-02
   9 F= -.19263751E+03 E0= -.19263751E+03  d E =-.276469E-03
       N       E                     dE             d eps       ncg     rms          rms(c)
DAV:   1    -0.224414351664E+03   -0.86674E-04   -0.87085E-03  7152   0.377E-01    0.157E-02
DAV:   2    -0.224414359547E+03   -0.78827E-05   -0.17968E-04  8730   0.506E-02    0.123E-02
DAV:   3    -0.224414355951E+03    0.35962E-05   -0.53204E-06  4596   0.105E-02
  10 F= -.19263758E+03 E0= -.19263758E+03  d E =-.681461E-04
