Al4C3 Pnma - r2SCAN H(P) scan @ 20 GPa (
           1
     8.575478    0.000000    0.000000
     0.000000    2.958384    0.000000
     0.000000    0.000000   10.193829
   Al   C 
    16    12
Direct configuration=     1
   0.26729585  0.25000000  0.30133754
   0.23270415  0.75000000  0.80133754
   0.73270415  0.75000000  0.69866246
   0.76729585  0.25000000  0.19866246
   0.35337696  0.25000000  0.01386570
   0.14662304  0.75000000  0.51386570
   0.64662304  0.75000000  0.98613430
   0.85337696  0.25000000  0.48613430
   0.51972403  0.25000000  0.79457902
   0.98027597  0.75000000  0.29457902
   0.48027597  0.75000000  0.20542098
   0.01972403  0.25000000  0.70542098
   0.07444182  0.25000000  0.08676512
   0.42555818  0.75000000  0.58676512
   0.92555818  0.75000000  0.91323488
   0.57444182  0.25000000  0.41323488
   0.25336180  0.25000000  0.64084234
   0.24663820  0.75000000  0.14084234
   0.74663820  0.75000000  0.35915766
   0.75336180  0.25000000  0.85915766
   0.59697557  0.25000000  0.61078010
   0.90302443  0.75000000  0.11078010
   0.40302443  0.75000000  0.38921990
   0.09697557  0.25000000  0.88921990
   0.06783321  0.25000000  0.38805716
   0.43216679  0.75000000  0.88805716
   0.93216679  0.75000000  0.61194284
   0.56783321  0.25000000  0.11194284
Al4C3 Pnma - r2SCAN H(P) scan @ 20 GPa (
           1
     8.474425    0.000000    0.000000
     0.000000    2.923522    0.000000
     0.000000    0.000000   10.073704
   Al   C 
    16    12
Direct configuration=     2
   0.26739744  0.25000000  0.30131609
   0.23260256  0.75000000  0.80131609
   0.73260256  0.75000000  0.69868391
   0.76739744  0.25000000  0.19868391
   0.35354715  0.25000000  0.01399327
   0.14645285  0.75000000  0.51399327
   0.64645285  0.75000000  0.98600673
   0.85354715  0.25000000  0.48600673
   0.51991825  0.25000000  0.79479151
   0.98008175  0.75000000  0.29479151
   0.48008175  0.75000000  0.20520849
   0.01991825  0.25000000  0.70520849
   0.07440947  0.25000000  0.08672951
   0.42559053  0.75000000  0.58672951
   0.92559053  0.75000000  0.91327049
   0.57440947  0.25000000  0.41327049
   0.25290956  0.25000000  0.64097374
   0.24709044  0.75000000  0.14097374
   0.74709044  0.75000000  0.35902626
   0.75290956  0.25000000  0.85902626
   0.59656458  0.25000000  0.61100154
   0.90343542  0.75000000  0.11100154
   0.40343542  0.75000000  0.38899846
   0.09656458  0.25000000  0.88899846
   0.06781029  0.25000000  0.38750244
   0.43218971  0.75000000  0.88750244
   0.93218971  0.75000000  0.61249756
   0.56781029  0.25000000  0.11249756
Al4C3 Pnma - r2SCAN H(P) scan @ 20 GPa (
           1
     8.530789    0.000000    0.000000
     0.000000    2.942967    0.000000
     0.000000    0.000000   10.140705
   Al   C 
    16    12
Direct configuration=     3
   0.26734010  0.25000000  0.30132820
   0.23265990  0.75000000  0.80132820
   0.73265990  0.75000000  0.69867180
   0.76734010  0.25000000  0.19867180
   0.35345110  0.25000000  0.01392127
   0.14654890  0.75000000  0.51392127
   0.64654890  0.75000000  0.98607873
   0.85345110  0.25000000  0.48607873
   0.51980863  0.25000000  0.79467158
   0.98019137  0.75000000  0.29467158
   0.48019137  0.75000000  0.20532842
   0.01980863  0.25000000  0.70532842
   0.07442773  0.25000000  0.08674961
   0.42557227  0.75000000  0.58674961
   0.92557227  0.75000000  0.91325039
   0.57442773  0.25000000  0.41325039
   0.25316481  0.25000000  0.64089958
   0.24683519  0.75000000  0.14089958
   0.74683519  0.75000000  0.35910042
   0.75316481  0.25000000  0.85910042
   0.59679655  0.25000000  0.61087656
   0.90320345  0.75000000  0.11087656
   0.40320345  0.75000000  0.38912344
   0.09679655  0.25000000  0.88912344
   0.06782322  0.25000000  0.38781553
   0.43217678  0.75000000  0.88781553
   0.93217678  0.75000000  0.61218447
   0.56782322  0.25000000  0.11218447
Al4C3 Pnma - r2SCAN H(P) scan @ 20 GPa (
           1
     8.530453    0.000000    0.000000
     0.000000    2.942851    0.000000
     0.000000    0.000000   10.140306
   Al   C 
    16    12
Direct configuration=     4
   0.26734044  0.25000000  0.30132813
   0.23265956  0.75000000  0.80132813
   0.73265956  0.75000000  0.69867187
   0.76734044  0.25000000  0.19867187
   0.35345166  0.25000000  0.01392169
   0.14654834  0.75000000  0.51392169
   0.64654834  0.75000000  0.98607831
   0.85345166  0.25000000  0.48607831
   0.51980928  0.25000000  0.79467229
   0.98019072  0.75000000  0.29467229
   0.48019072  0.75000000  0.20532771
   0.01980928  0.25000000  0.70532771
   0.07442762  0.25000000  0.08674949
   0.42557238  0.75000000  0.58674949
   0.92557238  0.75000000  0.91325051
   0.57442762  0.25000000  0.41325051
   0.25316330  0.25000000  0.64090001
   0.24683670  0.75000000  0.14090001
   0.74683670  0.75000000  0.35909999
   0.75316330  0.25000000  0.85909999
   0.59679517  0.25000000  0.61087730
   0.90320483  0.75000000  0.11087730
   0.40320483  0.75000000  0.38912270
   0.09679517  0.25000000  0.88912270
   0.06782315  0.25000000  0.38781368
   0.43217685  0.75000000  0.88781368
   0.93217685  0.75000000  0.61218632
   0.56782315  0.25000000  0.11218632
Al4C3 Pnma - r2SCAN H(P) scan @ 20 GPa (
           1
     8.530517    0.000000    0.000000
     0.000000    2.942873    0.000000
     0.000000    0.000000   10.140382
   Al   C 
    16    12
Direct configuration=     5
   0.26734037  0.25000000  0.30132814
   0.23265963  0.75000000  0.80132814
   0.73265963  0.75000000  0.69867186
   0.76734037  0.25000000  0.19867186
   0.35345156  0.25000000  0.01392161
   0.14654844  0.75000000  0.51392161
   0.64654844  0.75000000  0.98607839
   0.85345156  0.25000000  0.48607839
   0.51980915  0.25000000  0.79467215
   0.98019085  0.75000000  0.29467215
   0.48019085  0.75000000  0.20532785
   0.01980915  0.25000000  0.70532785
   0.07442764  0.25000000  0.08674951
   0.42557236  0.75000000  0.58674951
   0.92557236  0.75000000  0.91325049
   0.57442764  0.25000000  0.41325049
   0.25316359  0.25000000  0.64089993
   0.24683641  0.75000000  0.14089993
   0.74683641  0.75000000  0.35910007
   0.75316359  0.25000000  0.85910007
   0.59679544  0.25000000  0.61087716
   0.90320456  0.75000000  0.11087716
   0.40320456  0.75000000  0.38912284
   0.09679544  0.25000000  0.88912284
   0.06782316  0.25000000  0.38781403
   0.43217684  0.75000000  0.88781403
   0.93217684  0.75000000  0.61218597
   0.56782316  0.25000000  0.11218597
Al4C3 Pnma - r2SCAN H(P) scan @ 20 GPa (
           1
     8.530273    0.000000    0.000000
     0.000000    2.942789    0.000000
     0.000000    0.000000   10.140093
   Al   C 
    16    12
Direct configuration=     6
   0.26758751  0.25000000  0.30116356
   0.23241249  0.75000000  0.80116356
   0.73241249  0.75000000  0.69883644
   0.76758751  0.25000000  0.19883644
   0.35333810  0.25000000  0.01394325
   0.14666190  0.75000000  0.51394325
   0.64666190  0.75000000  0.98605675
   0.85333810  0.25000000  0.48605675
   0.51988569  0.25000000  0.79458639
   0.98011431  0.75000000  0.29458639
   0.48011431  0.75000000  0.20541361
   0.01988569  0.25000000  0.70541361
   0.07443536  0.25000000  0.08692036
   0.42556464  0.75000000  0.58692036
   0.92556464  0.75000000  0.91307964
   0.57443536  0.25000000  0.41307964
   0.25302059  0.25000000  0.64094690
   0.24697941  0.75000000  0.14094690
   0.74697941  0.75000000  0.35905310
   0.75302059  0.25000000  0.85905310
   0.59670608  0.25000000  0.61080422
   0.90329392  0.75000000  0.11080422
   0.40329392  0.75000000  0.38919578
   0.09670608  0.25000000  0.88919578
   0.06783741  0.25000000  0.38772971
   0.43216259  0.75000000  0.88772971
   0.93216259  0.75000000  0.61227029
   0.56783741  0.25000000  0.11227029
Al4C3 Pnma - r2SCAN H(P) scan @ 20 GPa (
           1
     8.530251    0.000000    0.000000
     0.000000    2.942782    0.000000
     0.000000    0.000000   10.140067
   Al   C 
    16    12
Direct configuration=     7
   0.26760945  0.25000000  0.30114895
   0.23239055  0.75000000  0.80114895
   0.73239055  0.75000000  0.69885105
   0.76760945  0.25000000  0.19885105
   0.35332803  0.25000000  0.01394518
   0.14667197  0.75000000  0.51394518
   0.64667197  0.75000000  0.98605482
   0.85332803  0.25000000  0.48605482
   0.51989248  0.25000000  0.79457878
   0.98010752  0.75000000  0.29457878
   0.48010752  0.75000000  0.20542122
   0.01989248  0.25000000  0.70542122
   0.07443604  0.25000000  0.08693553
   0.42556396  0.75000000  0.58693553
   0.92556396  0.75000000  0.91306447
   0.57443604  0.25000000  0.41306447
   0.25300790  0.25000000  0.64095107
   0.24699210  0.75000000  0.14095107
   0.74699210  0.75000000  0.35904893
   0.75300790  0.25000000  0.85904893
   0.59669814  0.25000000  0.61079774
   0.90330186  0.75000000  0.11079774
   0.40330186  0.75000000  0.38920226
   0.09669814  0.25000000  0.88920226
   0.06783868  0.25000000  0.38772222
   0.43216132  0.75000000  0.88772222
   0.93216132  0.75000000  0.61227778
   0.56783868  0.25000000  0.11227778
Al4C3 Pnma - r2SCAN H(P) scan @ 20 GPa (
           1
     8.530472    0.000000    0.000000
     0.000000    2.942858    0.000000
     0.000000    0.000000   10.140328
   Al   C 
    16    12
Direct configuration=     8
   0.26765147  0.25000000  0.30109736
   0.23234853  0.75000000  0.80109736
   0.73234853  0.75000000  0.69890264
   0.76765147  0.25000000  0.19890264
   0.35330964  0.25000000  0.01386603
   0.14669036  0.75000000  0.51386603
   0.64669036  0.75000000  0.98613397
   0.85330964  0.25000000  0.48613397
   0.51979806  0.25000000  0.79463498
   0.98020194  0.75000000  0.29463498
   0.48020194  0.75000000  0.20536502
   0.01979806  0.25000000  0.70536502
   0.07440776  0.25000000  0.08704290
   0.42559224  0.75000000  0.58704290
   0.92559224  0.75000000  0.91295710
   0.57440776  0.25000000  0.41295710
   0.25287953  0.25000000  0.64098061
   0.24712047  0.75000000  0.14098061
   0.74712047  0.75000000  0.35901939
   0.75287953  0.25000000  0.85901939
   0.59663201  0.25000000  0.61069157
   0.90336799  0.75000000  0.11069157
   0.40336799  0.75000000  0.38930843
   0.09663201  0.25000000  0.88930843
   0.06796036  0.25000000  0.38757978
   0.43203964  0.75000000  0.88757978
   0.93203964  0.75000000  0.61242022
   0.56796036  0.25000000  0.11242022
Al4C3 Pnma - r2SCAN H(P) scan @ 20 GPa (
           1
     8.530444    0.000000    0.000000
     0.000000    2.942848    0.000000
     0.000000    0.000000   10.140296
   Al   C 
    16    12
Direct configuration=     9
   0.26764619  0.25000000  0.30110384
   0.23235381  0.75000000  0.80110384
   0.73235381  0.75000000  0.69889616
   0.76764619  0.25000000  0.19889616
   0.35331196  0.25000000  0.01387598
   0.14668804  0.75000000  0.51387598
   0.64668804  0.75000000  0.98612402
   0.85331196  0.25000000  0.48612402
   0.51980994  0.25000000  0.79462791
   0.98019006  0.75000000  0.29462791
   0.48019006  0.75000000  0.20537209
   0.01980994  0.25000000  0.70537209
   0.07441132  0.25000000  0.08702940
   0.42558868  0.75000000  0.58702940
   0.92558868  0.75000000  0.91297060
   0.57441132  0.25000000  0.41297060
   0.25289567  0.25000000  0.64097690
   0.24710433  0.75000000  0.14097690
   0.74710433  0.75000000  0.35902310
   0.75289567  0.25000000  0.85902310
   0.59664033  0.25000000  0.61070492
   0.90335967  0.75000000  0.11070492
   0.40335967  0.75000000  0.38929508
   0.09664033  0.25000000  0.88929508
   0.06794505  0.25000000  0.38759769
   0.43205495  0.75000000  0.88759769
   0.93205495  0.75000000  0.61240231
   0.56794505  0.25000000  0.11240231
Al4C3 Pnma - r2SCAN H(P) scan @ 20 GPa (
           1
     8.530446    0.000000    0.000000
     0.000000    2.942849    0.000000
     0.000000    0.000000   10.140298
   Al   C 
    16    12
Direct configuration=    10
   0.26771739  0.25000000  0.30110421
   0.23228261  0.75000000  0.80110421
   0.73228261  0.75000000  0.69889579
   0.76771739  0.25000000  0.19889579
   0.35329173  0.25000000  0.01382016
   0.14670827  0.75000000  0.51382016
   0.64670827  0.75000000  0.98617984
   0.85329173  0.25000000  0.48617984
   0.51977822  0.25000000  0.79461917
   0.98022178  0.75000000  0.29461917
   0.48022178  0.75000000  0.20538083
   0.01977822  0.25000000  0.70538083
   0.07437363  0.25000000  0.08702000
   0.42562637  0.75000000  0.58702000
   0.92562637  0.75000000  0.91298000
   0.57437363  0.25000000  0.41298000
   0.25281215  0.25000000  0.64097844
   0.24718785  0.75000000  0.14097844
   0.74718785  0.75000000  0.35902156
   0.75281215  0.25000000  0.85902156
   0.59662648  0.25000000  0.61071315
   0.90337352  0.75000000  0.11071315
   0.40337352  0.75000000  0.38928685
   0.09662648  0.25000000  0.88928685
   0.06801317  0.25000000  0.38760377
   0.43198683  0.75000000  0.88760377
   0.93198683  0.75000000  0.61239623
   0.56801317  0.25000000  0.11239623
