  28  28   0   0
  0.8594180E+01  0.8371998E-09  0.2888187E-09  0.9951948E-09  0.5000000E-15
  1.000000000000000E-004
  CAR 
 Al4C3 Pnma - H(P) scan @ 30 GPa (ISIF=8)
     19.09240554     -6.05161850  301     11.47062326      1.00000000
     -6.052  0.0000E+00  0.0000E+00
     -5.968  0.0000E+00  0.0000E+00
     -5.884  0.0000E+00  0.0000E+00
     -5.800  0.0000E+00  0.0000E+00
     -5.716  0.0000E+00  0.0000E+00
     -5.633  0.0000E+00  0.0000E+00
     -5.549  0.0000E+00  0.0000E+00
     -5.465  0.0000E+00  0.0000E+00
     -5.381  0.0000E+00  0.0000E+00
     -5.297  0.0000E+00  0.0000E+00
     -5.213  0.0000E+00  0.0000E+00
     -5.130  0.1393E-12  0.1168E-13
     -5.046  0.3553E-07  0.2978E-08
     -4.962  0.4466E-04  0.3746E-05
     -4.878  0.6501E-03  0.5823E-04
     -4.794  0.2509E-02  0.2685E-03
     -4.711  0.4954E-02  0.6838E-03
     -4.627  0.5991E-02  0.1186E-02
     -4.543  0.5587E-02  0.1654E-02
     -4.459  0.5655E-02  0.2128E-02
     -4.375  0.8665E-02  0.2854E-02
     -4.292  0.1233E-01  0.3888E-02
     -4.208  0.9919E-02  0.4719E-02
     -4.124  0.7727E-02  0.5367E-02
     -4.040  0.8655E-02  0.6092E-02
     -3.956  0.1238E-01  0.7130E-02
     -3.872  0.8830E-02  0.7870E-02
     -3.789  0.7265E-02  0.8479E-02
     -3.705  0.1332E-01  0.9595E-02
     -3.621  0.2007E-01  0.1128E-01
     -3.537  0.1253E-01  0.1233E-01
     -3.453  0.1225E-01  0.1335E-01
     -3.370  0.1055E-01  0.1424E-01
     -3.286  0.1733E-01  0.1569E-01
     -3.202  0.1547E-01  0.1699E-01
     -3.118  0.1812E-01  0.1851E-01
     -3.034  0.1153E-01  0.1947E-01
     -2.951  0.9826E-02  0.2030E-01
     -2.867  0.1626E-01  0.2166E-01
     -2.783  0.2001E-01  0.2334E-01
     -2.699  0.2420E-01  0.2536E-01
     -2.615  0.2036E-01  0.2707E-01
     -2.531  0.2147E-01  0.2887E-01
     -2.448  0.1511E-01  0.3014E-01
     -2.364  0.1537E-01  0.3142E-01
     -2.280  0.1600E-01  0.3277E-01
     -2.196  0.2074E-01  0.3450E-01
     -2.112  0.2659E-01  0.3673E-01
     -2.029  0.1622E-01  0.3809E-01
     -1.945  0.1758E-01  0.3956E-01
     -1.861  0.2823E-01  0.4193E-01
     -1.777  0.3519E-01  0.4488E-01
     -1.693  0.2501E-01  0.4698E-01
     -1.610  0.2808E-01  0.4933E-01
     -1.526  0.2020E-01  0.5102E-01
     -1.442  0.2069E-01  0.5276E-01
     -1.358  0.2267E-01  0.5466E-01
     -1.274  0.3075E-01  0.5723E-01
     -1.190  0.3390E-01  0.6008E-01
     -1.107  0.3377E-01  0.6291E-01
     -1.023  0.3292E-01  0.6566E-01
     -0.939  0.3977E-01  0.6900E-01
     -0.855  0.4032E-01  0.7238E-01
     -0.771  0.3452E-01  0.7527E-01
     -0.688  0.4436E-01  0.7899E-01
     -0.604  0.5545E-01  0.8364E-01
     -0.520  0.6290E-01  0.8891E-01
     -0.436  0.3821E-01  0.9211E-01
     -0.352  0.2751E-01  0.9442E-01
     -0.268  0.2793E-01  0.9676E-01
     -0.185  0.3306E-01  0.9953E-01
     -0.101  0.2796E-01  0.1019E+00
     -0.017  0.1365E-01  0.1030E+00
      0.067  0.1895E-01  0.1046E+00
      0.151  0.9185E-02  0.1054E+00
      0.234  0.1440E-01  0.1066E+00
      0.318  0.1994E-01  0.1083E+00
      0.402  0.1892E-01  0.1098E+00
      0.486  0.1562E-01  0.1111E+00
      0.570  0.1902E-01  0.1127E+00
      0.653  0.1309E-01  0.1138E+00
      0.737  0.1083E-01  0.1147E+00
      0.821  0.7897E-02  0.1154E+00
      0.905  0.1458E-01  0.1166E+00
      0.989  0.1042E-01  0.1175E+00
      1.073  0.7987E-02  0.1182E+00
      1.156  0.1171E-01  0.1192E+00
      1.240  0.7356E-02  0.1198E+00
      1.324  0.2673E-02  0.1200E+00
      1.408  0.6805E-04  0.1200E+00
      1.492  0.1782E-07  0.1200E+00
      1.575  0.2291E-13  0.1200E+00
      1.659  0.0000E+00  0.1200E+00
      1.743  0.7903E-15  0.1200E+00
      1.827  0.1167E-08  0.1200E+00
      1.911  0.7832E-05  0.1200E+00
      1.994  0.3866E-03  0.1200E+00
      2.078  0.1843E-02  0.1202E+00
      2.162  0.3086E-02  0.1204E+00
      2.246  0.4847E-02  0.1209E+00
      2.330  0.3210E-02  0.1211E+00
      2.414  0.8463E-02  0.1218E+00
      2.497  0.1308E-01  0.1229E+00
      2.581  0.2425E-01  0.1250E+00
      2.665  0.2857E-01  0.1274E+00
      2.749  0.2092E-01  0.1291E+00
      2.833  0.2561E-01  0.1313E+00
      2.916  0.4036E-01  0.1346E+00
      3.000  0.2726E-01  0.1369E+00
      3.084  0.4258E-01  0.1405E+00
      3.168  0.3692E-01  0.1436E+00
      3.252  0.3831E-01  0.1468E+00
      3.335  0.3235E-01  0.1495E+00
      3.419  0.3974E-01  0.1528E+00
      3.503  0.4100E-01  0.1563E+00
      3.587  0.4302E-01  0.1599E+00
      3.671  0.3307E-01  0.1627E+00
      3.755  0.3712E-01  0.1658E+00
      3.838  0.3563E-01  0.1687E+00
      3.922  0.4064E-01  0.1722E+00
      4.006  0.3700E-01  0.1753E+00
      4.090  0.5834E-01  0.1801E+00
      4.174  0.3900E-01  0.1834E+00
      4.257  0.2146E-01  0.1852E+00
      4.341  0.3369E-01  0.1880E+00
      4.425  0.3592E-01  0.1910E+00
      4.509  0.2439E-01  0.1931E+00
      4.593  0.3391E-01  0.1959E+00
      4.676  0.3859E-01  0.1992E+00
      4.760  0.3242E-01  0.2019E+00
      4.844  0.3780E-01  0.2051E+00
      4.928  0.4026E-01  0.2084E+00
      5.012  0.4142E-01  0.2119E+00
      5.096  0.4489E-01  0.2157E+00
      5.179  0.4210E-01  0.2192E+00
      5.263  0.3288E-01  0.2219E+00
      5.347  0.4050E-01  0.2253E+00
      5.431  0.3322E-01  0.2281E+00
      5.515  0.2896E-01  0.2306E+00
      5.598  0.3512E-01  0.2335E+00
      5.682  0.3073E-01  0.2361E+00
      5.766  0.2838E-01  0.2384E+00
      5.850  0.3826E-01  0.2417E+00
      5.934  0.4876E-01  0.2457E+00
      6.018  0.4918E-01  0.2499E+00
      6.101  0.4995E-01  0.2541E+00
      6.185  0.5478E-01  0.2586E+00
      6.269  0.4443E-01  0.2624E+00
      6.353  0.4774E-01  0.2664E+00
      6.437  0.4539E-01  0.2702E+00
      6.520  0.3325E-01  0.2730E+00
      6.604  0.4536E-01  0.2768E+00
      6.688  0.4852E-01  0.2808E+00
      6.772  0.4740E-01  0.2848E+00
      6.856  0.3862E-01  0.2880E+00
      6.939  0.4803E-01  0.2921E+00
      7.023  0.2973E-01  0.2946E+00
      7.107  0.4334E-01  0.2982E+00
      7.191  0.4290E-01  0.3018E+00
      7.275  0.4032E-01  0.3052E+00
      7.359  0.5257E-01  0.3096E+00
      7.442  0.4645E-01  0.3135E+00
      7.526  0.4272E-01  0.3170E+00
      7.610  0.3604E-01  0.3201E+00
      7.694  0.4129E-01  0.3235E+00
      7.778  0.4717E-01  0.3275E+00
      7.861  0.5045E-01  0.3317E+00
      7.945  0.5761E-01  0.3365E+00
      8.029  0.6205E-01  0.3417E+00
      8.113  0.3867E-01  0.3450E+00
      8.197  0.3639E-01  0.3480E+00
      8.280  0.3338E-01  0.3508E+00
      8.364  0.6484E-01  0.3563E+00
      8.448  0.4428E-01  0.3600E+00
      8.532  0.3708E-01  0.3631E+00
      8.616  0.4474E-01  0.3668E+00
      8.700  0.4405E-01  0.3705E+00
      8.783  0.4919E-01  0.3746E+00
      8.867  0.6106E-01  0.3798E+00
      8.951  0.5491E-01  0.3844E+00
      9.035  0.6811E-01  0.3901E+00
      9.119  0.6657E-01  0.3956E+00
      9.202  0.5094E-01  0.3999E+00
      9.286  0.5672E-01  0.4047E+00
      9.370  0.5384E-01  0.4092E+00
      9.454  0.5559E-01  0.4138E+00
      9.538  0.7047E-01  0.4197E+00
      9.621  0.7103E-01  0.4257E+00
      9.705  0.8922E-01  0.4332E+00
      9.789  0.5977E-01  0.4382E+00
      9.873  0.5121E-01  0.4425E+00
      9.957  0.7420E-01  0.4487E+00
     10.041  0.5583E-01  0.4534E+00
     10.124  0.4463E-01  0.4571E+00
     10.208  0.4504E-01  0.4609E+00
     10.292  0.5320E-01  0.4654E+00
     10.376  0.3382E-01  0.4682E+00
     10.460  0.2726E-01  0.4705E+00
     10.543  0.2824E-01  0.4728E+00
     10.627  0.2282E-01  0.4748E+00
     10.711  0.1215E-01  0.4758E+00
     10.795  0.1168E-01  0.4768E+00
     10.879  0.1129E-01  0.4777E+00
     10.963  0.9524E-02  0.4785E+00
     11.046  0.5765E-02  0.4790E+00
     11.130  0.5926E-02  0.4795E+00
     11.214  0.4365E-02  0.4798E+00
     11.298  0.1816E-02  0.4800E+00
     11.382  0.6938E-04  0.4800E+00
     11.465  0.5833E-07  0.4800E+00
     11.549  0.2933E-12  0.4800E+00
     11.633  0.0000E+00  0.4800E+00
     11.717  0.2878E-15  0.4800E+00
     11.801  0.9068E-09  0.4800E+00
     11.884  0.1265E-04  0.4800E+00
     11.968  0.1098E-02  0.4801E+00
     12.052  0.1723E-02  0.4802E+00
     12.136  0.3597E-02  0.4805E+00
     12.220  0.8927E-02  0.4813E+00
     12.304  0.6079E-02  0.4818E+00
     12.387  0.8562E-02  0.4825E+00
     12.471  0.1732E-01  0.4840E+00
     12.555  0.3088E-01  0.4866E+00
     12.639  0.2530E-01  0.4887E+00
     12.723  0.1289E-01  0.4898E+00
     12.806  0.9818E-02  0.4906E+00
     12.890  0.7338E-02  0.4912E+00
     12.974  0.1709E-01  0.4926E+00
     13.058  0.9913E-02  0.4935E+00
     13.142  0.2816E-01  0.4958E+00
     13.225  0.3404E-01  0.4987E+00
     13.309  0.3468E-01  0.5016E+00
     13.393  0.3612E-01  0.5046E+00
     13.477  0.2125E-01  0.5064E+00
     13.561  0.2006E-01  0.5081E+00
     13.645  0.2820E-01  0.5104E+00
     13.728  0.3230E-01  0.5131E+00
     13.812  0.3803E-01  0.5163E+00
     13.896  0.2411E-01  0.5183E+00
     13.980  0.2914E-01  0.5208E+00
     14.064  0.2014E-01  0.5225E+00
     14.147  0.2534E-01  0.5246E+00
     14.231  0.1829E-01  0.5261E+00
     14.315  0.1571E-01  0.5274E+00
     14.399  0.1879E-01  0.5290E+00
     14.483  0.2297E-01  0.5309E+00
     14.566  0.2221E-01  0.5328E+00
     14.650  0.3212E-01  0.5355E+00
     14.734  0.5863E-01  0.5404E+00
     14.818  0.5720E-01  0.5452E+00
     14.902  0.4126E-01  0.5487E+00
     14.986  0.4769E-01  0.5527E+00
     15.069  0.3554E-01  0.5556E+00
     15.153  0.4176E-01  0.5591E+00
     15.237  0.3333E-01  0.5619E+00
     15.321  0.4221E-01  0.5655E+00
     15.405  0.3854E-01  0.5687E+00
     15.488  0.4649E-01  0.5726E+00
     15.572  0.4031E-01  0.5760E+00
     15.656  0.3664E-01  0.5791E+00
     15.740  0.4304E-01  0.5827E+00
     15.824  0.4273E-01  0.5862E+00
     15.907  0.2958E-01  0.5887E+00
     15.991  0.4354E-01  0.5924E+00
     16.075  0.4749E-01  0.5963E+00
     16.159  0.4180E-01  0.5999E+00
     16.243  0.3259E-01  0.6026E+00
     16.327  0.4446E-01  0.6063E+00
     16.410  0.4147E-01  0.6098E+00
     16.494  0.3900E-01  0.6131E+00
     16.578  0.3727E-01  0.6162E+00
     16.662  0.3307E-01  0.6189E+00
     16.746  0.4336E-01  0.6226E+00
     16.829  0.4254E-01  0.6261E+00
     16.913  0.3874E-01  0.6294E+00
     16.997  0.3788E-01  0.6326E+00
     17.081  0.2467E-01  0.6346E+00
     17.165  0.2889E-01  0.6371E+00
     17.249  0.3723E-01  0.6402E+00
     17.332  0.3777E-01  0.6433E+00
     17.416  0.3667E-01  0.6464E+00
     17.500  0.2788E-01  0.6488E+00
     17.584  0.1724E-01  0.6502E+00
     17.668  0.2816E-01  0.6526E+00
     17.751  0.3243E-01  0.6553E+00
     17.835  0.3167E-01  0.6579E+00
     17.919  0.2134E-01  0.6597E+00
     18.003  0.3201E-02  0.6600E+00
     18.087  0.1217E-03  0.6600E+00
     18.170  0.7902E-07  0.6600E+00
     18.254  0.2884E-12  0.6600E+00
     18.338  0.0000E+00  0.6600E+00
     18.422  0.0000E+00  0.6600E+00
     18.506  0.0000E+00  0.6600E+00
     18.590  0.0000E+00  0.6600E+00
     18.673  0.0000E+00  0.6600E+00
     18.757  0.0000E+00  0.6600E+00
     18.841  0.0000E+00  0.6600E+00
     18.925  0.0000E+00  0.6600E+00
     19.009  0.0000E+00  0.6600E+00
     19.092  0.0000E+00  0.6600E+00
