Al4C3 Pnma (POSCAR.IV, symmetrized via s
   1.00000000000000     
     8.3719974328322451    0.0000000000000000    0.0000000000000000
     0.0000000000000000    2.8881869711392234    0.0000000000000000
     0.0000000000000000    0.0000000000000000    9.9519474192031971
   Al   C 
    16    12
Direct
  0.2640312995364869  0.2500000000000000  0.2988306186382241
  0.2359687004635130  0.7500000000000000  0.7988306186382241
  0.7359687004635131  0.7500000000000000  0.7011693813617759
  0.7640312995364869  0.2500000000000000  0.2011693813617760
  0.3485218824763540  0.2500000000000000  0.0117366382430260
  0.1514781175236461  0.7500000000000000  0.5117366382430260
  0.6514781175236460  0.7500000000000000  0.9882633617569740
  0.8485218824763540  0.2500000000000000  0.4882633617569740
  0.5218437130064749  0.2500000000000000  0.7943690055232954
  0.9781562869935251  0.7500000000000000  0.2943690055232956
  0.4781562869935250  0.7500000000000000  0.2056309944767045
  0.0218437130064749  0.2500000000000000  0.7056309944767046
  0.0703662847030614  0.2500000000000000  0.0887724537279555
  0.4296337152969457  0.7500000000000000  0.5887724537279556
  0.9296337152969384  0.7500000000000000  0.9112275462720444
  0.5703662847030616  0.2500000000000000  0.4112275462720445
  0.2576966954264656  0.2500000000000000  0.6416483868718400
  0.2423033045735342  0.7500000000000000  0.1416483868718403
  0.7423033045735342  0.7500000000000000  0.3583516131281596
  0.7576966954264658  0.2500000000000000  0.8583516131281600
  0.6024856117947658  0.2500000000000000  0.6089146268655132
  0.8975143882052342  0.7500000000000000  0.1089146268655133
  0.3975143882052344  0.7500000000000000  0.3910853731344867
  0.1024856117947657  0.2500000000000000  0.8910853731344868
  0.0651567073941844  0.2500000000000000  0.3887788044309074
  0.4348432926058156  0.7500000000000000  0.8887788044309073
  0.9348432926058156  0.7500000000000000  0.6112211955690927
  0.5651567073941844  0.2500000000000000  0.1112211955690926
 
  0.00000000E+00  0.00000000E+00  0.00000000E+00
  0.00000000E+00  0.00000000E+00  0.00000000E+00
  0.00000000E+00  0.00000000E+00  0.00000000E+00
  0.00000000E+00  0.00000000E+00  0.00000000E+00
  0.00000000E+00  0.00000000E+00  0.00000000E+00
  0.00000000E+00  0.00000000E+00  0.00000000E+00
  0.00000000E+00  0.00000000E+00  0.00000000E+00
  0.00000000E+00  0.00000000E+00  0.00000000E+00
  0.00000000E+00  0.00000000E+00  0.00000000E+00
  0.00000000E+00  0.00000000E+00  0.00000000E+00
  0.00000000E+00  0.00000000E+00  0.00000000E+00
  0.00000000E+00  0.00000000E+00  0.00000000E+00
  0.00000000E+00  0.00000000E+00  0.00000000E+00
  0.00000000E+00  0.00000000E+00  0.00000000E+00
  0.00000000E+00  0.00000000E+00  0.00000000E+00
  0.00000000E+00  0.00000000E+00  0.00000000E+00
  0.00000000E+00  0.00000000E+00  0.00000000E+00
  0.00000000E+00  0.00000000E+00  0.00000000E+00
  0.00000000E+00  0.00000000E+00  0.00000000E+00
  0.00000000E+00  0.00000000E+00  0.00000000E+00
  0.00000000E+00  0.00000000E+00  0.00000000E+00
  0.00000000E+00  0.00000000E+00  0.00000000E+00
  0.00000000E+00  0.00000000E+00  0.00000000E+00
  0.00000000E+00  0.00000000E+00  0.00000000E+00
  0.00000000E+00  0.00000000E+00  0.00000000E+00
  0.00000000E+00  0.00000000E+00  0.00000000E+00
  0.00000000E+00  0.00000000E+00  0.00000000E+00
  0.00000000E+00  0.00000000E+00  0.00000000E+00
