Al4C3 Pnma - H(P) scan @ 30 GPa (ISIF=8)
           1
     8.371997    0.000000    0.000000
     0.000000    2.888187    0.000000
     0.000000    0.000000    9.951947
   Al   C 
    16    12
Direct configuration=     1
   0.26403130  0.25000000  0.29883062
   0.23596870  0.75000000  0.79883062
   0.73596870  0.75000000  0.70116938
   0.76403130  0.25000000  0.20116938
   0.34852188  0.25000000  0.01173664
   0.15147812  0.75000000  0.51173664
   0.65147812  0.75000000  0.98826336
   0.84852188  0.25000000  0.48826336
   0.52184371  0.25000000  0.79436901
   0.97815629  0.75000000  0.29436901
   0.47815629  0.75000000  0.20563099
   0.02184371  0.25000000  0.70563099
   0.07036628  0.25000000  0.08877245
   0.42963372  0.75000000  0.58877245
   0.92963372  0.75000000  0.91122755
   0.57036628  0.25000000  0.41122755
   0.25769670  0.25000000  0.64164839
   0.24230330  0.75000000  0.14164839
   0.74230330  0.75000000  0.35835161
   0.75769670  0.25000000  0.85835161
   0.60248561  0.25000000  0.60891463
   0.89751439  0.75000000  0.10891463
   0.39751439  0.75000000  0.39108537
   0.10248561  0.25000000  0.89108537
   0.06515671  0.25000000  0.38877880
   0.43484329  0.75000000  0.88877880
   0.93484329  0.75000000  0.61122120
   0.56515671  0.25000000  0.11122120
Al4C3 Pnma - H(P) scan @ 30 GPa (ISIF=8)
           1
     8.588098    0.000000    0.000000
     0.000000    2.962738    0.000000
     0.000000    0.000000   10.208830
   Al   C 
    16    12
Direct configuration=     2
   0.26402737  0.25000000  0.29884482
   0.23597263  0.75000000  0.79884482
   0.73597263  0.75000000  0.70115518
   0.76402737  0.25000000  0.20115518
   0.34851153  0.25000000  0.01175001
   0.15148847  0.75000000  0.51175001
   0.65148847  0.75000000  0.98824999
   0.84851153  0.25000000  0.48824999
   0.52183969  0.25000000  0.79437884
   0.97816031  0.75000000  0.29437884
   0.47816031  0.75000000  0.20562116
   0.02183969  0.25000000  0.70562116
   0.07038445  0.25000000  0.08877049
   0.42961555  0.75000000  0.58877049
   0.92961555  0.75000000  0.91122951
   0.57038445  0.25000000  0.41122951
   0.25771325  0.25000000  0.64163847
   0.24228675  0.75000000  0.14163847
   0.74228675  0.75000000  0.35836153
   0.75771325  0.25000000  0.85836153
   0.60248238  0.25000000  0.60890189
   0.89751762  0.75000000  0.10890189
   0.39751762  0.75000000  0.39109811
   0.10248238  0.25000000  0.89109811
   0.06515063  0.25000000  0.38876678
   0.43484937  0.75000000  0.88876678
   0.93484937  0.75000000  0.61123322
   0.56515063  0.25000000  0.11123322
Al4C3 Pnma - H(P) scan @ 30 GPa (ISIF=8)
           1
     8.462358    0.000000    0.000000
     0.000000    2.919360    0.000000
     0.000000    0.000000   10.059361
   Al   C 
    16    12
Direct configuration=     3
   0.26402960  0.25000000  0.29883676
   0.23597040  0.75000000  0.79883676
   0.73597040  0.75000000  0.70116324
   0.76402960  0.25000000  0.20116324
   0.34851740  0.25000000  0.01174243
   0.15148260  0.75000000  0.51174243
   0.65148260  0.75000000  0.98825757
   0.84851740  0.25000000  0.48825757
   0.52184197  0.25000000  0.79437326
   0.97815803  0.75000000  0.29437326
   0.47815803  0.75000000  0.20562674
   0.02184197  0.25000000  0.70562674
   0.07037415  0.25000000  0.08877160
   0.42962585  0.75000000  0.58877160
   0.92962585  0.75000000  0.91122840
   0.57037415  0.25000000  0.41122840
   0.25770386  0.25000000  0.64164409
   0.24229614  0.75000000  0.14164409
   0.74229614  0.75000000  0.35835591
   0.75770386  0.25000000  0.85835591
   0.60248421  0.25000000  0.60890912
   0.89751579  0.75000000  0.10890912
   0.39751579  0.75000000  0.39109088
   0.10248421  0.25000000  0.89109088
   0.06515408  0.25000000  0.38877360
   0.43484592  0.75000000  0.88877360
   0.93484592  0.75000000  0.61122640
   0.56515408  0.25000000  0.11122640
Al4C3 Pnma - H(P) scan @ 30 GPa (ISIF=8)
           1
     8.461471    0.000000    0.000000
     0.000000    2.919054    0.000000
     0.000000    0.000000   10.058307
   Al   C 
    16    12
Direct configuration=     4
   0.26402961  0.25000000  0.29883671
   0.23597039  0.75000000  0.79883671
   0.73597039  0.75000000  0.70116329
   0.76402961  0.25000000  0.20116329
   0.34851745  0.25000000  0.01174237
   0.15148255  0.75000000  0.51174237
   0.65148255  0.75000000  0.98825763
   0.84851745  0.25000000  0.48825763
   0.52184199  0.25000000  0.79437322
   0.97815801  0.75000000  0.29437322
   0.47815801  0.75000000  0.20562678
   0.02184199  0.25000000  0.70562678
   0.07037407  0.25000000  0.08877161
   0.42962593  0.75000000  0.58877161
   0.92962593  0.75000000  0.91122839
   0.57037407  0.25000000  0.41122839
   0.25770379  0.25000000  0.64164413
   0.24229621  0.75000000  0.14164413
   0.74229621  0.75000000  0.35835587
   0.75770379  0.25000000  0.85835587
   0.60248423  0.25000000  0.60890917
   0.89751577  0.75000000  0.10890917
   0.39751577  0.75000000  0.39109083
   0.10248423  0.25000000  0.89109083
   0.06515410  0.25000000  0.38877365
   0.43484590  0.75000000  0.88877365
   0.93484590  0.75000000  0.61122635
   0.56515410  0.25000000  0.11122635
Al4C3 Pnma - H(P) scan @ 30 GPa (ISIF=8)
           1
     8.461259    0.000000    0.000000
     0.000000    2.918981    0.000000
     0.000000    0.000000   10.058054
   Al   C 
    16    12
Direct configuration=     5
   0.26402962  0.25000000  0.29883669
   0.23597038  0.75000000  0.79883669
   0.73597038  0.75000000  0.70116331
   0.76402962  0.25000000  0.20116331
   0.34851746  0.25000000  0.01174236
   0.15148254  0.75000000  0.51174236
   0.65148254  0.75000000  0.98825764
   0.84851746  0.25000000  0.48825764
   0.52184199  0.25000000  0.79437321
   0.97815801  0.75000000  0.29437321
   0.47815801  0.75000000  0.20562679
   0.02184199  0.25000000  0.70562679
   0.07037406  0.25000000  0.08877161
   0.42962594  0.75000000  0.58877161
   0.92962594  0.75000000  0.91122839
   0.57037406  0.25000000  0.41122839
   0.25770378  0.25000000  0.64164414
   0.24229622  0.75000000  0.14164414
   0.74229622  0.75000000  0.35835586
   0.75770378  0.25000000  0.85835586
   0.60248423  0.25000000  0.60890918
   0.89751577  0.75000000  0.10890918
   0.39751577  0.75000000  0.39109082
   0.10248423  0.25000000  0.89109082
   0.06515411  0.25000000  0.38877366
   0.43484589  0.75000000  0.88877366
   0.93484589  0.75000000  0.61122634
   0.56515411  0.25000000  0.11122634
Al4C3 Pnma - H(P) scan @ 30 GPa (ISIF=8)
           1
     8.463024    0.000000    0.000000
     0.000000    2.919590    0.000000
     0.000000    0.000000   10.060152
   Al   C 
    16    12
Direct configuration=     6
   0.26377986  0.25000000  0.29909309
   0.23622014  0.75000000  0.79909309
   0.73622014  0.75000000  0.70090691
   0.76377986  0.25000000  0.20090691
   0.34897435  0.25000000  0.01177704
   0.15102565  0.75000000  0.51177704
   0.65102565  0.75000000  0.98822296
   0.84897435  0.25000000  0.48822296
   0.52198907  0.25000000  0.79474411
   0.97801093  0.75000000  0.29474411
   0.47801093  0.75000000  0.20525589
   0.02198907  0.25000000  0.70525589
   0.07043170  0.25000000  0.08840845
   0.42956830  0.75000000  0.58840845
   0.92956830  0.75000000  0.91159155
   0.57043170  0.25000000  0.41159155
   0.25740961  0.25000000  0.64164147
   0.24259039  0.75000000  0.14164147
   0.74259039  0.75000000  0.35835853
   0.75740961  0.25000000  0.85835853
   0.60206483  0.25000000  0.60923699
   0.89793517  0.75000000  0.10923699
   0.39793517  0.75000000  0.39076301
   0.10206483  0.25000000  0.89076301
   0.06522896  0.25000000  0.38839081
   0.43477104  0.75000000  0.88839081
   0.93477104  0.75000000  0.61160919
   0.56522896  0.25000000  0.11160919
Al4C3 Pnma - H(P) scan @ 30 GPa (ISIF=8)
           1
     8.463390    0.000000    0.000000
     0.000000    2.919716    0.000000
     0.000000    0.000000   10.060588
   Al   C 
    16    12
Direct configuration=     7
   0.26372807  0.25000000  0.29914625
   0.23627193  0.75000000  0.79914625
   0.73627193  0.75000000  0.70085375
   0.76372807  0.25000000  0.20085375
   0.34906908  0.25000000  0.01178423
   0.15093092  0.75000000  0.51178423
   0.65093092  0.75000000  0.98821577
   0.84906908  0.25000000  0.48821577
   0.52201957  0.25000000  0.79482102
   0.97798043  0.75000000  0.29482102
   0.47798043  0.75000000  0.20517898
   0.02201957  0.25000000  0.70517898
   0.07044365  0.25000000  0.08833315
   0.42955635  0.75000000  0.58833315
   0.92955635  0.75000000  0.91166685
   0.57044365  0.25000000  0.41166685
   0.25734862  0.25000000  0.64164092
   0.24265138  0.75000000  0.14164092
   0.74265138  0.75000000  0.35835908
   0.75734862  0.25000000  0.85835908
   0.60197786  0.25000000  0.60930496
   0.89802214  0.75000000  0.10930496
   0.39802214  0.75000000  0.39069504
   0.10197786  0.25000000  0.89069504
   0.06524448  0.25000000  0.38831143
   0.43475552  0.75000000  0.88831143
   0.93475552  0.75000000  0.61168857
   0.56524448  0.25000000  0.11168857
Al4C3 Pnma - H(P) scan @ 30 GPa (ISIF=8)
           1
     8.464889    0.000000    0.000000
     0.000000    2.920233    0.000000
     0.000000    0.000000   10.062369
   Al   C 
    16    12
Direct configuration=     8
   0.26399706  0.25000000  0.29923764
   0.23600294  0.75000000  0.79923764
   0.73600294  0.75000000  0.70076236
   0.76399706  0.25000000  0.20076236
   0.34947078  0.25000000  0.01194747
   0.15052922  0.75000000  0.51194747
   0.65052922  0.75000000  0.98805253
   0.84947078  0.25000000  0.48805253
   0.52254766  0.25000000  0.79480822
   0.97745234  0.75000000  0.29480822
   0.47745234  0.75000000  0.20519178
   0.02254766  0.25000000  0.70519178
   0.07075112  0.25000000  0.08810837
   0.42924888  0.75000000  0.58810837
   0.92924888  0.75000000  0.91189163
   0.57075112  0.25000000  0.41189163
   0.25699372  0.25000000  0.64146557
   0.24300628  0.75000000  0.14146557
   0.74300628  0.75000000  0.35853443
   0.75699372  0.25000000  0.85853443
   0.60148824  0.25000000  0.60967530
   0.89851176  0.75000000  0.10967530
   0.39851176  0.75000000  0.39032470
   0.10148824  0.25000000  0.89032470
   0.06526771  0.25000000  0.38835783
   0.43473229  0.75000000  0.88835783
   0.93473229  0.75000000  0.61164217
   0.56526771  0.25000000  0.11164217
Al4C3 Pnma - H(P) scan @ 30 GPa (ISIF=8)
           1
     8.464987    0.000000    0.000000
     0.000000    2.920267    0.000000
     0.000000    0.000000   10.062486
   Al   C 
    16    12
Direct configuration=     9
   0.26401476  0.25000000  0.29924366
   0.23598524  0.75000000  0.79924366
   0.73598524  0.75000000  0.70075634
   0.76401476  0.25000000  0.20075634
   0.34949722  0.25000000  0.01195821
   0.15050278  0.75000000  0.51195821
   0.65050278  0.75000000  0.98804179
   0.84949722  0.25000000  0.48804179
   0.52258241  0.25000000  0.79480738
   0.97741759  0.75000000  0.29480738
   0.47741759  0.75000000  0.20519262
   0.02258241  0.25000000  0.70519262
   0.07077135  0.25000000  0.08809357
   0.42922865  0.75000000  0.58809357
   0.92922865  0.75000000  0.91190643
   0.57077135  0.25000000  0.41190643
   0.25697037  0.25000000  0.64145403
   0.24302963  0.75000000  0.14145403
   0.74302963  0.75000000  0.35854597
   0.75697037  0.25000000  0.85854597
   0.60145602  0.25000000  0.60969967
   0.89854398  0.75000000  0.10969967
   0.39854398  0.75000000  0.39030033
   0.10145602  0.25000000  0.89030033
   0.06526923  0.25000000  0.38836088
   0.43473077  0.75000000  0.88836088
   0.93473077  0.75000000  0.61163912
   0.56526923  0.25000000  0.11163912
Al4C3 Pnma - H(P) scan @ 30 GPa (ISIF=8)
           1
     8.465147    0.000000    0.000000
     0.000000    2.920322    0.000000
     0.000000    0.000000   10.062677
   Al   C 
    16    12
Direct configuration=    10
   0.26410515  0.25000000  0.29933271
   0.23589485  0.75000000  0.79933271
   0.73589485  0.75000000  0.70066729
   0.76410515  0.25000000  0.20066729
   0.34980303  0.25000000  0.01200062
   0.15019697  0.75000000  0.51200062
   0.65019697  0.75000000  0.98799938
   0.84980303  0.25000000  0.48799938
   0.52259486  0.25000000  0.79489028
   0.97740514  0.75000000  0.29489028
   0.47740514  0.75000000  0.20510972
   0.02259486  0.25000000  0.70510972
   0.07123443  0.25000000  0.08816322
   0.42876557  0.75000000  0.58816322
   0.92876557  0.75000000  0.91183678
   0.57123443  0.25000000  0.41183678
   0.25680334  0.25000000  0.64119882
   0.24319666  0.75000000  0.14119882
   0.74319666  0.75000000  0.35880118
   0.75680334  0.25000000  0.85880118
   0.60115865  0.25000000  0.60966450
   0.89884135  0.75000000  0.10966450
   0.39884135  0.75000000  0.39033550
   0.10115865  0.25000000  0.89033550
   0.06539496  0.25000000  0.38838017
   0.43460504  0.75000000  0.88838017
   0.93460504  0.75000000  0.61161983
   0.56539496  0.25000000  0.11161983
Al4C3 Pnma - H(P) scan @ 30 GPa (ISIF=8)
           1
     8.465184    0.000000    0.000000
     0.000000    2.920335    0.000000
     0.000000    0.000000   10.062720
   Al   C 
    16    12
Direct configuration=    11
   0.26412576  0.25000000  0.29935302
   0.23587424  0.75000000  0.79935302
   0.73587424  0.75000000  0.70064698
   0.76412576  0.25000000  0.20064698
   0.34987276  0.25000000  0.01201029
   0.15012724  0.75000000  0.51201029
   0.65012724  0.75000000  0.98798971
   0.84987276  0.25000000  0.48798971
   0.52259770  0.25000000  0.79490918
   0.97740230  0.75000000  0.29490918
   0.47740230  0.75000000  0.20509082
   0.02259770  0.25000000  0.70509082
   0.07134001  0.25000000  0.08817910
   0.42865999  0.75000000  0.58817910
   0.92865999  0.75000000  0.91182090
   0.57134001  0.25000000  0.41182090
   0.25676526  0.25000000  0.64114063
   0.24323474  0.75000000  0.14114063
   0.74323474  0.75000000  0.35885937
   0.75676526  0.25000000  0.85885937
   0.60109085  0.25000000  0.60965648
   0.89890915  0.75000000  0.10965648
   0.39890915  0.75000000  0.39034352
   0.10109085  0.25000000  0.89034352
   0.06542363  0.25000000  0.38838456
   0.43457637  0.75000000  0.88838456
   0.93457637  0.75000000  0.61161544
   0.56542363  0.25000000  0.11161544
Al4C3 Pnma - H(P) scan @ 30 GPa (ISIF=8)
           1
     8.465567    0.000000    0.000000
     0.000000    2.920467    0.000000
     0.000000    0.000000   10.063176
   Al   C 
    16    12
Direct configuration=    12
   0.26435750  0.25000000  0.29951437
   0.23564250  0.75000000  0.79951437
   0.73564250  0.75000000  0.70048563
   0.76435750  0.25000000  0.20048563
   0.34994999  0.25000000  0.01197130
   0.15005001  0.75000000  0.51197130
   0.65005001  0.75000000  0.98802870
   0.84994999  0.25000000  0.48802870
   0.52243172  0.25000000  0.79484670
   0.97756828  0.75000000  0.29484670
   0.47756828  0.75000000  0.20515330
   0.02243172  0.25000000  0.70515330
   0.07150096  0.25000000  0.08815996
   0.42849904  0.75000000  0.58815996
   0.92849904  0.75000000  0.91184004
   0.57150096  0.25000000  0.41184004
   0.25658806  0.25000000  0.64106530
   0.24341194  0.75000000  0.14106530
   0.74341194  0.75000000  0.35893470
   0.75658806  0.25000000  0.85893470
   0.60100781  0.25000000  0.60968523
   0.89899219  0.75000000  0.10968523
   0.39899219  0.75000000  0.39031477
   0.10100781  0.25000000  0.89031477
   0.06554379  0.25000000  0.38834152
   0.43445621  0.75000000  0.88834152
   0.93445621  0.75000000  0.61165848
   0.56554379  0.25000000  0.11165848
Al4C3 Pnma - H(P) scan @ 30 GPa (ISIF=8)
           1
     8.466028    0.000000    0.000000
     0.000000    2.920626    0.000000
     0.000000    0.000000   10.063723
   Al   C 
    16    12
Direct configuration=    13
   0.26463585  0.25000000  0.29970819
   0.23536415  0.75000000  0.79970819
   0.73536415  0.75000000  0.70029181
   0.76463585  0.25000000  0.20029181
   0.35004276  0.25000000  0.01192447
   0.14995724  0.75000000  0.51192447
   0.64995724  0.75000000  0.98807553
   0.85004276  0.25000000  0.48807553
   0.52223236  0.25000000  0.79477165
   0.97776764  0.75000000  0.29477165
   0.47776764  0.75000000  0.20522835
   0.02223236  0.25000000  0.70522835
   0.07169427  0.25000000  0.08813697
   0.42830573  0.75000000  0.58813697
   0.92830573  0.75000000  0.91186303
   0.57169427  0.25000000  0.41186303
   0.25637522  0.25000000  0.64097481
   0.24362478  0.75000000  0.14097481
   0.74362478  0.75000000  0.35902519
   0.75637522  0.25000000  0.85902519
   0.60090806  0.25000000  0.60971976
   0.89909194  0.75000000  0.10971976
   0.39909194  0.75000000  0.39028024
   0.10090806  0.25000000  0.89028024
   0.06568811  0.25000000  0.38828982
   0.43431189  0.75000000  0.88828982
   0.93431189  0.75000000  0.61171018
   0.56568811  0.25000000  0.11171018
Al4C3 Pnma - H(P) scan @ 30 GPa (ISIF=8)
           1
     8.465345    0.000000    0.000000
     0.000000    2.920390    0.000000
     0.000000    0.000000   10.062912
   Al   C 
    16    12
Direct configuration=    14
   0.26489817  0.25000000  0.29972074
   0.23510183  0.75000000  0.79972074
   0.73510183  0.75000000  0.70027926
   0.76489817  0.25000000  0.20027926
   0.35014643  0.25000000  0.01205179
   0.14985357  0.75000000  0.51205179
   0.64985357  0.75000000  0.98794821
   0.85014643  0.25000000  0.48794821
   0.52197142  0.25000000  0.79473726
   0.97802858  0.75000000  0.29473726
   0.47802858  0.75000000  0.20526274
   0.02197142  0.25000000  0.70526274
   0.07182381  0.25000000  0.08806924
   0.42817619  0.75000000  0.58806924
   0.92817619  0.75000000  0.91193076
   0.57182381  0.25000000  0.41193076
   0.25621505  0.25000000  0.64105564
   0.24378495  0.75000000  0.14105564
   0.74378495  0.75000000  0.35894436
   0.75621505  0.25000000  0.85894436
   0.60071663  0.25000000  0.60966551
   0.89928337  0.75000000  0.10966551
   0.39928337  0.75000000  0.39033449
   0.10071663  0.25000000  0.89033449
   0.06578814  0.25000000  0.38823281
   0.43421186  0.75000000  0.88823281
   0.93421186  0.75000000  0.61176719
   0.56578814  0.25000000  0.11176719
Al4C3 Pnma - H(P) scan @ 30 GPa (ISIF=8)
           1
     8.464825    0.000000    0.000000
     0.000000    2.920211    0.000000
     0.000000    0.000000   10.062293
   Al   C 
    16    12
Direct configuration=    15
   0.26509811  0.25000000  0.29973030
   0.23490189  0.75000000  0.79973030
   0.73490189  0.75000000  0.70026970
   0.76509811  0.25000000  0.20026970
   0.35022544  0.25000000  0.01214884
   0.14977456  0.75000000  0.51214884
   0.64977456  0.75000000  0.98785116
   0.85022544  0.25000000  0.48785116
   0.52177252  0.25000000  0.79471105
   0.97822748  0.75000000  0.29471105
   0.47822748  0.75000000  0.20528895
   0.02177252  0.25000000  0.70528895
   0.07192254  0.25000000  0.08801763
   0.42807746  0.75000000  0.58801763
   0.92807746  0.75000000  0.91198237
   0.57192254  0.25000000  0.41198237
   0.25609297  0.25000000  0.64111726
   0.24390703  0.75000000  0.14111726
   0.74390703  0.75000000  0.35888274
   0.75609297  0.25000000  0.85888274
   0.60057071  0.25000000  0.60962417
   0.89942929  0.75000000  0.10962417
   0.39942929  0.75000000  0.39037583
   0.10057071  0.25000000  0.89037583
   0.06586438  0.25000000  0.38818936
   0.43413562  0.75000000  0.88818936
   0.93413562  0.75000000  0.61181064
   0.56586438  0.25000000  0.11181064
Al4C3 Pnma - H(P) scan @ 30 GPa (ISIF=8)
           1
     8.465820    0.000000    0.000000
     0.000000    2.920554    0.000000
     0.000000    0.000000   10.063476
   Al   C 
    16    12
Direct configuration=    16
   0.26520236  0.25000000  0.29973560
   0.23479764  0.75000000  0.79973560
   0.73479764  0.75000000  0.70026440
   0.76520236  0.25000000  0.20026440
   0.35031751  0.25000000  0.01225211
   0.14968249  0.75000000  0.51225211
   0.64968249  0.75000000  0.98774789
   0.85031751  0.25000000  0.48774789
   0.52158435  0.25000000  0.79463170
   0.97841565  0.75000000  0.29463170
   0.47841565  0.75000000  0.20536830
   0.02158435  0.25000000  0.70536830
   0.07198515  0.25000000  0.08800218
   0.42801485  0.75000000  0.58800218
   0.92801485  0.75000000  0.91199782
   0.57198515  0.25000000  0.41199782
   0.25600154  0.25000000  0.64119035
   0.24399846  0.75000000  0.14119035
   0.74399846  0.75000000  0.35880965
   0.75600154  0.25000000  0.85880965
   0.60043532  0.25000000  0.60963498
   0.89956468  0.75000000  0.10963498
   0.39956468  0.75000000  0.39036502
   0.10043532  0.25000000  0.89036502
   0.06601036  0.25000000  0.38821600
   0.43398964  0.75000000  0.88821600
   0.93398964  0.75000000  0.61178400
   0.56601036  0.25000000  0.11178400
Al4C3 Pnma - H(P) scan @ 30 GPa (ISIF=8)
           1
     8.467123    0.000000    0.000000
     0.000000    2.921004    0.000000
     0.000000    0.000000   10.065025
   Al   C 
    16    12
Direct configuration=    17
   0.26533881  0.25000000  0.29974254
   0.23466119  0.75000000  0.79974254
   0.73466119  0.75000000  0.70025746
   0.76533881  0.25000000  0.20025746
   0.35043801  0.25000000  0.01238727
   0.14956199  0.75000000  0.51238727
   0.64956199  0.75000000  0.98761273
   0.85043801  0.25000000  0.48761273
   0.52133809  0.25000000  0.79452785
   0.97866191  0.75000000  0.29452785
   0.47866191  0.75000000  0.20547215
   0.02133809  0.25000000  0.70547215
   0.07206709  0.25000000  0.08798197
   0.42793291  0.75000000  0.58798197
   0.92793291  0.75000000  0.91201803
   0.57206709  0.25000000  0.41201803
   0.25588188  0.25000000  0.64128601
   0.24411812  0.75000000  0.14128601
   0.74411812  0.75000000  0.35871399
   0.75588188  0.25000000  0.85871399
   0.60025814  0.25000000  0.60964914
   0.89974186  0.75000000  0.10964914
   0.39974186  0.75000000  0.39035086
   0.10025814  0.25000000  0.89035086
   0.06620140  0.25000000  0.38825086
   0.43379860  0.75000000  0.88825086
   0.93379860  0.75000000  0.61174914
   0.56620140  0.25000000  0.11174914
Al4C3 Pnma - H(P) scan @ 30 GPa (ISIF=8)
           1
     8.466070    0.000000    0.000000
     0.000000    2.920640    0.000000
     0.000000    0.000000   10.063774
   Al   C 
    16    12
Direct configuration=    18
   0.26534407  0.25000000  0.29978135
   0.23465593  0.75000000  0.79978135
   0.73465593  0.75000000  0.70021865
   0.76534407  0.25000000  0.20021865
   0.35052834  0.25000000  0.01245079
   0.14947166  0.75000000  0.51245079
   0.64947166  0.75000000  0.98754921
   0.85052834  0.25000000  0.48754921
   0.52117644  0.25000000  0.79449772
   0.97882356  0.75000000  0.29449772
   0.47882356  0.75000000  0.20550228
   0.02117644  0.25000000  0.70550228
   0.07209047  0.25000000  0.08796141
   0.42790953  0.75000000  0.58796141
   0.92790953  0.75000000  0.91203859
   0.57209047  0.25000000  0.41203859
   0.25584433  0.25000000  0.64130785
   0.24415567  0.75000000  0.14130785
   0.74415567  0.75000000  0.35869215
   0.75584433  0.25000000  0.85869215
   0.60019028  0.25000000  0.60969622
   0.89980972  0.75000000  0.10969622
   0.39980972  0.75000000  0.39030378
   0.10019028  0.25000000  0.89030378
   0.06628355  0.25000000  0.38831792
   0.43371645  0.75000000  0.88831792
   0.93371645  0.75000000  0.61168208
   0.56628355  0.25000000  0.11168208
Al4C3 Pnma - H(P) scan @ 30 GPa (ISIF=8)
           1
     8.465806    0.000000    0.000000
     0.000000    2.920549    0.000000
     0.000000    0.000000   10.063459
   Al   C 
    16    12
Direct configuration=    19
   0.26534539  0.25000000  0.29979109
   0.23465461  0.75000000  0.79979109
   0.73465461  0.75000000  0.70020891
   0.76534539  0.25000000  0.20020891
   0.35055103  0.25000000  0.01246674
   0.14944897  0.75000000  0.51246674
   0.64944897  0.75000000  0.98753326
   0.85055103  0.25000000  0.48753326
   0.52113584  0.25000000  0.79449016
   0.97886416  0.75000000  0.29449016
   0.47886416  0.75000000  0.20550984
   0.02113584  0.25000000  0.70550984
   0.07209634  0.25000000  0.08795624
   0.42790366  0.75000000  0.58795624
   0.92790366  0.75000000  0.91204376
   0.57209634  0.25000000  0.41204376
   0.25583490  0.25000000  0.64131334
   0.24416510  0.75000000  0.14131334
   0.74416510  0.75000000  0.35868666
   0.75583490  0.25000000  0.85868666
   0.60017324  0.25000000  0.60970804
   0.89982676  0.75000000  0.10970804
   0.39982676  0.75000000  0.39029196
   0.10017324  0.25000000  0.89029196
   0.06630418  0.25000000  0.38833476
   0.43369582  0.75000000  0.88833476
   0.93369582  0.75000000  0.61166524
   0.56630418  0.25000000  0.11166524
Al4C3 Pnma - H(P) scan @ 30 GPa (ISIF=8)
           1
     8.466132    0.000000    0.000000
     0.000000    2.920662    0.000000
     0.000000    0.000000   10.063847
   Al   C 
    16    12
Direct configuration=    20
   0.26536628  0.25000000  0.29980943
   0.23463372  0.75000000  0.79980943
   0.73463372  0.75000000  0.70019057
   0.76536628  0.25000000  0.20019057
   0.35056840  0.25000000  0.01250821
   0.14943160  0.75000000  0.51250821
   0.64943160  0.75000000  0.98749179
   0.85056840  0.25000000  0.48749179
   0.52107318  0.25000000  0.79449425
   0.97892682  0.75000000  0.29449425
   0.47892682  0.75000000  0.20550575
   0.02107318  0.25000000  0.70550575
   0.07210947  0.25000000  0.08792491
   0.42789053  0.75000000  0.58792491
   0.92789053  0.75000000  0.91207509
   0.57210947  0.25000000  0.41207509
   0.25584580  0.25000000  0.64130133
   0.24415420  0.75000000  0.14130133
   0.74415420  0.75000000  0.35869867
   0.75584580  0.25000000  0.85869867
   0.60016448  0.25000000  0.60973107
   0.89983552  0.75000000  0.10973107
   0.39983552  0.75000000  0.39026893
   0.10016448  0.25000000  0.89026893
   0.06628710  0.25000000  0.38838729
   0.43371290  0.75000000  0.88838729
   0.93371290  0.75000000  0.61161271
   0.56628710  0.25000000  0.11161271
