Al4C3 Pnma (CIF findsym, P21/n21/m21/a) 
   1.00000000000000     
     8.7414141358925743    0.0000000000000000    0.0000000000000000
     0.0000000000000000    3.0034351411654634    0.0000000000000000
     0.0000000000000000    0.0000000000000000    9.2150558293461664
   Al   C 
    16    12
Direct
  0.2691358072771903  0.2500000000000000  0.2662563613942498
  0.7691358072771903  0.2500000000000000  0.2337436386057502
  0.7308641927228097  0.7500000000000000  0.7337436386057503
  0.2308641927228097  0.7500000000000000  0.7662563613942497
  0.4651651931517919  0.2500000000000000  0.8918024516747072
  0.9651651931517919  0.2500000000000000  0.6081975483252928
  0.5348348068482081  0.7500000000000000  0.1081975483252927
  0.0348348068482081  0.7500000000000000  0.3918024516747071
  0.5054481292082309  0.2500000000000000  0.6051528891592172
  0.0054481292082308  0.2500000000000000  0.8948471108407828
  0.4945518707917692  0.7500000000000000  0.3948471108407831
  0.9945518707917691  0.7500000000000000  0.1051528891592171
  0.2359214216639936  0.2500000000000000  0.5574695214966729
  0.7359214216639937  0.2500000000000000  0.9425304785033271
  0.7640785783360063  0.7500000000000000  0.4425304785033272
  0.2640785783360064  0.7500000000000000  0.0574695214966728
  0.3847904690186580  0.2500000000000000  0.4256285713943186
  0.8847904690186583  0.2500000000000000  0.0743714286056813
  0.6152095309813417  0.7500000000000000  0.5743714286056812
  0.1152095309813419  0.7500000000000000  0.9256285713943188
  0.3951448621698301  0.2500000000000000  0.0885404059185167
  0.8951448621698301  0.2500000000000000  0.4114595940814833
  0.6048551378301699  0.7500000000000000  0.9114595940814834
  0.1048551378301699  0.7500000000000000  0.5885404059185166
  0.3464826641027112  0.2500000000000000  0.7343507375843444
  0.8464826641027113  0.2500000000000000  0.7656492624156556
  0.6535173358972887  0.7500000000000000  0.2656492624156553
  0.1535173358972887  0.7500000000000000  0.2343507375843447
 
  0.00000000E+00  0.00000000E+00  0.00000000E+00
  0.00000000E+00  0.00000000E+00  0.00000000E+00
  0.00000000E+00  0.00000000E+00  0.00000000E+00
  0.00000000E+00  0.00000000E+00  0.00000000E+00
  0.00000000E+00  0.00000000E+00  0.00000000E+00
  0.00000000E+00  0.00000000E+00  0.00000000E+00
  0.00000000E+00  0.00000000E+00  0.00000000E+00
  0.00000000E+00  0.00000000E+00  0.00000000E+00
  0.00000000E+00  0.00000000E+00  0.00000000E+00
  0.00000000E+00  0.00000000E+00  0.00000000E+00
  0.00000000E+00  0.00000000E+00  0.00000000E+00
  0.00000000E+00  0.00000000E+00  0.00000000E+00
  0.00000000E+00  0.00000000E+00  0.00000000E+00
  0.00000000E+00  0.00000000E+00  0.00000000E+00
  0.00000000E+00  0.00000000E+00  0.00000000E+00
  0.00000000E+00  0.00000000E+00  0.00000000E+00
  0.00000000E+00  0.00000000E+00  0.00000000E+00
  0.00000000E+00  0.00000000E+00  0.00000000E+00
  0.00000000E+00  0.00000000E+00  0.00000000E+00
  0.00000000E+00  0.00000000E+00  0.00000000E+00
  0.00000000E+00  0.00000000E+00  0.00000000E+00
  0.00000000E+00  0.00000000E+00  0.00000000E+00
  0.00000000E+00  0.00000000E+00  0.00000000E+00
  0.00000000E+00  0.00000000E+00  0.00000000E+00
  0.00000000E+00  0.00000000E+00  0.00000000E+00
  0.00000000E+00  0.00000000E+00  0.00000000E+00
  0.00000000E+00  0.00000000E+00  0.00000000E+00
  0.00000000E+00  0.00000000E+00  0.00000000E+00
