  28  28   0   0
  0.8689705E+01  0.8757969E-09  0.3009123E-09  0.9232508E-09  0.5000000E-15
  1.000000000000000E-004
  CAR 
 Al4C3 Pnma-VII - r2SCAN H(P) scan @ 80 G
     20.51437281     -7.29496387  301     10.69420079      1.00000000
     -7.295  0.0000E+00  0.0000E+00
     -7.202  0.0000E+00  0.0000E+00
     -7.110  0.0000E+00  0.0000E+00
     -7.017  0.0000E+00  0.0000E+00
     -6.924  0.0000E+00  0.0000E+00
     -6.831  0.0000E+00  0.0000E+00
     -6.739  0.0000E+00  0.0000E+00
     -6.646  0.0000E+00  0.0000E+00
     -6.553  0.0000E+00  0.0000E+00
     -6.461  0.0000E+00  0.0000E+00
     -6.368  0.0000E+00  0.0000E+00
     -6.275  0.1462E-14  0.1355E-15
     -6.183  0.5467E-08  0.5068E-09
     -6.090  0.2922E-04  0.2709E-05
     -5.997  0.6407E-03  0.6210E-04
     -5.904  0.3030E-02  0.3429E-03
     -5.812  0.5996E-02  0.8988E-03
     -5.719  0.6022E-02  0.1457E-02
     -5.626  0.5756E-02  0.1991E-02
     -5.534  0.1016E-01  0.2933E-02
     -5.441  0.1389E-01  0.4220E-02
     -5.348  0.1024E-01  0.5169E-02
     -5.256  0.7870E-02  0.5899E-02
     -5.163  0.1320E-01  0.7123E-02
     -5.070  0.7755E-02  0.7842E-02
     -4.978  0.4425E-02  0.8252E-02
     -4.885  0.1173E-01  0.9339E-02
     -4.792  0.1241E-01  0.1049E-01
     -4.699  0.9796E-02  0.1140E-01
     -4.607  0.1843E-01  0.1311E-01
     -4.514  0.1511E-01  0.1451E-01
     -4.421  0.7728E-02  0.1522E-01
     -4.329  0.2164E-01  0.1723E-01
     -4.236  0.2020E-01  0.1910E-01
     -4.143  0.1285E-01  0.2029E-01
     -4.051  0.1040E-01  0.2126E-01
     -3.958  0.1216E-01  0.2238E-01
     -3.865  0.1898E-01  0.2414E-01
     -3.772  0.2513E-01  0.2647E-01
     -3.680  0.1430E-01  0.2780E-01
     -3.587  0.1592E-01  0.2928E-01
     -3.494  0.1808E-01  0.3095E-01
     -3.402  0.1987E-01  0.3279E-01
     -3.309  0.2037E-01  0.3468E-01
     -3.216  0.2061E-01  0.3659E-01
     -3.124  0.2043E-01  0.3849E-01
     -3.031  0.2457E-01  0.4076E-01
     -2.938  0.3081E-01  0.4362E-01
     -2.845  0.2047E-01  0.4552E-01
     -2.753  0.2721E-01  0.4804E-01
     -2.660  0.2090E-01  0.4998E-01
     -2.567  0.2370E-01  0.5217E-01
     -2.475  0.2489E-01  0.5448E-01
     -2.382  0.2061E-01  0.5639E-01
     -2.289  0.3307E-01  0.5946E-01
     -2.197  0.5033E-01  0.6412E-01
     -2.104  0.3971E-01  0.6780E-01
     -2.011  0.3461E-01  0.7101E-01
     -1.918  0.3560E-01  0.7431E-01
     -1.826  0.3512E-01  0.7757E-01
     -1.733  0.4802E-01  0.8202E-01
     -1.640  0.3556E-01  0.8531E-01
     -1.548  0.2571E-01  0.8770E-01
     -1.455  0.2825E-01  0.9032E-01
     -1.362  0.3061E-01  0.9315E-01
     -1.270  0.2808E-01  0.9576E-01
     -1.177  0.4104E-01  0.9956E-01
     -1.084  0.4820E-01  0.1040E+00
     -0.992  0.3763E-01  0.1075E+00
     -0.899  0.4188E-01  0.1114E+00
     -0.806  0.5317E-01  0.1163E+00
     -0.713  0.3666E-01  0.1197E+00
     -0.621  0.2940E-02  0.1200E+00
     -0.528  0.2918E-05  0.1200E+00
     -0.435  0.7526E-11  0.1200E+00
     -0.343  0.0000E+00  0.1200E+00
     -0.250  0.0000E+00  0.1200E+00
     -0.157  0.0000E+00  0.1200E+00
     -0.065  0.0000E+00  0.1200E+00
      0.028  0.0000E+00  0.1200E+00
      0.121  0.0000E+00  0.1200E+00
      0.214  0.0000E+00  0.1200E+00
      0.306  0.0000E+00  0.1200E+00
      0.399  0.0000E+00  0.1200E+00
      0.492  0.0000E+00  0.1200E+00
      0.584  0.0000E+00  0.1200E+00
      0.677  0.0000E+00  0.1200E+00
      0.770  0.0000E+00  0.1200E+00
      0.862  0.0000E+00  0.1200E+00
      0.955  0.0000E+00  0.1200E+00
      1.048  0.0000E+00  0.1200E+00
      1.141  0.1509E-14  0.1200E+00
      1.233  0.7156E-08  0.1200E+00
      1.326  0.4851E-04  0.1200E+00
      1.419  0.1600E-02  0.1202E+00
      1.511  0.5793E-02  0.1207E+00
      1.604  0.8507E-02  0.1215E+00
      1.697  0.5722E-02  0.1220E+00
      1.789  0.8552E-02  0.1228E+00
      1.882  0.1839E-01  0.1245E+00
      1.975  0.1622E-01  0.1260E+00
      2.068  0.1901E-01  0.1278E+00
      2.160  0.2613E-01  0.1302E+00
      2.253  0.2709E-01  0.1327E+00
      2.346  0.2318E-01  0.1349E+00
      2.438  0.1807E-01  0.1365E+00
      2.531  0.1451E-01  0.1379E+00
      2.624  0.1434E-01  0.1392E+00
      2.716  0.1978E-01  0.1410E+00
      2.809  0.3109E-01  0.1439E+00
      2.902  0.3029E-01  0.1467E+00
      2.994  0.2242E-01  0.1488E+00
      3.087  0.2442E-01  0.1511E+00
      3.180  0.2379E-01  0.1533E+00
      3.273  0.1959E-01  0.1551E+00
      3.365  0.2492E-01  0.1574E+00
      3.458  0.3264E-01  0.1604E+00
      3.551  0.4485E-01  0.1646E+00
      3.643  0.5974E-01  0.1701E+00
      3.736  0.5142E-01  0.1749E+00
      3.829  0.5421E-01  0.1799E+00
      3.921  0.3264E-01  0.1829E+00
      4.014  0.4059E-01  0.1867E+00
      4.107  0.5364E-01  0.1917E+00
      4.200  0.3758E-01  0.1952E+00
      4.292  0.4364E-01  0.1992E+00
      4.385  0.3034E-01  0.2020E+00
      4.478  0.4240E-01  0.2059E+00
      4.570  0.3526E-01  0.2092E+00
      4.663  0.3184E-01  0.2122E+00
      4.756  0.3547E-01  0.2155E+00
      4.848  0.3472E-01  0.2187E+00
      4.941  0.2888E-01  0.2213E+00
      5.034  0.3063E-01  0.2242E+00
      5.127  0.3290E-01  0.2272E+00
      5.219  0.4335E-01  0.2313E+00
      5.312  0.4222E-01  0.2352E+00
      5.405  0.2698E-01  0.2377E+00
      5.497  0.3756E-01  0.2412E+00
      5.590  0.3372E-01  0.2443E+00
      5.683  0.3945E-01  0.2479E+00
      5.775  0.4669E-01  0.2523E+00
      5.868  0.4728E-01  0.2566E+00
      5.961  0.3565E-01  0.2600E+00
      6.054  0.4249E-01  0.2639E+00
      6.146  0.5054E-01  0.2686E+00
      6.239  0.5211E-01  0.2734E+00
      6.332  0.3893E-01  0.2770E+00
      6.424  0.4465E-01  0.2812E+00
      6.517  0.3438E-01  0.2843E+00
      6.610  0.4897E-01  0.2889E+00
      6.702  0.4213E-01  0.2928E+00
      6.795  0.3540E-01  0.2961E+00
      6.888  0.4919E-01  0.3006E+00
      6.980  0.5310E-01  0.3055E+00
      7.073  0.5508E-01  0.3107E+00
      7.166  0.5300E-01  0.3156E+00
      7.259  0.5341E-01  0.3205E+00
      7.351  0.5210E-01  0.3253E+00
      7.444  0.4954E-01  0.3299E+00
      7.537  0.6186E-01  0.3357E+00
      7.629  0.7485E-01  0.3426E+00
      7.722  0.5352E-01  0.3476E+00
      7.815  0.4700E-01  0.3519E+00
      7.907  0.5883E-01  0.3574E+00
      8.000  0.5668E-01  0.3626E+00
      8.093  0.7293E-01  0.3694E+00
      8.186  0.7791E-01  0.3766E+00
      8.278  0.6336E-01  0.3825E+00
      8.371  0.5951E-01  0.3880E+00
      8.464  0.7360E-01  0.3948E+00
      8.556  0.6326E-01  0.4007E+00
      8.649  0.4888E-01  0.4052E+00
      8.742  0.4795E-01  0.4097E+00
      8.834  0.5598E-01  0.4149E+00
      8.927  0.7837E-01  0.4221E+00
      9.020  0.7222E-01  0.4288E+00
      9.113  0.5772E-01  0.4342E+00
      9.205  0.6685E-01  0.4404E+00
      9.298  0.3875E-01  0.4440E+00
      9.391  0.4330E-01  0.4480E+00
      9.483  0.5952E-01  0.4535E+00
      9.576  0.5783E-01  0.4589E+00
      9.669  0.5163E-01  0.4636E+00
      9.761  0.3296E-01  0.4667E+00
      9.854  0.2732E-01  0.4692E+00
      9.947  0.3211E-01  0.4722E+00
     10.040  0.3629E-01  0.4756E+00
     10.132  0.2607E-01  0.4780E+00
     10.225  0.1729E-02  0.4781E+00
     10.318  0.4041E-02  0.4785E+00
     10.410  0.1303E-01  0.4797E+00
     10.503  0.2930E-02  0.4800E+00
     10.596  0.1253E-04  0.4800E+00
     10.688  0.1641E-09  0.4800E+00
     10.781  0.3130E-17  0.4800E+00
     10.874  0.1014E-16  0.4800E+00
     10.967  0.3580E-09  0.4800E+00
     11.059  0.1653E-04  0.4800E+00
     11.152  0.1603E-02  0.4802E+00
     11.245  0.1479E-02  0.4803E+00
     11.337  0.2116E-02  0.4805E+00
     11.430  0.1516E-02  0.4806E+00
     11.523  0.1220E-03  0.4806E+00
     11.615  0.4742E-02  0.4811E+00
     11.708  0.4957E-02  0.4815E+00
     11.801  0.6914E-02  0.4822E+00
     11.893  0.7597E-02  0.4829E+00
     11.986  0.5842E-02  0.4834E+00
     12.079  0.1085E-02  0.4835E+00
     12.172  0.3347E-02  0.4838E+00
     12.264  0.1165E-01  0.4849E+00
     12.357  0.1033E-01  0.4859E+00
     12.450  0.3991E-02  0.4862E+00
     12.542  0.7942E-02  0.4870E+00
     12.635  0.1177E-01  0.4881E+00
     12.728  0.1857E-01  0.4898E+00
     12.820  0.1260E-01  0.4910E+00
     12.913  0.8137E-02  0.4917E+00
     13.006  0.7573E-02  0.4924E+00
     13.099  0.1466E-01  0.4938E+00
     13.191  0.1193E-01  0.4949E+00
     13.284  0.1904E-01  0.4966E+00
     13.377  0.1964E-01  0.4985E+00
     13.469  0.1217E-01  0.4996E+00
     13.562  0.1557E-01  0.5010E+00
     13.655  0.1388E-01  0.5023E+00
     13.747  0.1771E-01  0.5040E+00
     13.840  0.1144E-01  0.5050E+00
     13.933  0.1735E-01  0.5066E+00
     14.026  0.2248E-01  0.5087E+00
     14.118  0.1444E-01  0.5101E+00
     14.211  0.1800E-01  0.5117E+00
     14.304  0.3291E-01  0.5148E+00
     14.396  0.2991E-01  0.5175E+00
     14.489  0.2636E-01  0.5200E+00
     14.582  0.2980E-01  0.5228E+00
     14.674  0.2418E-01  0.5250E+00
     14.767  0.2716E-01  0.5275E+00
     14.860  0.2594E-01  0.5299E+00
     14.953  0.2795E-01  0.5325E+00
     15.045  0.2556E-01  0.5349E+00
     15.138  0.1780E-01  0.5365E+00
     15.231  0.2846E-01  0.5392E+00
     15.323  0.2102E-01  0.5411E+00
     15.416  0.2409E-01  0.5433E+00
     15.509  0.1330E-01  0.5446E+00
     15.601  0.3415E-01  0.5477E+00
     15.694  0.4047E-01  0.5515E+00
     15.787  0.2003E-01  0.5534E+00
     15.879  0.2866E-01  0.5560E+00
     15.972  0.2514E-01  0.5583E+00
     16.065  0.3322E-01  0.5614E+00
     16.158  0.2450E-01  0.5637E+00
     16.250  0.1963E-01  0.5655E+00
     16.343  0.1636E-01  0.5670E+00
     16.436  0.1821E-01  0.5687E+00
     16.528  0.3395E-01  0.5719E+00
     16.621  0.3581E-01  0.5752E+00
     16.714  0.1944E-01  0.5770E+00
     16.806  0.2091E-01  0.5789E+00
     16.899  0.3068E-01  0.5818E+00
     16.992  0.4838E-01  0.5862E+00
     17.085  0.3354E-01  0.5894E+00
     17.177  0.2429E-01  0.5916E+00
     17.270  0.2636E-01  0.5941E+00
     17.363  0.2362E-01  0.5962E+00
     17.455  0.2157E-01  0.5982E+00
     17.548  0.2647E-01  0.6007E+00
     17.641  0.2420E-01  0.6029E+00
     17.733  0.2930E-01  0.6057E+00
     17.826  0.4509E-01  0.6098E+00
     17.919  0.3829E-01  0.6134E+00
     18.012  0.3205E-01  0.6164E+00
     18.104  0.4109E-01  0.6202E+00
     18.197  0.4651E-01  0.6245E+00
     18.290  0.4576E-01  0.6287E+00
     18.382  0.3880E-01  0.6323E+00
     18.475  0.2828E-01  0.6349E+00
     18.568  0.3186E-01  0.6379E+00
     18.660  0.4179E-01  0.6418E+00
     18.753  0.3692E-01  0.6452E+00
     18.846  0.3497E-01  0.6484E+00
     18.939  0.3219E-01  0.6514E+00
     19.031  0.2573E-01  0.6538E+00
     19.124  0.3164E-01  0.6567E+00
     19.217  0.2471E-01  0.6590E+00
     19.309  0.1035E-01  0.6600E+00
     19.402  0.2400E-03  0.6600E+00
     19.495  0.2815E-07  0.6600E+00
     19.587  0.6354E-14  0.6600E+00
     19.680  0.0000E+00  0.6600E+00
     19.773  0.0000E+00  0.6600E+00
     19.865  0.0000E+00  0.6600E+00
     19.958  0.0000E+00  0.6600E+00
     20.051  0.0000E+00  0.6600E+00
     20.144  0.0000E+00  0.6600E+00
     20.236  0.0000E+00  0.6600E+00
     20.329  0.0000E+00  0.6600E+00
     20.422  0.0000E+00  0.6600E+00
     20.514  0.0000E+00  0.6600E+00
