       N       E                     dE             d eps       ncg     rms          rms(c)
DAV:   1    -0.265154529747E+03   -0.26515E+03   -0.14024E+02  8232   0.339E+01    0.359E+01
DAV:   2    -0.218554945599E+03    0.46600E+02   -0.76865E+01  7914   0.268E+01    0.153E+01
DAV:   3    -0.218434438626E+03    0.12051E+00   -0.11427E+01  8118   0.112E+01    0.989E+00
DAV:   4    -0.218851262432E+03   -0.41682E+00   -0.65547E-01  8736   0.290E+00    0.647E+00
DAV:   5    -0.218984626994E+03   -0.13336E+00   -0.23860E-01  8244   0.251E+00    0.136E+00
DAV:   6    -0.218980487790E+03    0.41392E-02   -0.35876E-02  8010   0.823E-01    0.559E-01
DAV:   7    -0.218980707034E+03   -0.21924E-03   -0.70552E-03  8772   0.344E-01    0.372E-01
DAV:   8    -0.218981611418E+03   -0.90438E-03   -0.38184E-03  8640   0.244E-01    0.123E-01
DAV:   9    -0.218981529987E+03    0.81431E-04   -0.46273E-04  9180   0.988E-02    0.726E-02
DAV:  10    -0.218981645717E+03   -0.11573E-03   -0.41662E-04  8424   0.743E-02    0.175E-02
DAV:  11    -0.218981657460E+03   -0.11743E-04   -0.11466E-05  5316   0.137E-02    0.127E-02
DAV:  12    -0.218981670332E+03   -0.12872E-04   -0.72283E-06  5040   0.130E-02    0.358E-03
DAV:  13    -0.218981672615E+03   -0.22830E-05   -0.16619E-06  4236   0.595E-03
   1 F= -.97491136E+02 E0= -.97491136E+02  d E =-.974911E+02
       N       E                     dE             d eps       ncg     rms          rms(c)
DAV:   1    -0.216300726422E+03    0.26809E+01   -0.16142E+00  7692   0.549E+00    0.121E+00
DAV:   2    -0.216285745189E+03    0.14981E-01   -0.83130E-02  8634   0.101E+00    0.644E-01
DAV:   3    -0.216285397119E+03    0.34807E-03   -0.14396E-02  8244   0.371E-01    0.218E-01
DAV:   4    -0.216285896359E+03   -0.49924E-03   -0.48798E-04  8544   0.905E-02    0.129E-01
DAV:   5    -0.216285961677E+03   -0.65318E-04   -0.13890E-04  8262   0.439E-02    0.994E-02
DAV:   6    -0.216286116169E+03   -0.15449E-03   -0.62054E-05  7800   0.373E-02    0.167E-02
DAV:   7    -0.216286097111E+03    0.19058E-04   -0.49660E-06  4482   0.821E-03    0.761E-03
DAV:   8    -0.216286089632E+03    0.74789E-05   -0.15140E-06  4314   0.464E-03
   2 F= -.97424643E+02 E0= -.97424643E+02  d E =0.664934E-01
       N       E                     dE             d eps       ncg     rms          rms(c)
DAV:   1    -0.218161915240E+03   -0.18758E+01   -0.73840E-01  7722   0.367E+00    0.822E-01
DAV:   2    -0.218154237118E+03    0.76781E-02   -0.38242E-02  8658   0.684E-01    0.439E-01
DAV:   3    -0.218153168587E+03    0.10685E-02   -0.66620E-03  8238   0.251E-01    0.149E-01
DAV:   4    -0.218153105423E+03    0.63164E-04   -0.22372E-04  8562   0.615E-02    0.869E-02
DAV:   5    -0.218153051770E+03    0.53654E-04   -0.67264E-05  7896   0.303E-02    0.674E-02
DAV:   6    -0.218152954706E+03    0.97064E-04   -0.27937E-05  5244   0.255E-02    0.719E-03
DAV:   7    -0.218152961729E+03   -0.70230E-05   -0.33651E-06  4350   0.759E-03
   3 F= -.97509523E+02 E0= -.97509523E+02  d E =-.183870E-01
       N       E                     dE             d eps       ncg     rms          rms(c)
DAV:   1    -0.218169307820E+03   -0.16353E-01   -0.68955E-05  7848   0.353E-02    0.722E-03
DAV:   2    -0.218169302088E+03    0.57314E-05   -0.32605E-06  4224   0.663E-03
   4 F= -.97509530E+02 E0= -.97509530E+02  d E =-.183941E-01
       N       E                     dE             d eps       ncg     rms          rms(c)
DAV:   1    -0.218282103932E+03   -0.11280E+00   -0.22391E-01  7164   0.199E+00    0.961E-02
DAV:   2    -0.218282089654E+03    0.14279E-04   -0.27524E-03  8724   0.204E-01    0.588E-02
DAV:   3    -0.218282034312E+03    0.55342E-04   -0.12599E-04  8514   0.445E-02    0.364E-02
DAV:   4    -0.218282009886E+03    0.24425E-04   -0.70676E-05  8340   0.323E-02    0.122E-02
DAV:   5    -0.218282012256E+03   -0.23699E-05   -0.17714E-05  5130   0.136E-02
   5 F= -.97513017E+02 E0= -.97513017E+02  d E =-.348715E-02
       N       E                     dE             d eps       ncg     rms          rms(c)
DAV:   1    -0.218299000215E+03   -0.16990E-01   -0.53687E-03  7308   0.308E-01    0.157E-02
DAV:   2    -0.218298998100E+03    0.21156E-05   -0.65724E-05  8772   0.315E-02
   6 F= -.97513083E+02 E0= -.97513083E+02  d E =-.355290E-02
       N       E                     dE             d eps       ncg     rms          rms(c)
DAV:   1    -0.218320034923E+03   -0.21035E-01   -0.10106E-01  7152   0.130E+00    0.626E-02
DAV:   2    -0.218319993374E+03    0.41549E-04   -0.11180E-03  8592   0.135E-01    0.405E-02
DAV:   3    -0.218319959143E+03    0.34230E-04   -0.80315E-05  8568   0.374E-02    0.254E-02
DAV:   4    -0.218319946394E+03    0.12750E-04   -0.58801E-05  8328   0.314E-02    0.798E-03
DAV:   5    -0.218319949507E+03   -0.31134E-05   -0.15178E-05  5046   0.129E-02
   7 F= -.97514270E+02 E0= -.97514270E+02  d E =-.118627E-02
       N       E                     dE             d eps       ncg     rms          rms(c)
DAV:   1    -0.218341037885E+03   -0.21091E-01   -0.10970E-01  7152   0.135E+00    0.627E-02
DAV:   2    -0.218341012822E+03    0.25064E-04   -0.12281E-03  8580   0.141E-01    0.408E-02
DAV:   3    -0.218340979008E+03    0.33813E-04   -0.82364E-05  8580   0.381E-02    0.258E-02
DAV:   4    -0.218340966464E+03    0.12544E-04   -0.58670E-05  8340   0.316E-02    0.825E-03
DAV:   5    -0.218340969701E+03   -0.32376E-05   -0.15501E-05  5064   0.131E-02
   8 F= -.97514708E+02 E0= -.97514708E+02  d E =-.162515E-02
       N       E                     dE             d eps       ncg     rms          rms(c)
DAV:   1    -0.218246749891E+03    0.94217E-01   -0.86121E-02  7140   0.119E+00    0.722E-02
DAV:   2    -0.218246784517E+03   -0.34626E-04   -0.13006E-03  8616   0.144E-01    0.469E-02
DAV:   3    -0.218246779691E+03    0.48252E-05   -0.89042E-05  8532   0.387E-02
   9 F= -.97514870E+02 E0= -.97514870E+02  d E =-.162083E-03
       N       E                     dE             d eps       ncg     rms          rms(c)
DAV:   1    -0.218286033750E+03   -0.39249E-01   -0.15471E-02  7164   0.504E-01    0.288E-02
DAV:   2    -0.218286014154E+03    0.19596E-04   -0.30112E-04  8526   0.668E-02    0.188E-02
DAV:   3    -0.218285999111E+03    0.15043E-04   -0.12886E-05  5040   0.156E-02    0.113E-02
DAV:   4    -0.218285987636E+03    0.11474E-04   -0.11403E-05  3828   0.133E-02    0.297E-03
DAV:   5    -0.218285986260E+03    0.13766E-05   -0.25499E-06  3762   0.603E-03
  10 F= -.97515110E+02 E0= -.97515110E+02  d E =-.401132E-03
       N       E                     dE             d eps       ncg     rms          rms(c)
DAV:   1    -0.218291542177E+03   -0.55545E-02   -0.29642E-04  7230   0.704E-02    0.442E-03
DAV:   2    -0.218291538088E+03    0.40889E-05   -0.41234E-06  4182   0.847E-03
  11 F= -.97515109E+02 E0= -.97515109E+02  d E =-.400309E-03
       N       E                     dE             d eps       ncg     rms          rms(c)
DAV:   1    -0.218335634175E+03   -0.44092E-01   -0.93718E-03  7194   0.388E-01    0.283E-02
DAV:   2    -0.218335623341E+03    0.10834E-04   -0.18857E-04  8652   0.540E-02    0.190E-02
DAV:   3    -0.218335610417E+03    0.12924E-04   -0.17054E-05  5304   0.186E-02    0.876E-03
DAV:   4    -0.218335607110E+03    0.33077E-05   -0.11549E-05  4086   0.130E-02
  12 F= -.97515122E+02 E0= -.97515122E+02  d E =-.137409E-04
       N       E                     dE             d eps       ncg     rms          rms(c)
DAV:   1    -0.218318038237E+03    0.17572E-01   -0.14764E-03  7218   0.154E-01    0.117E-02
DAV:   2    -0.218318041000E+03   -0.27626E-05   -0.25954E-05  7008   0.209E-02
  13 F= -.97515150E+02 E0= -.97515150E+02  d E =-.409032E-04
