Al4C3 I-43d polymorph (findsym-output, f
   1.00000000000000     
     6.2967090113796429    0.0000000000000000    0.0000000000000000
     0.0000000000000000    6.2967090113796429    0.0000000000000000
     0.0000000000000000    0.0000000000000000    6.2967090113796429
   Al   C 
    16    12
Direct
  0.3092734422084499  0.3092734422084499  0.3092734422084499
  0.1907265577915500  0.6907265577915499  0.8092734422084501
  0.6907265577915499  0.8092734422084501  0.1907265577915500
  0.8092734422084501  0.1907265577915500  0.6907265577915499
  0.5592734422084501  0.5592734422084501  0.5592734422084501
  0.9407265577915499  0.4407265577915501  0.0592734422084500
  0.0592734422084500  0.9407265577915499  0.4407265577915501
  0.4407265577915501  0.0592734422084500  0.9407265577915499
  0.8092734422084501  0.8092734422084501  0.8092734422084501
  0.6907265577915499  0.1907265577915500  0.3092734422084499
  0.1907265577915500  0.3092734422084499  0.6907265577915499
  0.3092734422084499  0.6907265577915499  0.1907265577915500
  0.0592734422084500  0.0592734422084500  0.0592734422084500
  0.4407265577915501  0.9407265577915499  0.5592734422084501
  0.5592734422084501  0.4407265577915501  0.9407265577915499
  0.9407265577915499  0.5592734422084501  0.4407265577915501
  0.3750000000000000  0.0000000000000000  0.2500000000000000
  0.1250000000000000  0.0000000000000000  0.7500000000000000
  0.6250000000000000  0.5000000000000000  0.2500000000000000
  0.8750000000000000  0.5000000000000000  0.7500000000000000
  0.2500000000000000  0.3750000000000000  0.0000000000000000
  0.7500000000000000  0.1250000000000000  0.0000000000000000
  0.2500000000000000  0.6250000000000000  0.5000000000000000
  0.7500000000000000  0.8750000000000000  0.5000000000000000
  0.0000000000000000  0.2500000000000000  0.3750000000000000
  0.0000000000000000  0.7500000000000000  0.1250000000000000
  0.5000000000000000  0.2500000000000000  0.6250000000000000
  0.5000000000000000  0.7500000000000000  0.8750000000000000
 
  0.00000000E+00  0.00000000E+00  0.00000000E+00
  0.00000000E+00  0.00000000E+00  0.00000000E+00
  0.00000000E+00  0.00000000E+00  0.00000000E+00
  0.00000000E+00  0.00000000E+00  0.00000000E+00
  0.00000000E+00  0.00000000E+00  0.00000000E+00
  0.00000000E+00  0.00000000E+00  0.00000000E+00
  0.00000000E+00  0.00000000E+00  0.00000000E+00
  0.00000000E+00  0.00000000E+00  0.00000000E+00
  0.00000000E+00  0.00000000E+00  0.00000000E+00
  0.00000000E+00  0.00000000E+00  0.00000000E+00
  0.00000000E+00  0.00000000E+00  0.00000000E+00
  0.00000000E+00  0.00000000E+00  0.00000000E+00
  0.00000000E+00  0.00000000E+00  0.00000000E+00
  0.00000000E+00  0.00000000E+00  0.00000000E+00
  0.00000000E+00  0.00000000E+00  0.00000000E+00
  0.00000000E+00  0.00000000E+00  0.00000000E+00
  0.00000000E+00  0.00000000E+00  0.00000000E+00
  0.00000000E+00  0.00000000E+00  0.00000000E+00
  0.00000000E+00  0.00000000E+00  0.00000000E+00
  0.00000000E+00  0.00000000E+00  0.00000000E+00
  0.00000000E+00  0.00000000E+00  0.00000000E+00
  0.00000000E+00  0.00000000E+00  0.00000000E+00
  0.00000000E+00  0.00000000E+00  0.00000000E+00
  0.00000000E+00  0.00000000E+00  0.00000000E+00
  0.00000000E+00  0.00000000E+00  0.00000000E+00
  0.00000000E+00  0.00000000E+00  0.00000000E+00
  0.00000000E+00  0.00000000E+00  0.00000000E+00
  0.00000000E+00  0.00000000E+00  0.00000000E+00
