  28  28   0   0
  0.8578567E+01  0.6216190E-09  0.6216190E-09  0.6216190E-09  0.5000000E-15
  1.000000000000000E-004
  CAR 
 Al4C3 I-43d - H(P) scan @ 20 GPa (ISIF=8
     18.25525269     -5.88789392  301     11.50020146      1.00000000
     -5.888  0.0000E+00  0.0000E+00
     -5.807  0.0000E+00  0.0000E+00
     -5.727  0.0000E+00  0.0000E+00
     -5.646  0.0000E+00  0.0000E+00
     -5.566  0.0000E+00  0.0000E+00
     -5.486  0.0000E+00  0.0000E+00
     -5.405  0.0000E+00  0.0000E+00
     -5.325  0.0000E+00  0.0000E+00
     -5.244  0.0000E+00  0.0000E+00
     -5.164  0.0000E+00  0.0000E+00
     -5.083  0.3193E-19  0.2570E-20
     -5.003  0.5641E-12  0.4540E-13
     -4.922  0.5623E-07  0.4526E-08
     -4.842  0.4246E-04  0.3422E-05
     -4.761  0.5551E-03  0.4809E-04
     -4.681  0.2545E-02  0.2529E-03
     -4.600  0.5030E-02  0.6577E-03
     -4.520  0.4956E-02  0.1056E-02
     -4.439  0.3665E-02  0.1351E-02
     -4.359  0.5944E-02  0.1830E-02
     -4.278  0.1214E-01  0.2807E-02
     -4.198  0.1066E-01  0.3664E-02
     -4.117  0.1671E-02  0.3799E-02
     -4.037  0.6020E-02  0.4283E-02
     -3.956  0.1371E-01  0.5386E-02
     -3.876  0.1332E-01  0.6458E-02
     -3.795  0.1242E-01  0.7458E-02
     -3.715  0.8047E-02  0.8105E-02
     -3.635  0.8115E-02  0.8758E-02
     -3.554  0.1728E-01  0.1015E-01
     -3.474  0.1746E-01  0.1155E-01
     -3.393  0.1551E-02  0.1168E-01
     -3.313  0.7250E-02  0.1226E-01
     -3.232  0.2329E-01  0.1414E-01
     -3.152  0.1948E-01  0.1570E-01
     -3.071  0.1391E-01  0.1682E-01
     -2.991  0.1384E-01  0.1794E-01
     -2.910  0.2312E-01  0.1980E-01
     -2.830  0.1592E-01  0.2108E-01
     -2.749  0.3783E-02  0.2138E-01
     -2.669  0.9508E-02  0.2215E-01
     -2.588  0.1572E-01  0.2341E-01
     -2.508  0.3103E-01  0.2591E-01
     -2.427  0.2613E-01  0.2801E-01
     -2.347  0.8879E-02  0.2873E-01
     -2.266  0.2496E-01  0.3074E-01
     -2.186  0.3056E-01  0.3320E-01
     -2.105  0.1254E-01  0.3421E-01
     -2.025  0.5312E-02  0.3463E-01
     -1.945  0.2144E-01  0.3636E-01
     -1.864  0.2918E-01  0.3871E-01
     -1.784  0.2703E-01  0.4088E-01
     -1.703  0.2044E-01  0.4253E-01
     -1.623  0.1630E-01  0.4384E-01
     -1.542  0.3497E-01  0.4665E-01
     -1.462  0.1043E-01  0.4749E-01
     -1.381  0.2487E-01  0.4949E-01
     -1.301  0.5292E-01  0.5375E-01
     -1.220  0.2869E-01  0.5606E-01
     -1.140  0.2417E-01  0.5801E-01
     -1.059  0.3262E-01  0.6063E-01
     -0.979  0.2617E-01  0.6274E-01
     -0.898  0.3687E-01  0.6571E-01
     -0.818  0.3186E-01  0.6827E-01
     -0.737  0.3459E-01  0.7105E-01
     -0.657  0.8414E-01  0.7782E-01
     -0.576  0.3483E-01  0.8063E-01
     -0.496  0.1589E-01  0.8191E-01
     -0.415  0.1592E-01  0.8319E-01
     -0.335  0.2299E-01  0.8504E-01
     -0.254  0.1676E-01  0.8639E-01
     -0.174  0.3129E-02  0.8664E-01
     -0.094  0.2965E-02  0.8688E-01
     -0.013  0.1904E-01  0.8841E-01
      0.067  0.1108E-01  0.8930E-01
      0.148  0.5034E-01  0.9335E-01
      0.228  0.4400E-01  0.9689E-01
      0.309  0.2755E-01  0.9911E-01
      0.389  0.4477E-01  0.1027E+00
      0.470  0.2936E-01  0.1051E+00
      0.550  0.5696E-01  0.1097E+00
      0.631  0.5783E-01  0.1143E+00
      0.711  0.1733E-01  0.1157E+00
      0.792  0.2374E-02  0.1159E+00
      0.872  0.1747E-01  0.1173E+00
      0.953  0.1447E-01  0.1185E+00
      1.033  0.1003E-01  0.1193E+00
      1.114  0.6560E-02  0.1198E+00
      1.194  0.9361E-03  0.1199E+00
      1.275  0.1430E-02  0.1200E+00
      1.355  0.6774E-04  0.1200E+00
      1.436  0.3580E-07  0.1200E+00
      1.516  0.1362E-12  0.1200E+00
      1.596  0.0000E+00  0.1200E+00
      1.677  0.0000E+00  0.1200E+00
      1.757  0.0000E+00  0.1200E+00
      1.838  0.0000E+00  0.1200E+00
      1.918  0.0000E+00  0.1200E+00
      1.999  0.0000E+00  0.1200E+00
      2.079  0.0000E+00  0.1200E+00
      2.160  0.5189E-15  0.1200E+00
      2.240  0.1358E-08  0.1200E+00
      2.321  0.2370E-04  0.1200E+00
      2.401  0.3609E-02  0.1203E+00
      2.482  0.1659E-01  0.1216E+00
      2.562  0.2915E-01  0.1240E+00
      2.643  0.2821E-01  0.1262E+00
      2.723  0.3734E-01  0.1292E+00
      2.804  0.4055E-01  0.1325E+00
      2.884  0.1426E-01  0.1337E+00
      2.965  0.3161E-01  0.1362E+00
      3.045  0.3477E-01  0.1390E+00
      3.126  0.4600E-01  0.1427E+00
      3.206  0.4233E-01  0.1461E+00
      3.287  0.3357E-01  0.1488E+00
      3.367  0.1379E-01  0.1499E+00
      3.447  0.3285E-01  0.1526E+00
      3.528  0.4154E-01  0.1559E+00
      3.608  0.3206E-01  0.1585E+00
      3.689  0.3307E-01  0.1611E+00
      3.769  0.1233E-01  0.1621E+00
      3.850  0.2568E-01  0.1642E+00
      3.930  0.8563E-02  0.1649E+00
      4.011  0.3108E-01  0.1674E+00
      4.091  0.6082E-01  0.1723E+00
      4.172  0.4971E-01  0.1763E+00
      4.252  0.7147E-01  0.1820E+00
      4.333  0.3750E-01  0.1851E+00
      4.413  0.6419E-02  0.1856E+00
      4.494  0.2643E-01  0.1877E+00
      4.574  0.3889E-01  0.1908E+00
      4.655  0.5508E-01  0.1953E+00
      4.735  0.6458E-01  0.2005E+00
      4.816  0.2856E-01  0.2028E+00
      4.896  0.3745E-01  0.2058E+00
      4.977  0.3920E-01  0.2089E+00
      5.057  0.5813E-01  0.2136E+00
      5.137  0.3264E-01  0.2162E+00
      5.218  0.1957E-01  0.2178E+00
      5.298  0.4155E-01  0.2212E+00
      5.379  0.2175E-01  0.2229E+00
      5.459  0.2006E-01  0.2245E+00
      5.540  0.3259E-01  0.2271E+00
      5.620  0.2241E-01  0.2289E+00
      5.701  0.5628E-01  0.2335E+00
      5.781  0.6616E-01  0.2388E+00
      5.862  0.4684E-01  0.2426E+00
      5.942  0.1832E-01  0.2440E+00
      6.023  0.2127E-01  0.2458E+00
      6.103  0.2627E-01  0.2479E+00
      6.184  0.3577E-01  0.2508E+00
      6.264  0.6134E-01  0.2557E+00
      6.345  0.5667E-01  0.2602E+00
      6.425  0.3515E-01  0.2631E+00
      6.506  0.4148E-01  0.2664E+00
      6.586  0.5328E-01  0.2707E+00
      6.667  0.7098E-01  0.2764E+00
      6.747  0.6400E-01  0.2816E+00
      6.827  0.5253E-01  0.2858E+00
      6.908  0.2454E-01  0.2878E+00
      6.988  0.3822E-01  0.2908E+00
      7.069  0.5320E-01  0.2951E+00
      7.149  0.2499E-01  0.2971E+00
      7.230  0.2571E-01  0.2992E+00
      7.310  0.5476E-01  0.3036E+00
      7.391  0.4611E-01  0.3073E+00
      7.471  0.4327E-01  0.3108E+00
      7.552  0.2464E-01  0.3128E+00
      7.632  0.6182E-01  0.3178E+00
      7.713  0.4588E-01  0.3215E+00
      7.793  0.4660E-01  0.3252E+00
      7.874  0.2363E-01  0.3271E+00
      7.954  0.2769E-01  0.3293E+00
      8.035  0.2922E-01  0.3317E+00
      8.115  0.3453E-01  0.3345E+00
      8.196  0.5292E-01  0.3387E+00
      8.276  0.4647E-01  0.3425E+00
      8.357  0.6779E-01  0.3479E+00
      8.437  0.5332E-01  0.3522E+00
      8.518  0.4282E-01  0.3557E+00
      8.598  0.4575E-01  0.3593E+00
      8.678  0.4608E-01  0.3630E+00
      8.759  0.3693E-01  0.3660E+00
      8.839  0.5841E-01  0.3707E+00
      8.920  0.4480E-01  0.3743E+00
      9.000  0.2510E-01  0.3763E+00
      9.081  0.2745E-01  0.3786E+00
      9.161  0.3496E-01  0.3814E+00
      9.242  0.8759E-01  0.3884E+00
      9.322  0.1076E+00  0.3971E+00
      9.403  0.5977E-01  0.4019E+00
      9.483  0.2585E-01  0.4040E+00
      9.564  0.5398E-01  0.4083E+00
      9.644  0.4719E-01  0.4121E+00
      9.725  0.5794E-01  0.4168E+00
      9.805  0.3300E-01  0.4194E+00
      9.886  0.3165E-01  0.4220E+00
      9.966  0.3447E-01  0.4248E+00
     10.047  0.4465E-01  0.4283E+00
     10.127  0.6147E-01  0.4333E+00
     10.208  0.4398E-01  0.4368E+00
     10.288  0.4797E-01  0.4407E+00
     10.368  0.3348E-01  0.4434E+00
     10.449  0.7032E-01  0.4490E+00
     10.529  0.1332E+00  0.4598E+00
     10.610  0.1003E+00  0.4678E+00
     10.690  0.5748E-01  0.4725E+00
     10.771  0.4301E-01  0.4759E+00
     10.851  0.1874E-01  0.4774E+00
     10.932  0.1398E-01  0.4786E+00
     11.012  0.6267E-02  0.4791E+00
     11.093  0.3248E-02  0.4793E+00
     11.173  0.4566E-02  0.4797E+00
     11.254  0.2871E-02  0.4799E+00
     11.334  0.9572E-03  0.4800E+00
     11.415  0.2900E-04  0.4800E+00
     11.495  0.9302E-08  0.4800E+00
     11.576  0.2102E-13  0.4800E+00
     11.656  0.0000E+00  0.4800E+00
     11.737  0.0000E+00  0.4800E+00
     11.817  0.0000E+00  0.4800E+00
     11.898  0.0000E+00  0.4800E+00
     11.978  0.0000E+00  0.4800E+00
     12.059  0.0000E+00  0.4800E+00
     12.139  0.0000E+00  0.4800E+00
     12.219  0.0000E+00  0.4800E+00
     12.300  0.0000E+00  0.4800E+00
     12.380  0.0000E+00  0.4800E+00
     12.461  0.1661E-16  0.4800E+00
     12.541  0.8527E-10  0.4800E+00
     12.622  0.2867E-05  0.4800E+00
     12.702  0.7822E-03  0.4801E+00
     12.783  0.3391E-02  0.4803E+00
     12.863  0.4320E-03  0.4804E+00
     12.944  0.2040E-02  0.4805E+00
     13.024  0.1153E-01  0.4815E+00
     13.105  0.1208E-01  0.4824E+00
     13.185  0.1474E-01  0.4836E+00
     13.266  0.3084E-01  0.4861E+00
     13.346  0.3107E-01  0.4886E+00
     13.427  0.2971E-01  0.4910E+00
     13.507  0.5222E-01  0.4952E+00
     13.588  0.6124E-01  0.5001E+00
     13.668  0.3274E-01  0.5028E+00
     13.749  0.7084E-01  0.5085E+00
     13.829  0.4362E-01  0.5120E+00
     13.909  0.2172E-01  0.5137E+00
     13.990  0.2246E-01  0.5155E+00
     14.070  0.4558E-01  0.5192E+00
     14.151  0.5919E-01  0.5240E+00
     14.231  0.5271E-01  0.5282E+00
     14.312  0.5836E-01  0.5329E+00
     14.392  0.5921E-01  0.5377E+00
     14.473  0.4562E-01  0.5413E+00
     14.553  0.4384E-01  0.5449E+00
     14.634  0.5279E-01  0.5491E+00
     14.714  0.3205E-01  0.5517E+00
     14.795  0.2241E-01  0.5535E+00
     14.875  0.2153E-01  0.5552E+00
     14.956  0.4340E-01  0.5587E+00
     15.036  0.5252E-01  0.5629E+00
     15.117  0.6235E-01  0.5680E+00
     15.197  0.6213E-01  0.5730E+00
     15.278  0.8241E-01  0.5796E+00
     15.358  0.8644E-01  0.5866E+00
     15.439  0.7127E-01  0.5923E+00
     15.519  0.5024E-01  0.5963E+00
     15.600  0.5434E-01  0.6007E+00
     15.680  0.6959E-01  0.6063E+00
     15.760  0.6544E-01  0.6116E+00
     15.841  0.5122E-01  0.6157E+00
     15.921  0.4526E-01  0.6193E+00
     16.002  0.4517E-01  0.6230E+00
     16.082  0.2577E-01  0.6250E+00
     16.163  0.4683E-01  0.6288E+00
     16.243  0.5223E-01  0.6330E+00
     16.324  0.4130E-01  0.6363E+00
     16.404  0.3700E-01  0.6393E+00
     16.485  0.2852E-01  0.6416E+00
     16.565  0.3066E-01  0.6441E+00
     16.646  0.5082E-01  0.6482E+00
     16.726  0.6446E-01  0.6534E+00
     16.807  0.6622E-01  0.6587E+00
     16.887  0.6799E-02  0.6592E+00
     16.968  0.5151E-02  0.6596E+00
     17.048  0.9035E-03  0.6597E+00
     17.129  0.7029E-03  0.6598E+00
     17.209  0.2493E-02  0.6600E+00
     17.290  0.2542E-03  0.6600E+00
     17.370  0.3374E-06  0.6600E+00
     17.450  0.3385E-11  0.6600E+00
     17.531  0.0000E+00  0.6600E+00
     17.611  0.0000E+00  0.6600E+00
     17.692  0.0000E+00  0.6600E+00
     17.772  0.0000E+00  0.6600E+00
     17.853  0.0000E+00  0.6600E+00
     17.933  0.0000E+00  0.6600E+00
     18.014  0.0000E+00  0.6600E+00
     18.094  0.0000E+00  0.6600E+00
     18.175  0.0000E+00  0.6600E+00
     18.255  0.0000E+00  0.6600E+00
