       N       E                     dE             d eps       ncg     rms          rms(c)
DAV:   1    -0.157802416612E+03   -0.15780E+03   -0.81667E-02  2664   0.319E+00    0.168E-02
DAV:   2    -0.157802423622E+03   -0.70092E-05   -0.22848E-06  1524   0.931E-03
   1 F= -.12781824E+03 E0= -.12781824E+03  d E =-.127818E+03
       N       E                     dE             d eps       ncg     rms          rms(c)
DAV:   1    -0.160532567525E+03   -0.27302E+01   -0.15549E+01  2940   0.153E+01    0.413E+00
DAV:   2    -0.160148737699E+03    0.38383E+00   -0.11886E+00  3006   0.335E+00    0.169E+00
DAV:   3    -0.160129714010E+03    0.19024E-01   -0.89016E-02  3180   0.911E-01    0.596E-01
DAV:   4    -0.160123918482E+03    0.57955E-02   -0.75806E-03  3096   0.247E-01    0.198E-01
DAV:   5    -0.160123060490E+03    0.85799E-03   -0.20649E-03  3048   0.129E-01    0.108E-01
DAV:   6    -0.160122990207E+03    0.70283E-04   -0.15894E-04  3144   0.381E-02    0.416E-02
DAV:   7    -0.160122984557E+03    0.56491E-05   -0.59798E-05  2850   0.216E-02
   2 F= -.12775388E+03 E0= -.12775388E+03  d E =0.643640E-01
       N       E                     dE             d eps       ncg     rms          rms(c)
DAV:   1    -0.159283034475E+03    0.83996E+00   -0.45340E+00  2904   0.851E+00    0.219E+00
DAV:   2    -0.159176760991E+03    0.10627E+00   -0.32056E-01  3030   0.177E+00    0.917E-01
DAV:   3    -0.159170830083E+03    0.59309E-02   -0.26228E-02  3138   0.499E-01    0.317E-01
DAV:   4    -0.159169270005E+03    0.15601E-02   -0.20720E-03  3078   0.131E-01    0.107E-01
DAV:   5    -0.159169078137E+03    0.19187E-03   -0.50856E-04  3054   0.658E-02    0.605E-02
DAV:   6    -0.159169065630E+03    0.12507E-04   -0.36020E-05  2466   0.186E-02    0.211E-02
DAV:   7    -0.159169062781E+03    0.28494E-05   -0.18485E-05  1542   0.127E-02
   3 F= -.12808389E+03 E0= -.12808389E+03  d E =-.265651E+00
       N       E                     dE             d eps       ncg     rms          rms(c)
DAV:   1    -0.159161269163E+03    0.77965E-02   -0.17263E-04  3018   0.538E-02    0.137E-02
DAV:   2    -0.159161266241E+03    0.29218E-05   -0.11830E-05  1548   0.112E-02
   4 F= -.12808391E+03 E0= -.12808391E+03  d E =-.265665E+00
       N       E                     dE             d eps       ncg     rms          rms(c)
DAV:   1    -0.159193515977E+03   -0.32247E-01   -0.59457E-02  2652   0.907E-01    0.118E-01
DAV:   2    -0.159193152410E+03    0.36357E-03   -0.19042E-03  3252   0.154E-01    0.457E-02
DAV:   3    -0.159193134272E+03    0.18138E-04   -0.21173E-04  3138   0.459E-02    0.236E-02
DAV:   4    -0.159193134571E+03   -0.29861E-06   -0.27613E-05  1950   0.158E-02
   5 F= -.12809326E+03 E0= -.12809326E+03  d E =-.935459E-02
       N       E                     dE             d eps       ncg     rms          rms(c)
DAV:   1    -0.159272213279E+03   -0.79079E-01   -0.48678E-01  2640   0.259E+00    0.341E-01
DAV:   2    -0.159269141261E+03    0.30720E-02   -0.15658E-02  3246   0.442E-01    0.131E-01
DAV:   3    -0.159268988934E+03    0.15233E-03   -0.17866E-03  3150   0.133E-01    0.669E-02
DAV:   4    -0.159268983593E+03    0.53406E-05   -0.24984E-04  3168   0.457E-02    0.312E-02
DAV:   5    -0.159268978819E+03    0.47739E-05   -0.43337E-05  2916   0.211E-02
   6 F= -.12810447E+03 E0= -.12810447E+03  d E =-.205635E-01
