Al4C3 I-43d polymorph (findsym-output, f
   1.00000000000000     
     6.2161897528656231    0.0000000000000000    0.0000000000000000
     0.0000000000000000    6.2161897528656231    0.0000000000000000
     0.0000000000000000    0.0000000000000000    6.2161897528656231
   Al   C 
    16    12
Direct
  0.3111829494226551  0.3111829494226551  0.3111829494226551
  0.1888170505773449  0.6888170505773449  0.8111829494226551
  0.6888170505773449  0.8111829494226551  0.1888170505773449
  0.8111829494226551  0.1888170505773449  0.6888170505773449
  0.5611829494226551  0.5611829494226551  0.5611829494226551
  0.9388170505773449  0.4388170505773449  0.0611829494226552
  0.0611829494226552  0.9388170505773449  0.4388170505773449
  0.4388170505773449  0.0611829494226552  0.9388170505773449
  0.8111829494226551  0.8111829494226551  0.8111829494226551
  0.6888170505773449  0.1888170505773449  0.3111829494226551
  0.1888170505773449  0.3111829494226551  0.6888170505773449
  0.3111829494226551  0.6888170505773449  0.1888170505773449
  0.0611829494226552  0.0611829494226552  0.0611829494226552
  0.4388170505773449  0.9388170505773449  0.5611829494226551
  0.5611829494226551  0.4388170505773449  0.9388170505773449
  0.9388170505773449  0.5611829494226551  0.4388170505773449
  0.3750000000000000 -0.0000000000000000  0.2500000000000000
  0.1250000000000000 -0.0000000000000000  0.7500000000000000
  0.6250000000000000  0.5000000000000000  0.2500000000000000
  0.8750000000000000  0.5000000000000000  0.7500000000000000
  0.2500000000000000  0.3750000000000000  0.0000000000000000
  0.7500000000000000  0.1250000000000000  0.0000000000000000
  0.2500000000000000  0.6250000000000000  0.5000000000000000
  0.7500000000000000  0.8750000000000000  0.5000000000000000
  0.0000000000000000  0.2500000000000000  0.3750000000000000
  0.0000000000000000  0.7500000000000000  0.1250000000000000
  0.5000000000000000  0.2500000000000000  0.6250000000000000
  0.5000000000000000  0.7500000000000000  0.8750000000000000
 
  0.00000000E+00  0.00000000E+00  0.00000000E+00
  0.00000000E+00  0.00000000E+00  0.00000000E+00
  0.00000000E+00  0.00000000E+00  0.00000000E+00
  0.00000000E+00  0.00000000E+00  0.00000000E+00
  0.00000000E+00  0.00000000E+00  0.00000000E+00
  0.00000000E+00  0.00000000E+00  0.00000000E+00
  0.00000000E+00  0.00000000E+00  0.00000000E+00
  0.00000000E+00  0.00000000E+00  0.00000000E+00
  0.00000000E+00  0.00000000E+00  0.00000000E+00
  0.00000000E+00  0.00000000E+00  0.00000000E+00
  0.00000000E+00  0.00000000E+00  0.00000000E+00
  0.00000000E+00  0.00000000E+00  0.00000000E+00
  0.00000000E+00  0.00000000E+00  0.00000000E+00
  0.00000000E+00  0.00000000E+00  0.00000000E+00
  0.00000000E+00  0.00000000E+00  0.00000000E+00
  0.00000000E+00  0.00000000E+00  0.00000000E+00
  0.00000000E+00  0.00000000E+00  0.00000000E+00
  0.00000000E+00  0.00000000E+00  0.00000000E+00
  0.00000000E+00  0.00000000E+00  0.00000000E+00
  0.00000000E+00  0.00000000E+00  0.00000000E+00
  0.00000000E+00  0.00000000E+00  0.00000000E+00
  0.00000000E+00  0.00000000E+00  0.00000000E+00
  0.00000000E+00  0.00000000E+00  0.00000000E+00
  0.00000000E+00  0.00000000E+00  0.00000000E+00
  0.00000000E+00  0.00000000E+00  0.00000000E+00
  0.00000000E+00  0.00000000E+00  0.00000000E+00
  0.00000000E+00  0.00000000E+00  0.00000000E+00
  0.00000000E+00  0.00000000E+00  0.00000000E+00
