  28  28   0   0
  0.9406355E+01  0.8992398E-09  0.3089670E-09  0.9479639E-09  0.5000000E-15
  1.000000000000000E-004
  CAR 
 Al4C3 Pnma-VII - H(P) scan @ 50 GPa (ISI
     18.63925854     -6.67596875  301      9.74464795      1.00000000
     -6.676  0.0000E+00  0.0000E+00
     -6.592  0.0000E+00  0.0000E+00
     -6.507  0.0000E+00  0.0000E+00
     -6.423  0.0000E+00  0.0000E+00
     -6.338  0.0000E+00  0.0000E+00
     -6.254  0.0000E+00  0.0000E+00
     -6.170  0.0000E+00  0.0000E+00
     -6.085  0.0000E+00  0.0000E+00
     -6.001  0.0000E+00  0.0000E+00
     -5.917  0.0000E+00  0.0000E+00
     -5.832  0.0000E+00  0.0000E+00
     -5.748  0.1053E-12  0.8885E-14
     -5.663  0.3165E-07  0.2671E-08
     -5.579  0.4353E-04  0.3676E-05
     -5.495  0.7237E-03  0.6474E-04
     -5.410  0.3266E-02  0.3403E-03
     -5.326  0.6437E-02  0.8835E-03
     -5.241  0.6489E-02  0.1431E-02
     -5.157  0.5981E-02  0.1936E-02
     -5.073  0.1060E-01  0.2830E-02
     -4.988  0.1534E-01  0.4124E-02
     -4.904  0.1074E-01  0.5030E-02
     -4.820  0.7863E-02  0.5694E-02
     -4.735  0.1455E-01  0.6921E-02
     -4.651  0.1002E-01  0.7767E-02
     -4.566  0.5757E-02  0.8253E-02
     -4.482  0.1234E-01  0.9294E-02
     -4.398  0.1561E-01  0.1061E-01
     -4.313  0.1359E-01  0.1176E-01
     -4.229  0.1794E-01  0.1327E-01
     -4.144  0.1540E-01  0.1457E-01
     -4.060  0.1062E-01  0.1547E-01
     -3.976  0.2275E-01  0.1739E-01
     -3.891  0.2269E-01  0.1930E-01
     -3.807  0.1253E-01  0.2036E-01
     -3.723  0.1327E-01  0.2148E-01
     -3.638  0.1348E-01  0.2261E-01
     -3.554  0.2319E-01  0.2457E-01
     -3.469  0.2583E-01  0.2675E-01
     -3.385  0.1445E-01  0.2797E-01
     -3.301  0.1588E-01  0.2931E-01
     -3.216  0.2313E-01  0.3126E-01
     -3.132  0.2172E-01  0.3309E-01
     -3.047  0.2343E-01  0.3507E-01
     -2.963  0.2232E-01  0.3696E-01
     -2.879  0.2395E-01  0.3898E-01
     -2.794  0.2681E-01  0.4124E-01
     -2.710  0.2994E-01  0.4377E-01
     -2.626  0.2269E-01  0.4568E-01
     -2.541  0.2676E-01  0.4794E-01
     -2.457  0.2938E-01  0.5042E-01
     -2.372  0.2643E-01  0.5265E-01
     -2.288  0.2648E-01  0.5488E-01
     -2.204  0.2036E-01  0.5660E-01
     -2.119  0.3789E-01  0.5980E-01
     -2.035  0.5318E-01  0.6429E-01
     -1.950  0.4332E-01  0.6794E-01
     -1.866  0.3986E-01  0.7130E-01
     -1.782  0.3878E-01  0.7458E-01
     -1.697  0.3874E-01  0.7785E-01
     -1.613  0.5396E-01  0.8240E-01
     -1.529  0.3600E-01  0.8544E-01
     -1.444  0.2731E-01  0.8774E-01
     -1.360  0.3306E-01  0.9053E-01
     -1.275  0.3312E-01  0.9333E-01
     -1.191  0.3654E-01  0.9641E-01
     -1.107  0.4892E-01  0.1005E+00
     -1.022  0.5048E-01  0.1048E+00
     -0.938  0.4289E-01  0.1084E+00
     -0.853  0.5038E-01  0.1127E+00
     -0.769  0.5843E-01  0.1176E+00
     -0.685  0.2737E-01  0.1199E+00
     -0.600  0.1099E-02  0.1200E+00
     -0.516  0.6363E-06  0.1200E+00
     -0.432  0.2065E-11  0.1200E+00
     -0.347  0.0000E+00  0.1200E+00
     -0.263  0.0000E+00  0.1200E+00
     -0.178  0.0000E+00  0.1200E+00
     -0.094  0.0000E+00  0.1200E+00
     -0.010  0.0000E+00  0.1200E+00
      0.075  0.0000E+00  0.1200E+00
      0.159  0.0000E+00  0.1200E+00
      0.244  0.0000E+00  0.1200E+00
      0.328  0.0000E+00  0.1200E+00
      0.412  0.0000E+00  0.1200E+00
      0.497  0.0000E+00  0.1200E+00
      0.581  0.0000E+00  0.1200E+00
      0.665  0.0000E+00  0.1200E+00
      0.750  0.0000E+00  0.1200E+00
      0.834  0.0000E+00  0.1200E+00
      0.919  0.3554E-15  0.1200E+00
      1.003  0.9140E-09  0.1200E+00
      1.087  0.9849E-05  0.1200E+00
      1.172  0.8083E-03  0.1201E+00
      1.256  0.4652E-02  0.1205E+00
      1.341  0.8390E-02  0.1212E+00
      1.425  0.7063E-02  0.1218E+00
      1.509  0.7212E-02  0.1224E+00
      1.594  0.1460E-01  0.1236E+00
      1.678  0.1964E-01  0.1253E+00
      1.762  0.1824E-01  0.1268E+00
      1.847  0.2156E-01  0.1286E+00
      1.931  0.2797E-01  0.1310E+00
      2.016  0.3024E-01  0.1335E+00
      2.100  0.2136E-01  0.1353E+00
      2.184  0.1894E-01  0.1369E+00
      2.269  0.1624E-01  0.1383E+00
      2.353  0.1593E-01  0.1397E+00
      2.438  0.2727E-01  0.1420E+00
      2.522  0.3675E-01  0.1451E+00
      2.606  0.2996E-01  0.1476E+00
      2.691  0.2617E-01  0.1498E+00
      2.775  0.2573E-01  0.1520E+00
      2.859  0.2458E-01  0.1540E+00
      2.944  0.2297E-01  0.1560E+00
      3.028  0.3005E-01  0.1585E+00
      3.113  0.4894E-01  0.1626E+00
      3.197  0.5521E-01  0.1673E+00
      3.281  0.5772E-01  0.1722E+00
      3.366  0.6093E-01  0.1773E+00
      3.450  0.4628E-01  0.1812E+00
      3.535  0.3635E-01  0.1843E+00
      3.619  0.4811E-01  0.1883E+00
      3.703  0.5828E-01  0.1933E+00
      3.788  0.3815E-01  0.1965E+00
      3.872  0.4288E-01  0.2001E+00
      3.956  0.3630E-01  0.2032E+00
      4.041  0.4497E-01  0.2070E+00
      4.125  0.3345E-01  0.2098E+00
      4.210  0.3677E-01  0.2129E+00
      4.294  0.3410E-01  0.2158E+00
      4.378  0.3722E-01  0.2189E+00
      4.463  0.3711E-01  0.2220E+00
      4.547  0.3260E-01  0.2248E+00
      4.631  0.3844E-01  0.2280E+00
      4.716  0.4297E-01  0.2317E+00
      4.800  0.4491E-01  0.2354E+00
      4.885  0.3258E-01  0.2382E+00
      4.969  0.3682E-01  0.2413E+00
      5.053  0.3614E-01  0.2443E+00
      5.138  0.4583E-01  0.2482E+00
      5.222  0.5196E-01  0.2526E+00
      5.307  0.4926E-01  0.2568E+00
      5.391  0.4009E-01  0.2601E+00
      5.475  0.4282E-01  0.2638E+00
      5.560  0.5300E-01  0.2682E+00
      5.644  0.5447E-01  0.2728E+00
      5.728  0.4073E-01  0.2763E+00
      5.813  0.5074E-01  0.2805E+00
      5.897  0.3863E-01  0.2838E+00
      5.982  0.4516E-01  0.2876E+00
      6.066  0.4951E-01  0.2918E+00
      6.150  0.4463E-01  0.2956E+00
      6.235  0.4679E-01  0.2995E+00
      6.319  0.5748E-01  0.3044E+00
      6.404  0.6092E-01  0.3095E+00
      6.488  0.5399E-01  0.3140E+00
      6.572  0.5487E-01  0.3187E+00
      6.657  0.6215E-01  0.3239E+00
      6.741  0.5870E-01  0.3289E+00
      6.825  0.5941E-01  0.3339E+00
      6.910  0.7814E-01  0.3405E+00
      6.994  0.6498E-01  0.3460E+00
      7.079  0.5074E-01  0.3502E+00
      7.163  0.6137E-01  0.3554E+00
      7.247  0.6232E-01  0.3607E+00
      7.332  0.5949E-01  0.3657E+00
      7.416  0.8998E-01  0.3733E+00
      7.501  0.7630E-01  0.3797E+00
      7.585  0.6380E-01  0.3851E+00
      7.669  0.7102E-01  0.3911E+00
      7.754  0.7769E-01  0.3977E+00
      7.838  0.5817E-01  0.4026E+00
      7.922  0.5094E-01  0.4069E+00
      8.007  0.5863E-01  0.4118E+00
      8.091  0.6359E-01  0.4172E+00
      8.176  0.8579E-01  0.4244E+00
      8.260  0.7193E-01  0.4305E+00
      8.344  0.7040E-01  0.4364E+00
      8.429  0.5887E-01  0.4414E+00
      8.513  0.4560E-01  0.4453E+00
      8.598  0.4750E-01  0.4493E+00
      8.682  0.6578E-01  0.4548E+00
      8.766  0.6037E-01  0.4599E+00
      8.851  0.5267E-01  0.4644E+00
      8.935  0.3344E-01  0.4672E+00
      9.019  0.3069E-01  0.4698E+00
      9.104  0.3483E-01  0.4727E+00
      9.188  0.3528E-01  0.4757E+00
      9.273  0.2722E-01  0.4780E+00
      9.357  0.2062E-02  0.4782E+00
      9.441  0.5306E-02  0.4786E+00
      9.526  0.1256E-01  0.4797E+00
      9.610  0.3963E-02  0.4800E+00
      9.695  0.4965E-04  0.4800E+00
      9.779  0.6606E-08  0.4800E+00
      9.863  0.6651E-06  0.4800E+00
      9.948  0.4026E-03  0.4800E+00
     10.032  0.2565E-02  0.4803E+00
     10.116  0.9345E-03  0.4803E+00
     10.201  0.3085E-02  0.4806E+00
     10.285  0.4208E-03  0.4806E+00
     10.370  0.9387E-03  0.4807E+00
     10.454  0.6883E-02  0.4813E+00
     10.538  0.4499E-02  0.4817E+00
     10.623  0.9324E-02  0.4825E+00
     10.707  0.8598E-02  0.4832E+00
     10.792  0.3353E-02  0.4835E+00
     10.876  0.1456E-02  0.4836E+00
     10.960  0.6223E-02  0.4841E+00
     11.045  0.1427E-01  0.4853E+00
     11.129  0.7992E-02  0.4860E+00
     11.213  0.5589E-02  0.4865E+00
     11.298  0.1109E-01  0.4874E+00
     11.382  0.1521E-01  0.4887E+00
     11.467  0.1708E-01  0.4901E+00
     11.551  0.1342E-01  0.4913E+00
     11.635  0.1056E-01  0.4921E+00
     11.720  0.8345E-02  0.4928E+00
     11.804  0.1489E-01  0.4941E+00
     11.889  0.1605E-01  0.4955E+00
     11.973  0.2192E-01  0.4973E+00
     12.057  0.1785E-01  0.4988E+00
     12.142  0.1813E-01  0.5003E+00
     12.226  0.1638E-01  0.5017E+00
     12.310  0.1741E-01  0.5032E+00
     12.395  0.1343E-01  0.5043E+00
     12.479  0.1383E-01  0.5055E+00
     12.564  0.2485E-01  0.5076E+00
     12.648  0.2050E-01  0.5093E+00
     12.732  0.1926E-01  0.5109E+00
     12.817  0.3321E-01  0.5137E+00
     12.901  0.3066E-01  0.5163E+00
     12.986  0.2794E-01  0.5187E+00
     13.070  0.2781E-01  0.5210E+00
     13.154  0.3795E-01  0.5242E+00
     13.239  0.2779E-01  0.5266E+00
     13.323  0.2732E-01  0.5289E+00
     13.407  0.3027E-01  0.5314E+00
     13.492  0.3221E-01  0.5342E+00
     13.576  0.2223E-01  0.5360E+00
     13.661  0.2586E-01  0.5382E+00
     13.745  0.2965E-01  0.5407E+00
     13.829  0.2358E-01  0.5427E+00
     13.914  0.1873E-01  0.5443E+00
     13.998  0.3431E-01  0.5472E+00
     14.083  0.4451E-01  0.5509E+00
     14.167  0.3241E-01  0.5537E+00
     14.251  0.3228E-01  0.5564E+00
     14.336  0.2511E-01  0.5585E+00
     14.420  0.3439E-01  0.5614E+00
     14.504  0.3213E-01  0.5641E+00
     14.589  0.2618E-01  0.5663E+00
     14.673  0.2610E-01  0.5686E+00
     14.758  0.1796E-01  0.5701E+00
     14.842  0.3013E-01  0.5726E+00
     14.926  0.3306E-01  0.5754E+00
     15.011  0.3977E-01  0.5788E+00
     15.095  0.3790E-01  0.5820E+00
     15.180  0.4687E-01  0.5859E+00
     15.264  0.4253E-01  0.5895E+00
     15.348  0.3915E-01  0.5928E+00
     15.433  0.3381E-01  0.5957E+00
     15.517  0.2034E-01  0.5974E+00
     15.601  0.3782E-01  0.6006E+00
     15.686  0.3041E-01  0.6031E+00
     15.770  0.3165E-01  0.6058E+00
     15.855  0.4698E-01  0.6098E+00
     15.939  0.4822E-01  0.6138E+00
     16.023  0.4857E-01  0.6179E+00
     16.108  0.3487E-01  0.6209E+00
     16.192  0.4394E-01  0.6246E+00
     16.277  0.4182E-01  0.6281E+00
     16.361  0.5136E-01  0.6324E+00
     16.445  0.4398E-01  0.6362E+00
     16.530  0.4953E-01  0.6403E+00
     16.614  0.3539E-01  0.6433E+00
     16.698  0.3816E-01  0.6465E+00
     16.783  0.3519E-01  0.6495E+00
     16.867  0.3558E-01  0.6525E+00
     16.952  0.2184E-01  0.6544E+00
     17.036  0.2325E-01  0.6563E+00
     17.120  0.2697E-01  0.6586E+00
     17.205  0.9973E-02  0.6594E+00
     17.289  0.3201E-02  0.6597E+00
     17.373  0.2467E-02  0.6599E+00
     17.458  0.4578E-03  0.6600E+00
     17.542  0.5015E-03  0.6600E+00
     17.627  0.4333E-04  0.6600E+00
     17.711  0.3165E-07  0.6600E+00
     17.795  0.1053E-12  0.6600E+00
     17.880  0.0000E+00  0.6600E+00
     17.964  0.0000E+00  0.6600E+00
     18.049  0.0000E+00  0.6600E+00
     18.133  0.0000E+00  0.6600E+00
     18.217  0.0000E+00  0.6600E+00
     18.302  0.0000E+00  0.6600E+00
     18.386  0.0000E+00  0.6600E+00
     18.470  0.0000E+00  0.6600E+00
     18.555  0.0000E+00  0.6600E+00
     18.639  0.0000E+00  0.6600E+00
