       N       E                     dE             d eps       ncg     rms          rms(c)
DAV:   1     0.328883953913E+03    0.32888E+03   -0.46539E+04  7128   0.146E+03
DAV:   2    -0.167507473263E+03   -0.49639E+03   -0.46918E+03  9096   0.237E+02
DAV:   3    -0.199806989765E+03   -0.32300E+02   -0.32028E+02  9012   0.599E+01
DAV:   4    -0.200346178719E+03   -0.53919E+00   -0.53828E+00  8772   0.876E+00
DAV:   5    -0.200356325203E+03   -0.10146E-01   -0.10141E-01  8628   0.123E+00    0.305E+01
DAV:   6    -0.166195683312E+03    0.34161E+02   -0.10395E+02  8346   0.295E+01    0.998E+00
DAV:   7    -0.165410630143E+03    0.78505E+00   -0.91806E+00  8628   0.925E+00    0.630E+00
DAV:   8    -0.165295939095E+03    0.11469E+00   -0.70346E-01  8406   0.309E+00    0.112E+00
DAV:   9    -0.165265508276E+03    0.30431E-01   -0.13508E-01  8484   0.131E+00    0.620E-01
DAV:  10    -0.165263811772E+03    0.16965E-02   -0.39499E-02  8454   0.673E-01    0.261E-01
DAV:  11    -0.165264210588E+03   -0.39882E-03   -0.31022E-03  8424   0.199E-01    0.188E-01
DAV:  12    -0.165264414134E+03   -0.20355E-03   -0.13826E-03  8466   0.111E-01    0.770E-02
DAV:  13    -0.165264295255E+03    0.11888E-03   -0.54244E-04  8364   0.749E-02    0.172E-02
DAV:  14    -0.165264296230E+03   -0.97567E-06   -0.44381E-05  7248   0.263E-02
   1 F= -.83070539E+02 E0= -.83070539E+02  d E =-.830705E+02
