Al4C3 Pnma-VII - H(P) scan @ 50 GPa (ISI
           1
     8.992398    0.000000    0.000000
     0.000000    3.089670    0.000000
     0.000000    0.000000    9.479639
   Al   C 
    16    12
Direct configuration=     1
   0.26818336  0.25000000  0.26647675
   0.76818336  0.25000000  0.23352325
   0.73181664  0.75000000  0.73352325
   0.23181664  0.75000000  0.76647675
   0.46568949  0.25000000  0.89163821
   0.96568949  0.25000000  0.60836179
   0.53431051  0.75000000  0.10836179
   0.03431051  0.75000000  0.39163821
   0.50604432  0.25000000  0.60480726
   0.00604432  0.25000000  0.89519274
   0.49395568  0.75000000  0.39519274
   0.99395568  0.75000000  0.10480726
   0.23679010  0.25000000  0.55794005
   0.73679010  0.25000000  0.94205995
   0.76320990  0.75000000  0.44205995
   0.26320990  0.75000000  0.05794005
   0.38469964  0.25000000  0.42533442
   0.88469964  0.25000000  0.07466558
   0.61530036  0.75000000  0.57466558
   0.11530036  0.75000000  0.92533442
   0.39440472  0.25000000  0.08775135
   0.89440472  0.25000000  0.41224865
   0.60559528  0.75000000  0.91224865
   0.10559528  0.75000000  0.58775135
   0.34710766  0.25000000  0.73421836
   0.84710766  0.25000000  0.76578164
   0.65289234  0.75000000  0.26578164
   0.15289234  0.75000000  0.23421836
