Al4C3 R-3m polymorph (findsym-output, fr
   1.00000000000000     
     3.1623985517794972    0.0000000000000000    0.0000000000000000
    -1.5811992758897486    2.7387174827673313    0.0000000000000000
     0.0000000000000000    0.0000000000000000   23.6421041761356818
   Al   C 
    12     9
Direct
  0.0000000000000000 -0.0000000000000000  0.6295653002824677
 -0.0000000000000000 -0.0000000000000000  0.3704346997175323
  0.6666666870000029  0.3333333429999996  0.9628986132824648
  0.6666666870000029  0.3333333429999996  0.7037680137175331
  0.3333333429999996  0.6666666870000029  0.2962319562824644
  0.3333333429999996  0.6666666870000029  0.0371013677175372
  0.0000000000000000 -0.0000000000000000  0.2061354466266164
 -0.0000000000000000  0.0000000000000000  0.7938645533733835
  0.6666666870000029  0.3333333429999996  0.5394687606266173
  0.6666666870000029  0.3333333429999996  0.1271978813733855
  0.3333333429999996  0.6666666870000029  0.8728021336266194
  0.3333333429999996  0.6666666870000029  0.4605312093733803
 -0.0000000000000000 -0.0000000000000000  0.7167042659147526
 -0.0000000000000000  0.0000000000000000  0.2832957340852476
  0.6666666870000029  0.3333333429999996  0.0500375979147548
  0.6666666870000029  0.3333333429999996  0.6166290470852446
  0.3333333429999996  0.6666666870000029  0.3833709229147528
  0.3333333429999996  0.6666666870000029  0.9499624210852432
  0.0000000000000000  0.0000000000000000  0.5000000000000000
  0.6666666870000029  0.3333333429999996  0.8333333129999971
  0.3333333429999996  0.6666666870000029  0.1666666719999981
 
  0.00000000E+00  0.00000000E+00  0.00000000E+00
  0.00000000E+00  0.00000000E+00  0.00000000E+00
  0.00000000E+00  0.00000000E+00  0.00000000E+00
  0.00000000E+00  0.00000000E+00  0.00000000E+00
  0.00000000E+00  0.00000000E+00  0.00000000E+00
  0.00000000E+00  0.00000000E+00  0.00000000E+00
  0.00000000E+00  0.00000000E+00  0.00000000E+00
  0.00000000E+00  0.00000000E+00  0.00000000E+00
  0.00000000E+00  0.00000000E+00  0.00000000E+00
  0.00000000E+00  0.00000000E+00  0.00000000E+00
  0.00000000E+00  0.00000000E+00  0.00000000E+00
  0.00000000E+00  0.00000000E+00  0.00000000E+00
  0.00000000E+00  0.00000000E+00  0.00000000E+00
  0.00000000E+00  0.00000000E+00  0.00000000E+00
  0.00000000E+00  0.00000000E+00  0.00000000E+00
  0.00000000E+00  0.00000000E+00  0.00000000E+00
  0.00000000E+00  0.00000000E+00  0.00000000E+00
  0.00000000E+00  0.00000000E+00  0.00000000E+00
  0.00000000E+00  0.00000000E+00  0.00000000E+00
  0.00000000E+00  0.00000000E+00  0.00000000E+00
  0.00000000E+00  0.00000000E+00  0.00000000E+00
