  21  21   0   0
  0.9447860E+01  0.3129326E-09  0.3129326E-09  0.2339486E-08  0.5000000E-15
  1.000000000000000E-004
  CAR 
 Al4C3 R-3m - H(P) scan @ 40 GPa (ISIF=8)
     17.37155654     -6.82271382  301      9.39248779      1.00000000
     -6.823  0.0000E+00  0.0000E+00
     -6.742  0.0000E+00  0.0000E+00
     -6.661  0.0000E+00  0.0000E+00
     -6.581  0.0000E+00  0.0000E+00
     -6.500  0.0000E+00  0.0000E+00
     -6.419  0.0000E+00  0.0000E+00
     -6.339  0.0000E+00  0.0000E+00
     -6.258  0.0000E+00  0.0000E+00
     -6.178  0.0000E+00  0.0000E+00
     -6.097  0.0000E+00  0.0000E+00
     -6.016  0.2390E-19  0.1927E-20
     -5.936  0.3910E-12  0.3153E-13
     -5.855  0.4145E-07  0.3343E-08
     -5.774  0.3652E-04  0.2948E-05
     -5.694  0.6790E-03  0.5771E-04
     -5.613  0.2587E-02  0.2663E-03
     -5.532  0.6307E-02  0.7750E-03
     -5.452  0.5069E-02  0.1184E-02
     -5.371  0.5984E-02  0.1666E-02
     -5.290  0.6654E-02  0.2203E-02
     -5.210  0.1031E-01  0.3035E-02
     -5.129  0.7011E-02  0.3600E-02
     -5.048  0.3884E-02  0.3913E-02
     -4.968  0.2038E-02  0.4078E-02
     -4.887  0.1051E-01  0.4926E-02
     -4.807  0.9699E-02  0.5708E-02
     -4.726  0.1089E-01  0.6586E-02
     -4.645  0.9519E-02  0.7354E-02
     -4.565  0.7794E-02  0.7982E-02
     -4.484  0.6759E-02  0.8528E-02
     -4.403  0.4920E-02  0.8924E-02
     -4.323  0.1447E-01  0.1009E-01
     -4.242  0.2391E-01  0.1202E-01
     -4.161  0.1612E-01  0.1332E-01
     -4.081  0.1371E-01  0.1443E-01
     -4.000  0.1046E-01  0.1527E-01
     -3.919  0.1764E-01  0.1669E-01
     -3.839  0.1258E-01  0.1771E-01
     -3.758  0.6524E-02  0.1823E-01
     -3.677  0.1513E-01  0.1945E-01
     -3.597  0.1776E-01  0.2088E-01
     -3.516  0.2021E-01  0.2251E-01
     -3.436  0.2749E-01  0.2473E-01
     -3.355  0.1929E-01  0.2629E-01
     -3.274  0.1202E-01  0.2726E-01
     -3.194  0.5440E-02  0.2770E-01
     -3.113  0.1472E-01  0.2888E-01
     -3.032  0.1802E-01  0.3034E-01
     -2.952  0.1207E-01  0.3131E-01
     -2.871  0.2472E-01  0.3330E-01
     -2.790  0.3298E-01  0.3596E-01
     -2.710  0.3146E-01  0.3850E-01
     -2.629  0.2946E-01  0.4088E-01
     -2.548  0.2235E-01  0.4268E-01
     -2.468  0.1176E-01  0.4363E-01
     -2.387  0.2569E-01  0.4570E-01
     -2.306  0.2700E-01  0.4788E-01
     -2.226  0.3650E-01  0.5082E-01
     -2.145  0.2495E-01  0.5283E-01
     -2.065  0.3302E-01  0.5549E-01
     -1.984  0.3242E-01  0.5811E-01
     -1.903  0.2686E-01  0.6028E-01
     -1.823  0.2339E-01  0.6216E-01
     -1.742  0.1914E-01  0.6371E-01
     -1.661  0.2473E-01  0.6570E-01
     -1.581  0.3190E-01  0.6827E-01
     -1.500  0.1318E-01  0.6934E-01
     -1.419  0.1387E-01  0.7045E-01
     -1.339  0.2215E-01  0.7224E-01
     -1.258  0.4417E-01  0.7580E-01
     -1.177  0.3877E-01  0.7893E-01
     -1.097  0.6783E-01  0.8440E-01
     -1.016  0.5209E-01  0.8860E-01
     -0.935  0.1564E-01  0.8986E-01
     -0.855  0.1699E-02  0.9000E-01
     -0.774  0.1444E-04  0.9000E-01
     -0.693  0.1695E-08  0.9000E-01
     -0.613  0.1394E-14  0.9000E-01
     -0.532  0.0000E+00  0.9000E-01
     -0.452  0.0000E+00  0.9000E-01
     -0.371  0.0000E+00  0.9000E-01
     -0.290  0.0000E+00  0.9000E-01
     -0.210  0.0000E+00  0.9000E-01
     -0.129  0.0000E+00  0.9000E-01
     -0.048  0.0000E+00  0.9000E-01
      0.032  0.0000E+00  0.9000E-01
      0.113  0.0000E+00  0.9000E-01
      0.194  0.0000E+00  0.9000E-01
      0.274  0.0000E+00  0.9000E-01
      0.355  0.0000E+00  0.9000E-01
      0.436  0.8298E-14  0.9000E-01
      0.516  0.4616E-08  0.9000E-01
      0.597  0.1762E-04  0.9000E-01
      0.678  0.7405E-03  0.9006E-01
      0.758  0.2200E-02  0.9024E-01
      0.839  0.1438E-02  0.9035E-01
      0.919  0.8612E-02  0.9105E-01
      1.000  0.8550E-02  0.9174E-01
      1.081  0.1201E-01  0.9271E-01
      1.161  0.1237E-01  0.9370E-01
      1.242  0.1294E-01  0.9475E-01
      1.323  0.6906E-02  0.9531E-01
      1.403  0.4858E-02  0.9570E-01
      1.484  0.1105E-01  0.9659E-01
      1.565  0.2342E-01  0.9848E-01
      1.645  0.2702E-01  0.1007E+00
      1.726  0.1420E-01  0.1018E+00
      1.807  0.1278E-01  0.1028E+00
      1.887  0.1228E-01  0.1038E+00
      1.968  0.1911E-01  0.1054E+00
      2.049  0.1819E-01  0.1068E+00
      2.129  0.8881E-02  0.1075E+00
      2.210  0.9548E-02  0.1083E+00
      2.290  0.9802E-02  0.1091E+00
      2.371  0.1466E-01  0.1103E+00
      2.452  0.2317E-01  0.1122E+00
      2.532  0.2882E-01  0.1145E+00
      2.613  0.2817E-01  0.1168E+00
      2.694  0.2554E-01  0.1188E+00
      2.774  0.3189E-01  0.1214E+00
      2.855  0.3609E-01  0.1243E+00
      2.936  0.4201E-01  0.1277E+00
      3.016  0.2644E-01  0.1298E+00
      3.097  0.2956E-01  0.1322E+00
      3.178  0.2583E-01  0.1343E+00
      3.258  0.3416E-01  0.1370E+00
      3.339  0.3704E-01  0.1400E+00
      3.420  0.2167E-01  0.1418E+00
      3.500  0.2463E-01  0.1438E+00
      3.581  0.3206E-01  0.1463E+00
      3.661  0.2653E-01  0.1485E+00
      3.742  0.4722E-01  0.1523E+00
      3.823  0.4158E-01  0.1556E+00
      3.903  0.4331E-01  0.1591E+00
      3.984  0.3735E-01  0.1622E+00
      4.065  0.2635E-01  0.1643E+00
      4.145  0.2704E-01  0.1665E+00
      4.226  0.2660E-01  0.1686E+00
      4.307  0.4047E-01  0.1719E+00
      4.387  0.4998E-01  0.1759E+00
      4.468  0.5426E-01  0.1803E+00
      4.549  0.3591E-01  0.1832E+00
      4.629  0.2646E-01  0.1853E+00
      4.710  0.2553E-01  0.1874E+00
      4.791  0.2959E-01  0.1897E+00
      4.871  0.2343E-01  0.1916E+00
      4.952  0.1982E-01  0.1932E+00
      5.032  0.2821E-01  0.1955E+00
      5.113  0.2982E-01  0.1979E+00
      5.194  0.4705E-01  0.2017E+00
      5.274  0.3200E-01  0.2043E+00
      5.355  0.4663E-01  0.2081E+00
      5.436  0.3519E-01  0.2109E+00
      5.516  0.2551E-01  0.2129E+00
      5.597  0.4566E-01  0.2166E+00
      5.678  0.2984E-01  0.2190E+00
      5.758  0.2337E-01  0.2209E+00
      5.839  0.2594E-01  0.2230E+00
      5.920  0.4383E-01  0.2265E+00
      6.000  0.4703E-01  0.2303E+00
      6.081  0.4316E-01  0.2338E+00
      6.162  0.4728E-01  0.2376E+00
      6.242  0.5374E-01  0.2420E+00
      6.323  0.3582E-01  0.2449E+00
      6.403  0.2708E-01  0.2470E+00
      6.484  0.2244E-01  0.2489E+00
      6.565  0.4919E-01  0.2528E+00
      6.645  0.4862E-01  0.2567E+00
      6.726  0.3741E-01  0.2598E+00
      6.807  0.3545E-01  0.2626E+00
      6.887  0.3495E-01  0.2654E+00
      6.968  0.5158E-01  0.2696E+00
      7.049  0.8026E-01  0.2761E+00
      7.129  0.5030E-01  0.2801E+00
      7.210  0.5036E-01  0.2842E+00
      7.291  0.4803E-01  0.2881E+00
      7.371  0.5920E-01  0.2928E+00
      7.452  0.5331E-01  0.2971E+00
      7.533  0.5060E-01  0.3012E+00
      7.613  0.6128E-01  0.3062E+00
      7.694  0.5714E-01  0.3108E+00
      7.774  0.4203E-01  0.3142E+00
      7.855  0.4496E-01  0.3178E+00
      7.936  0.4612E-01  0.3215E+00
      8.016  0.4565E-01  0.3252E+00
      8.097  0.5111E-01  0.3293E+00
      8.178  0.5486E-01  0.3337E+00
      8.258  0.4674E-01  0.3375E+00
      8.339  0.4556E-01  0.3412E+00
      8.420  0.3263E-01  0.3438E+00
      8.500  0.3853E-01  0.3469E+00
      8.581  0.2627E-01  0.3490E+00
      8.662  0.2570E-01  0.3511E+00
      8.742  0.2720E-01  0.3533E+00
      8.823  0.1798E-01  0.3547E+00
      8.904  0.1755E-01  0.3562E+00
      8.984  0.1743E-01  0.3576E+00
      9.065  0.1086E-01  0.3584E+00
      9.146  0.1396E-01  0.3596E+00
      9.226  0.5309E-02  0.3600E+00
      9.307  0.1026E-03  0.3600E+00
      9.387  0.3561E-07  0.3600E+00
      9.468  0.1229E-12  0.3600E+00
      9.549  0.0000E+00  0.3600E+00
      9.629  0.0000E+00  0.3600E+00
      9.710  0.0000E+00  0.3600E+00
      9.791  0.0000E+00  0.3600E+00
      9.871  0.0000E+00  0.3600E+00
      9.952  0.0000E+00  0.3600E+00
     10.033  0.0000E+00  0.3600E+00
     10.113  0.2151E-18  0.3600E+00
     10.194  0.2388E-11  0.3600E+00
     10.275  0.1931E-06  0.3600E+00
     10.355  0.1174E-03  0.3600E+00
     10.436  0.1102E-02  0.3601E+00
     10.517  0.2049E-02  0.3603E+00
     10.597  0.1942E-02  0.3604E+00
     10.678  0.6052E-02  0.3609E+00
     10.758  0.5281E-02  0.3613E+00
     10.839  0.5217E-02  0.3618E+00
     10.920  0.4064E-02  0.3621E+00
     11.000  0.8392E-02  0.3628E+00
     11.081  0.1027E-01  0.3636E+00
     11.162  0.8770E-02  0.3643E+00
     11.242  0.2568E-02  0.3645E+00
     11.323  0.8459E-02  0.3652E+00
     11.404  0.1588E-01  0.3665E+00
     11.484  0.1490E-01  0.3677E+00
     11.565  0.2123E-01  0.3694E+00
     11.646  0.2145E-01  0.3711E+00
     11.726  0.2022E-01  0.3727E+00
     11.807  0.8919E-02  0.3735E+00
     11.888  0.1314E-01  0.3745E+00
     11.968  0.1140E-01  0.3754E+00
     12.049  0.5712E-02  0.3759E+00
     12.129  0.1747E-01  0.3773E+00
     12.210  0.2598E-01  0.3794E+00
     12.291  0.2514E-01  0.3814E+00
     12.371  0.2419E-01  0.3834E+00
     12.452  0.1034E-01  0.3842E+00
     12.533  0.1299E-01  0.3853E+00
     12.613  0.1304E-01  0.3863E+00
     12.694  0.1853E-01  0.3878E+00
     12.775  0.1841E-01  0.3893E+00
     12.855  0.2015E-01  0.3909E+00
     12.936  0.1008E-01  0.3917E+00
     13.017  0.2117E-01  0.3934E+00
     13.097  0.4211E-01  0.3968E+00
     13.178  0.4153E-01  0.4002E+00
     13.259  0.5652E-01  0.4047E+00
     13.339  0.2608E-01  0.4068E+00
     13.420  0.1724E-01  0.4082E+00
     13.500  0.1824E-01  0.4097E+00
     13.581  0.1687E-01  0.4111E+00
     13.662  0.9933E-02  0.4119E+00
     13.742  0.1108E-01  0.4128E+00
     13.823  0.2881E-01  0.4151E+00
     13.904  0.2406E-01  0.4170E+00
     13.984  0.3616E-01  0.4199E+00
     14.065  0.2413E-01  0.4219E+00
     14.146  0.3548E-01  0.4248E+00
     14.226  0.2138E-01  0.4265E+00
     14.307  0.4179E-01  0.4298E+00
     14.388  0.3868E-01  0.4330E+00
     14.468  0.2864E-01  0.4353E+00
     14.549  0.3034E-01  0.4377E+00
     14.630  0.4058E-01  0.4410E+00
     14.710  0.5768E-01  0.4456E+00
     14.791  0.7435E-01  0.4516E+00
     14.871  0.6139E-01  0.4566E+00
     14.952  0.3937E-01  0.4598E+00
     15.033  0.1924E-01  0.4613E+00
     15.113  0.3088E-01  0.4638E+00
     15.194  0.1818E-01  0.4653E+00
     15.275  0.2891E-01  0.4676E+00
     15.355  0.2614E-01  0.4697E+00
     15.436  0.1867E-01  0.4712E+00
     15.517  0.1379E-01  0.4723E+00
     15.597  0.1534E-01  0.4736E+00
     15.678  0.2173E-01  0.4753E+00
     15.759  0.2679E-01  0.4775E+00
     15.839  0.1872E-01  0.4790E+00
     15.920  0.2873E-02  0.4792E+00
     16.001  0.3725E-02  0.4795E+00
     16.081  0.3188E-02  0.4798E+00
     16.162  0.1252E-03  0.4798E+00
     16.242  0.5231E-03  0.4798E+00
     16.323  0.1868E-02  0.4800E+00
     16.404  0.1891E-03  0.4800E+00
     16.484  0.2447E-06  0.4800E+00
     16.565  0.2342E-11  0.4800E+00
     16.646  0.0000E+00  0.4800E+00
     16.726  0.0000E+00  0.4800E+00
     16.807  0.0000E+00  0.4800E+00
     16.888  0.0000E+00  0.4800E+00
     16.968  0.0000E+00  0.4800E+00
     17.049  0.0000E+00  0.4800E+00
     17.130  0.0000E+00  0.4800E+00
     17.210  0.0000E+00  0.4800E+00
     17.291  0.0000E+00  0.4800E+00
     17.372  0.0000E+00  0.4800E+00
