       N       E                     dE             d eps       ncg     rms          rms(c)
DAV:   1    -0.123879324559E+03   -0.12388E+03   -0.10696E-05  3180   0.240E-02    0.867E-03
DAV:   2    -0.123879324581E+03   -0.22296E-07   -0.53351E-06  2640   0.102E-02
   1 F= -.74345468E+02 E0= -.74345468E+02  d E =-.743455E+02
       N       E                     dE             d eps       ncg     rms          rms(c)
DAV:   1    -0.128348075009E+03   -0.44688E+01   -0.14302E+01  4272   0.176E+01    0.405E+00
DAV:   2    -0.127934374890E+03    0.41370E+00   -0.11500E+00  4248   0.389E+00    0.167E+00
DAV:   3    -0.127906265599E+03    0.28109E-01   -0.17770E-01  4404   0.139E+00    0.520E-01
DAV:   4    -0.127901094865E+03    0.51707E-02   -0.16550E-02  4380   0.442E-01    0.195E-01
DAV:   5    -0.127900133622E+03    0.96124E-03   -0.25641E-03  4440   0.177E-01    0.110E-01
DAV:   6    -0.127899924224E+03    0.20940E-03   -0.36598E-04  4404   0.678E-02    0.147E-02
DAV:   7    -0.127899921353E+03    0.28711E-05   -0.41246E-05  4284   0.261E-02
   2 F= -.74015749E+02 E0= -.74015749E+02  d E =0.329718E+00
       N       E                     dE             d eps       ncg     rms          rms(c)
DAV:   1    -0.125852606827E+03    0.20473E+01   -0.57615E+00  4248   0.116E+01    0.252E+00
DAV:   2    -0.125694162842E+03    0.15844E+00   -0.43916E-01  4260   0.242E+00    0.107E+00
DAV:   3    -0.125682653543E+03    0.11509E-01   -0.68364E-02  4380   0.887E-01    0.324E-01
DAV:   4    -0.125680838181E+03    0.18154E-02   -0.55065E-03  4380   0.266E-01    0.122E-01
DAV:   5    -0.125680555319E+03    0.28286E-03   -0.72957E-04  4512   0.980E-02    0.712E-02
DAV:   6    -0.125680513197E+03    0.42122E-04   -0.12394E-04  4404   0.392E-02    0.907E-03
DAV:   7    -0.125680510048E+03    0.31491E-05   -0.11060E-05  2712   0.157E-02
   3 F= -.74538928E+02 E0= -.74538928E+02  d E =-.193460E+00
       N       E                     dE             d eps       ncg     rms          rms(c)
DAV:   1    -0.125658391224E+03    0.22122E-01   -0.41070E-04  4224   0.971E-02    0.227E-02
DAV:   2    -0.125658380984E+03    0.10240E-04   -0.33110E-05  3624   0.215E-02    0.966E-03
DAV:   3    -0.125658381925E+03   -0.94056E-06   -0.74053E-06  2112   0.988E-03
   4 F= -.74538970E+02 E0= -.74538970E+02  d E =-.193502E+00
       N       E                     dE             d eps       ncg     rms          rms(c)
DAV:   1    -0.125664844111E+03   -0.64631E-02   -0.50051E-02  3792   0.104E+00    0.600E-02
DAV:   2    -0.125664720670E+03    0.12344E-03   -0.15981E-03  4752   0.184E-01    0.464E-02
DAV:   3    -0.125664682952E+03    0.37718E-04   -0.19824E-04  4548   0.618E-02    0.247E-02
DAV:   4    -0.125664674395E+03    0.85571E-05   -0.51285E-05  3984   0.273E-02
   5 F= -.74538627E+02 E0= -.74538627E+02  d E =0.343163E-03
       N       E                     dE             d eps       ncg     rms          rms(c)
DAV:   1    -0.125661539135E+03    0.31438E-02   -0.17232E-02  3744   0.609E-01    0.349E-02
DAV:   2    -0.125661493015E+03    0.46120E-04   -0.53227E-04  4692   0.106E-01    0.267E-02
DAV:   3    -0.125661479345E+03    0.13670E-04   -0.68925E-05  4536   0.363E-02    0.138E-02
DAV:   4    -0.125661476653E+03    0.26923E-05   -0.16461E-05  3204   0.151E-02
   6 F= -.74539311E+02 E0= -.74539311E+02  d E =-.341290E-03
       N       E                     dE             d eps       ncg     rms          rms(c)
DAV:   1    -0.125660405870E+03    0.10735E-02   -0.32371E-03  3672   0.234E-01    0.157E-02
DAV:   2    -0.125660398673E+03    0.71974E-05   -0.11487E-04  4320   0.477E-02    0.869E-03
DAV:   3    -0.125660396279E+03    0.23933E-05   -0.10500E-05  2352   0.155E-02
   7 F= -.74539393E+02 E0= -.74539393E+02  d E =-.815860E-04
