Al4C3 R-3m - H(P) scan @ 40 GPa (ISIF=8)
           1
     3.129326    0.000000    0.000000
    -1.564663    2.710076    0.000000
     0.000000    0.000000   23.394856
   Al   C 
    12     9
Direct configuration=     1
   0.00000000  0.00000000  0.62950503
   0.00000000  0.00000000  0.37049497
   0.66666669  0.33333334  0.96283834
   0.66666669  0.33333334  0.70382828
   0.33333334  0.66666669  0.29617169
   0.33333334  0.66666669  0.03716164
   0.00000000  0.00000000  0.20608266
   0.00000000  0.00000000  0.79391734
   0.66666669  0.33333334  0.53941597
   0.66666669  0.33333334  0.12725067
   0.33333334  0.66666669  0.87274934
   0.33333334  0.66666669  0.46058400
   0.00000000  0.00000000  0.71668628
   0.00000000  0.00000000  0.28331372
   0.66666669  0.33333334  0.05001961
   0.66666669  0.33333334  0.61664704
   0.33333334  0.66666669  0.38335293
   0.33333334  0.66666669  0.94998041
   0.00000000  0.00000000  0.50000000
   0.66666669  0.33333334  0.83333331
   0.33333334  0.66666669  0.16666667
Al4C3 R-3m - H(P) scan @ 40 GPa (ISIF=8)
           1
     3.218379    0.000000    0.000000
    -1.609190    2.787198    0.000000
     0.000000    0.000000   24.060616
   Al   C 
    12     9
Direct configuration=     2
   0.00000000  0.00000000  0.62950083
   0.00000000 -0.00000000  0.37049917
   0.66666669  0.33333334  0.96283415
   0.66666669  0.33333334  0.70383248
   0.33333334  0.66666669  0.29616749
   0.33333334  0.66666669  0.03716583
  -0.00000000 -0.00000000  0.20608527
  -0.00000000  0.00000000  0.79391473
   0.66666669  0.33333334  0.53941858
   0.66666669  0.33333334  0.12724806
   0.33333334  0.66666669  0.87275196
   0.33333334  0.66666669  0.46058139
  -0.00000000  0.00000000  0.71669278
   0.00000000 -0.00000000  0.28330722
   0.66666669  0.33333334  0.05002611
   0.66666669  0.33333334  0.61664053
   0.33333334  0.66666669  0.38335944
   0.33333334  0.66666669  0.94997391
   0.00000000  0.00000000  0.50000000
   0.66666669  0.33333334  0.83333331
   0.33333334  0.66666669  0.16666667
Al4C3 R-3m - H(P) scan @ 40 GPa (ISIF=8)
           1
     3.162823    0.000000    0.000000
    -1.581411    2.739085    0.000000
     0.000000    0.000000   23.645276
   Al   C 
    12     9
Direct configuration=     3
   0.00000000  0.00000000  0.62950338
   0.00000000 -0.00000000  0.37049662
   0.66666669  0.33333334  0.96283669
   0.66666669  0.33333334  0.70382993
   0.33333334  0.66666669  0.29617004
   0.33333334  0.66666669  0.03716329
  -0.00000000 -0.00000000  0.20608368
  -0.00000000  0.00000000  0.79391632
   0.66666669  0.33333334  0.53941700
   0.66666669  0.33333334  0.12724964
   0.33333334  0.66666669  0.87275037
   0.33333334  0.66666669  0.46058297
  -0.00000000  0.00000000  0.71668884
   0.00000000 -0.00000000  0.28331116
   0.66666669  0.33333334  0.05002217
   0.66666669  0.33333334  0.61664448
   0.33333334  0.66666669  0.38335549
   0.33333334  0.66666669  0.94997785
   0.00000000  0.00000000  0.50000000
   0.66666669  0.33333334  0.83333331
   0.33333334  0.66666669  0.16666667
Al4C3 R-3m - H(P) scan @ 40 GPa (ISIF=8)
           1
     3.162366    0.000000    0.000000
    -1.581183    2.738689    0.000000
     0.000000    0.000000   23.641859
   Al   C 
    12     9
Direct configuration=     4
   0.00000000  0.00000000  0.62950340
   0.00000000 -0.00000000  0.37049660
   0.66666669  0.33333334  0.96283671
   0.66666669  0.33333334  0.70382991
   0.33333334  0.66666669  0.29617006
   0.33333334  0.66666669  0.03716327
  -0.00000000 -0.00000000  0.20608367
  -0.00000000  0.00000000  0.79391633
   0.66666669  0.33333334  0.53941698
   0.66666669  0.33333334  0.12724966
   0.33333334  0.66666669  0.87275036
   0.33333334  0.66666669  0.46058299
  -0.00000000  0.00000000  0.71668880
   0.00000000 -0.00000000  0.28331120
   0.66666669  0.33333334  0.05002214
   0.66666669  0.33333334  0.61664451
   0.33333334  0.66666669  0.38335546
   0.33333334  0.66666669  0.94997788
   0.00000000  0.00000000  0.50000000
   0.66666669  0.33333334  0.83333331
   0.33333334  0.66666669  0.16666667
Al4C3 R-3m - H(P) scan @ 40 GPa (ISIF=8)
           1
     3.162503    0.000000    0.000000
    -1.581251    2.738808    0.000000
     0.000000    0.000000   23.642882
   Al   C 
    12     9
Direct configuration=     5
   0.00000000  0.00000000  0.62955837
  -0.00000000 -0.00000000  0.37044163
   0.66666669  0.33333334  0.96289169
   0.66666669  0.33333334  0.70377494
   0.33333334  0.66666669  0.29622503
   0.33333334  0.66666669  0.03710830
  -0.00000000 -0.00000000  0.20619739
  -0.00000000  0.00000000  0.79380261
   0.66666669  0.33333334  0.53953071
   0.66666669  0.33333334  0.12713594
   0.33333334  0.66666669  0.87286408
   0.33333334  0.66666669  0.46046926
  -0.00000000 -0.00000000  0.71675744
   0.00000000  0.00000000  0.28324256
   0.66666669  0.33333334  0.05009077
   0.66666669  0.33333334  0.61657588
   0.33333334  0.66666669  0.38342409
   0.33333334  0.66666669  0.94990925
   0.00000000  0.00000000  0.50000000
   0.66666669  0.33333334  0.83333331
   0.33333334  0.66666669  0.16666667
Al4C3 R-3m - H(P) scan @ 40 GPa (ISIF=8)
           1
     3.162423    0.000000    0.000000
    -1.581211    2.738738    0.000000
     0.000000    0.000000   23.642283
   Al   C 
    12     9
Direct configuration=     6
   0.00000000  0.00000000  0.62952621
   0.00000000 -0.00000000  0.37047379
   0.66666669  0.33333334  0.96285953
   0.66666669  0.33333334  0.70380710
   0.33333334  0.66666669  0.29619287
   0.33333334  0.66666669  0.03714045
  -0.00000000 -0.00000000  0.20613086
  -0.00000000  0.00000000  0.79386914
   0.66666669  0.33333334  0.53946418
   0.66666669  0.33333334  0.12720246
   0.33333334  0.66666669  0.87279755
   0.33333334  0.66666669  0.46053579
  -0.00000000 -0.00000000  0.71671728
   0.00000000 -0.00000000  0.28328272
   0.66666669  0.33333334  0.05005062
   0.66666669  0.33333334  0.61661603
   0.33333334  0.66666669  0.38338394
   0.33333334  0.66666669  0.94994940
   0.00000000  0.00000000  0.50000000
   0.66666669  0.33333334  0.83333331
   0.33333334  0.66666669  0.16666667
Al4C3 R-3m - H(P) scan @ 40 GPa (ISIF=8)
           1
     3.162399    0.000000    0.000000
    -1.581199    2.738717    0.000000
     0.000000    0.000000   23.642104
   Al   C 
    12     9
Direct configuration=     7
   0.00000000 -0.00000000  0.62956530
  -0.00000000 -0.00000000  0.37043470
   0.66666669  0.33333334  0.96289861
   0.66666669  0.33333334  0.70376801
   0.33333334  0.66666669  0.29623196
   0.33333334  0.66666669  0.03710137
   0.00000000 -0.00000000  0.20613545
  -0.00000000  0.00000000  0.79386455
   0.66666669  0.33333334  0.53946876
   0.66666669  0.33333334  0.12719788
   0.33333334  0.66666669  0.87280213
   0.33333334  0.66666669  0.46053121
  -0.00000000 -0.00000000  0.71670427
  -0.00000000  0.00000000  0.28329573
   0.66666669  0.33333334  0.05003760
   0.66666669  0.33333334  0.61662905
   0.33333334  0.66666669  0.38337092
   0.33333334  0.66666669  0.94996242
   0.00000000  0.00000000  0.50000000
   0.66666669  0.33333334  0.83333331
   0.33333334  0.66666669  0.16666667
