       N       E                     dE             d eps       ncg     rms          rms(c)
DAV:   1    -0.472757568352E+03   -0.47276E+03   -0.54328E+00  2520   0.801E+00    0.445E+00
DAV:   2    -0.441290231017E+03    0.31467E+02   -0.37193E+00  2520   0.686E+00    0.843E-01
DAV:   3    -0.441927456537E+03   -0.63723E+00   -0.50961E-01  2556   0.242E+00    0.130E+00
DAV:   4    -0.441976289474E+03   -0.48833E-01   -0.40587E-02  2790   0.616E-01    0.137E+00
DAV:   5    -0.441978363418E+03   -0.20739E-02   -0.59281E-03  2790   0.197E-01    0.988E-01
DAV:   6    -0.441976980917E+03    0.13825E-02   -0.12639E-02  2814   0.258E-01    0.244E-01
DAV:   7    -0.441977147544E+03   -0.16663E-03   -0.73202E-04  2946   0.706E-02    0.104E-01
DAV:   8    -0.441977151397E+03   -0.38523E-05   -0.55849E-05  2664   0.206E-02
   1 F= -.19917451E+03 E0= -.19917451E+03  d E =-.199175E+03
       N       E                     dE             d eps       ncg     rms          rms(c)
DAV:   1    -0.422160032700E+03    0.19817E+02   -0.29883E+01  2556   0.176E+01    0.625E+00
DAV:   2    -0.421638463819E+03    0.52157E+00   -0.22680E+00  2790   0.379E+00    0.310E+00
DAV:   3    -0.421621983655E+03    0.16480E-01   -0.35922E-01  2778   0.140E+00    0.893E-01
DAV:   4    -0.421629526868E+03   -0.75432E-02   -0.15229E-02  2814   0.401E-01    0.635E-01
DAV:   5    -0.421631220138E+03   -0.16933E-02   -0.16564E-03  2808   0.145E-01    0.529E-01
DAV:   6    -0.421632399255E+03   -0.11791E-02   -0.20122E-03  2778   0.165E-01    0.916E-02
DAV:   7    -0.421632093633E+03    0.30562E-03   -0.28699E-04  2760   0.539E-02    0.285E-02
DAV:   8    -0.421632029030E+03    0.64603E-04   -0.15377E-04  2868   0.306E-02    0.107E-02
DAV:   9    -0.421632016055E+03    0.12976E-04   -0.11614E-05  1356   0.922E-03    0.511E-03
DAV:  10    -0.421632002444E+03    0.13610E-04   -0.21503E-06  1350   0.470E-03    0.358E-03
DAV:  11    -0.421631987541E+03    0.14903E-04   -0.56129E-07  1320   0.240E-03    0.187E-03
DAV:  12    -0.421631982902E+03    0.46394E-05   -0.54783E-08  1296   0.102E-03
   2 F= -.19739215E+03 E0= -.19739215E+03  d E =0.178235E+01
       N       E                     dE             d eps       ncg     rms          rms(c)
DAV:   1    -0.437068878355E+03   -0.15437E+02   -0.14501E+01  2556   0.118E+01    0.443E+00
DAV:   2    -0.436854736799E+03    0.21414E+00   -0.11731E+00  2778   0.264E+00    0.220E+00
DAV:   3    -0.436841358354E+03    0.13378E-01   -0.17553E-01  2796   0.966E-01    0.640E-01
DAV:   4    -0.436843223989E+03   -0.18656E-02   -0.85455E-03  2820   0.298E-01    0.430E-01
DAV:   5    -0.436843626406E+03   -0.40242E-03   -0.97342E-04  2742   0.113E-01    0.367E-01
DAV:   6    -0.436843133983E+03    0.49242E-03   -0.11924E-03  2820   0.121E-01    0.610E-02
DAV:   7    -0.436843119864E+03    0.14118E-04   -0.19679E-04  2784   0.433E-02    0.232E-02
DAV:   8    -0.436843143131E+03   -0.23267E-04   -0.12535E-04  2844   0.270E-02    0.873E-03
DAV:   9    -0.436843143468E+03   -0.33698E-06   -0.10562E-05  1326   0.893E-03
   3 F= -.19953003E+03 E0= -.19953003E+03  d E =-.355520E+00
       N       E                     dE             d eps       ncg     rms          rms(c)
DAV:   1    -0.436778680540E+03    0.64463E-01   -0.36464E-04  2604   0.596E-02    0.232E-02
DAV:   2    -0.436778701239E+03   -0.20698E-04   -0.28349E-05  1626   0.134E-02    0.128E-02
DAV:   3    -0.436778721701E+03   -0.20463E-04   -0.85817E-06  1278   0.702E-03    0.356E-03
DAV:   4    -0.436778725995E+03   -0.42933E-05   -0.72991E-07  1278   0.280E-03
   4 F= -.19953014E+03 E0= -.19953014E+03  d E =-.355631E+00
       N       E                     dE             d eps       ncg     rms          rms(c)
DAV:   1    -0.436652785302E+03    0.12594E+00   -0.16119E-01  2712   0.125E+00    0.148E-01
DAV:   2    -0.436655560419E+03   -0.27751E-02   -0.22642E-02  2844   0.412E-01    0.175E-01
DAV:   3    -0.436655761886E+03   -0.20147E-03   -0.39498E-04  3084   0.524E-02    0.198E-01
DAV:   4    -0.436655333073E+03    0.42881E-03   -0.34623E-04  2772   0.540E-02    0.155E-01
DAV:   5    -0.436655099314E+03    0.23376E-03   -0.22127E-03  2784   0.132E-01    0.108E-01
DAV:   6    -0.436655105193E+03   -0.58797E-05   -0.17769E-04  2814   0.366E-02    0.101E-01
DAV:   7    -0.436655115845E+03   -0.10652E-04   -0.26441E-05  2160   0.162E-02    0.187E-02
DAV:   8    -0.436655129302E+03   -0.13457E-04   -0.20836E-05  1476   0.121E-02    0.366E-02
DAV:   9    -0.436655125638E+03    0.36642E-05   -0.27774E-06  1272   0.526E-03
   5 F= -.19952636E+03 E0= -.19952636E+03  d E =0.377327E-02
       N       E                     dE             d eps       ncg     rms          rms(c)
DAV:   1    -0.436733043758E+03   -0.77914E-01   -0.57824E-02  2712   0.748E-01    0.102E-01
DAV:   2    -0.436734040887E+03   -0.99713E-03   -0.81959E-03  2838   0.248E-01    0.108E-01
DAV:   3    -0.436734055856E+03   -0.14969E-04   -0.12148E-04  2946   0.309E-02    0.114E-01
DAV:   4    -0.436734181356E+03   -0.12550E-03   -0.62955E-05  2556   0.264E-02    0.146E-01
DAV:   5    -0.436733824507E+03    0.35685E-03   -0.18512E-03  2904   0.148E-01    0.984E-02
DAV:   6    -0.436733898223E+03   -0.73716E-04   -0.75487E-04  2928   0.696E-02    0.103E-01
DAV:   7    -0.436733864615E+03    0.33608E-04   -0.15549E-05  1698   0.175E-02    0.789E-02
DAV:   8    -0.436733833947E+03    0.30668E-04   -0.18166E-04  2814   0.421E-02    0.198E-02
DAV:   9    -0.436733840432E+03   -0.64849E-05   -0.42087E-05  2370   0.198E-02
   6 F= -.19953319E+03 E0= -.19953319E+03  d E =-.304974E-02
