Al4C3 Fd-3m polymorph (findsym-output) -
   1.00000000000000     
     7.8636589441179900    0.0000000000000000    0.0000000000000000
     0.0000000000000000    7.8636589441179900    0.0000000000000000
     0.0000000000000000    0.0000000000000000    7.8636589441179900
   Al   C 
    32    24
Direct
  0.7600645379653697  0.7600645379653697  0.7600645379653697
  0.2399354620346304  0.2399354620346304  0.2399354620346304
  0.9899354620346303  0.4899354620346305  0.2600645379653695
  0.0100645379653696  0.5100645379653697  0.7399354620346303
  0.4899354620346305  0.2600645379653695  0.9899354620346303
  0.5100645379653697  0.7399354620346303  0.0100645379653696
  0.2600645379653695  0.9899354620346303  0.4899354620346305
  0.7399354620346303  0.0100645379653696  0.5100645379653697
  0.5100645379653697  0.0100645379653696  0.7399354620346303
  0.4899354620346305  0.9899354620346303  0.2600645379653695
  0.0100645379653696  0.7399354620346303  0.5100645379653697
  0.9899354620346303  0.2600645379653695  0.4899354620346305
  0.7399354620346303  0.5100645379653697  0.0100645379653696
  0.2600645379653695  0.4899354620346305  0.9899354620346303
  0.7600645379653697  0.2600645379653695  0.2600645379653695
  0.2399354620346304  0.7399354620346303  0.7399354620346303
  0.9899354620346303  0.9899354620346303  0.7600645379653697
  0.0100645379653696  0.0100645379653696  0.2399354620346304
  0.4899354620346305  0.7600645379653697  0.4899354620346305
  0.5100645379653697  0.2399354620346304  0.5100645379653697
  0.5100645379653697  0.5100645379653697  0.2399354620346304
  0.4899354620346305  0.4899354620346305  0.7600645379653697
  0.0100645379653696  0.2399354620346304  0.0100645379653696
  0.9899354620346303  0.7600645379653697  0.9899354620346303
  0.2600645379653695  0.7600645379653697  0.2600645379653695
  0.7399354620346303  0.2399354620346304  0.7399354620346303
  0.7600645379653697  0.9899354620346303  0.9899354620346303
  0.2399354620346304  0.0100645379653696  0.0100645379653696
  0.2399354620346304  0.5100645379653697  0.5100645379653697
  0.7600645379653697  0.4899354620346305  0.4899354620346305
  0.2600645379653695  0.2600645379653695  0.7600645379653697
  0.7399354620346303  0.7399354620346303  0.2399354620346304
  0.0000000000000000 -0.0000000000000000  0.0000000000000000
  0.7500000000000000  0.2500000000000000  0.5000000000000000
  0.2500000000000000  0.7500000000000000  0.5000000000000000
  0.2500000000000000  0.5000000000000000  0.7500000000000000
  0.7500000000000000  0.5000000000000000  0.2500000000000000
  0.5000000000000000  0.7500000000000000  0.2500000000000000
  0.5000000000000000  0.2500000000000000  0.7500000000000000
  0.0000000000000000  0.5000000000000000  0.5000000000000000
  0.7500000000000000  0.7500000000000000  0.0000000000000000
  0.2500000000000000  0.2500000000000000  0.0000000000000000
  0.2500000000000000 -0.0000000000000000  0.2500000000000000
  0.7500000000000000 -0.0000000000000000  0.7500000000000000
  0.5000000000000000 -0.0000000000000000  0.5000000000000000
  0.0000000000000000  0.7500000000000000  0.7500000000000000
  0.0000000000000000  0.2500000000000000  0.2500000000000000
  0.5000000000000000  0.5000000000000000  0.0000000000000000
  0.3750000000000000  0.3750000000000000  0.3750000000000000
  0.6250000000000000  0.6250000000000000  0.6250000000000000
  0.3750000000000000  0.8750000000000000  0.8750000000000000
  0.6250000000000000  0.1250000000000000  0.1250000000000000
  0.8750000000000000  0.8750000000000000  0.3750000000000000
  0.1250000000000000  0.1250000000000000  0.6250000000000000
  0.8750000000000000  0.3750000000000000  0.8750000000000000
  0.1250000000000000  0.6250000000000000  0.1250000000000000
 
  0.00000000E+00  0.00000000E+00  0.00000000E+00
  0.00000000E+00  0.00000000E+00  0.00000000E+00
  0.00000000E+00  0.00000000E+00  0.00000000E+00
  0.00000000E+00  0.00000000E+00  0.00000000E+00
  0.00000000E+00  0.00000000E+00  0.00000000E+00
  0.00000000E+00  0.00000000E+00  0.00000000E+00
  0.00000000E+00  0.00000000E+00  0.00000000E+00
  0.00000000E+00  0.00000000E+00  0.00000000E+00
  0.00000000E+00  0.00000000E+00  0.00000000E+00
  0.00000000E+00  0.00000000E+00  0.00000000E+00
  0.00000000E+00  0.00000000E+00  0.00000000E+00
  0.00000000E+00  0.00000000E+00  0.00000000E+00
  0.00000000E+00  0.00000000E+00  0.00000000E+00
  0.00000000E+00  0.00000000E+00  0.00000000E+00
  0.00000000E+00  0.00000000E+00  0.00000000E+00
  0.00000000E+00  0.00000000E+00  0.00000000E+00
  0.00000000E+00  0.00000000E+00  0.00000000E+00
  0.00000000E+00  0.00000000E+00  0.00000000E+00
  0.00000000E+00  0.00000000E+00  0.00000000E+00
  0.00000000E+00  0.00000000E+00  0.00000000E+00
  0.00000000E+00  0.00000000E+00  0.00000000E+00
  0.00000000E+00  0.00000000E+00  0.00000000E+00
  0.00000000E+00  0.00000000E+00  0.00000000E+00
  0.00000000E+00  0.00000000E+00  0.00000000E+00
  0.00000000E+00  0.00000000E+00  0.00000000E+00
  0.00000000E+00  0.00000000E+00  0.00000000E+00
  0.00000000E+00  0.00000000E+00  0.00000000E+00
  0.00000000E+00  0.00000000E+00  0.00000000E+00
  0.00000000E+00  0.00000000E+00  0.00000000E+00
  0.00000000E+00  0.00000000E+00  0.00000000E+00
  0.00000000E+00  0.00000000E+00  0.00000000E+00
  0.00000000E+00  0.00000000E+00  0.00000000E+00
  0.00000000E+00  0.00000000E+00  0.00000000E+00
  0.00000000E+00  0.00000000E+00  0.00000000E+00
  0.00000000E+00  0.00000000E+00  0.00000000E+00
  0.00000000E+00  0.00000000E+00  0.00000000E+00
  0.00000000E+00  0.00000000E+00  0.00000000E+00
  0.00000000E+00  0.00000000E+00  0.00000000E+00
  0.00000000E+00  0.00000000E+00  0.00000000E+00
  0.00000000E+00  0.00000000E+00  0.00000000E+00
  0.00000000E+00  0.00000000E+00  0.00000000E+00
  0.00000000E+00  0.00000000E+00  0.00000000E+00
  0.00000000E+00  0.00000000E+00  0.00000000E+00
  0.00000000E+00  0.00000000E+00  0.00000000E+00
  0.00000000E+00  0.00000000E+00  0.00000000E+00
  0.00000000E+00  0.00000000E+00  0.00000000E+00
  0.00000000E+00  0.00000000E+00  0.00000000E+00
  0.00000000E+00  0.00000000E+00  0.00000000E+00
  0.00000000E+00  0.00000000E+00  0.00000000E+00
  0.00000000E+00  0.00000000E+00  0.00000000E+00
  0.00000000E+00  0.00000000E+00  0.00000000E+00
  0.00000000E+00  0.00000000E+00  0.00000000E+00
  0.00000000E+00  0.00000000E+00  0.00000000E+00
  0.00000000E+00  0.00000000E+00  0.00000000E+00
  0.00000000E+00  0.00000000E+00  0.00000000E+00
  0.00000000E+00  0.00000000E+00  0.00000000E+00
