       N       E                     dE             d eps       ncg     rms          rms(c)
DAV:   1     0.158902825857E+03    0.15890E+03   -0.23713E+04677248   0.152E+03
DAV:   2    -0.810102759742E+02   -0.23991E+03   -0.22686E+03896776   0.233E+02
DAV:   3    -0.946222608118E+02   -0.13612E+02   -0.13487E+02845632   0.561E+01
DAV:   4    -0.948319094399E+02   -0.20965E+00   -0.20934E+00830984   0.772E+00
DAV:   5    -0.948360811754E+02   -0.41717E-02   -0.41703E-02838928   0.107E+00    0.196E+01
DAV:   6    -0.814324748876E+02    0.13404E+02   -0.41932E+01797744   0.262E+01    0.663E+00
DAV:   7    -0.810433148900E+02    0.38916E+00   -0.29783E+00896936   0.742E+00    0.402E+00
DAV:   8    -0.809868082753E+02    0.56507E-01   -0.23794E-01800776   0.251E+00    0.697E-01
DAV:   9    -0.809750898063E+02    0.11718E-01   -0.50148E-02840056   0.990E-01    0.254E-01
DAV:  10    -0.809753068327E+02   -0.21703E-03   -0.50089E-03843536   0.352E-01    0.100E-01
DAV:  11    -0.809752869036E+02    0.19929E-04   -0.43620E-04949032   0.125E-01    0.718E-02
DAV:  12    -0.809752854616E+02    0.14420E-05   -0.16971E-04825760   0.618E-02    0.104E-02
DAV:  13    -0.809752859060E+02   -0.44437E-06   -0.71518E-06560232   0.157E-02
   1 F= -.43359645E+02 E0= -.43359232E+02  d E =-.433596E+02
