  28  28   0   0
  0.1005242E+02  0.9147920E-09  0.3084859E-09  0.9974035E-09  0.5000000E-15
  1.000000000000000E-004
  CAR 
 Al4C3 Pnma-III - H(P) scan @ 0 GPa (ISIF
     15.78705301     -6.75575100  301      8.95141734      1.00000000
     -6.756  0.0000E+00  0.0000E+00
     -6.681  0.0000E+00  0.0000E+00
     -6.605  0.0000E+00  0.0000E+00
     -6.530  0.0000E+00  0.0000E+00
     -6.455  0.0000E+00  0.0000E+00
     -6.380  0.0000E+00  0.0000E+00
     -6.305  0.0000E+00  0.0000E+00
     -6.230  0.0000E+00  0.0000E+00
     -6.155  0.0000E+00  0.0000E+00
     -6.079  0.0000E+00  0.0000E+00
     -6.004  0.4113E-17  0.3091E-18
     -5.929  0.7955E-11  0.5978E-12
     -5.854  0.1911E-06  0.1436E-07
     -5.779  0.6713E-04  0.5058E-05
     -5.704  0.7843E-03  0.6400E-04
     -5.629  0.3195E-02  0.3041E-03
     -5.553  0.6247E-02  0.7736E-03
     -5.478  0.6890E-02  0.1291E-02
     -5.403  0.6109E-02  0.1750E-02
     -5.328  0.8518E-02  0.2390E-02
     -5.253  0.1404E-01  0.3446E-02
     -5.178  0.1303E-01  0.4425E-02
     -5.103  0.9240E-02  0.5119E-02
     -5.027  0.8665E-02  0.5770E-02
     -4.952  0.1647E-01  0.7008E-02
     -4.877  0.1044E-01  0.7793E-02
     -4.802  0.6750E-02  0.8300E-02
     -4.727  0.1213E-01  0.9211E-02
     -4.652  0.2116E-01  0.1080E-01
     -4.577  0.1448E-01  0.1189E-01
     -4.501  0.1396E-01  0.1294E-01
     -4.426  0.1580E-01  0.1413E-01
     -4.351  0.1635E-01  0.1535E-01
     -4.276  0.2113E-01  0.1694E-01
     -4.201  0.2451E-01  0.1878E-01
     -4.126  0.1592E-01  0.1998E-01
     -4.051  0.1383E-01  0.2102E-01
     -3.975  0.1666E-01  0.2227E-01
     -3.900  0.2108E-01  0.2385E-01
     -3.825  0.2948E-01  0.2607E-01
     -3.750  0.3088E-01  0.2839E-01
     -3.675  0.1253E-01  0.2933E-01
     -3.600  0.1510E-01  0.3047E-01
     -3.525  0.3062E-01  0.3277E-01
     -3.449  0.2924E-01  0.3496E-01
     -3.374  0.1858E-01  0.3636E-01
     -3.299  0.2213E-01  0.3802E-01
     -3.224  0.3368E-01  0.4055E-01
     -3.149  0.3481E-01  0.4317E-01
     -3.074  0.2811E-01  0.4528E-01
     -2.999  0.3810E-01  0.4814E-01
     -2.923  0.3327E-01  0.5064E-01
     -2.848  0.3558E-01  0.5332E-01
     -2.773  0.2631E-01  0.5530E-01
     -2.698  0.2794E-01  0.5739E-01
     -2.623  0.3221E-01  0.5981E-01
     -2.548  0.3810E-01  0.6268E-01
     -2.473  0.5358E-01  0.6670E-01
     -2.397  0.3672E-01  0.6946E-01
     -2.322  0.2756E-01  0.7153E-01
     -2.247  0.3623E-01  0.7426E-01
     -2.172  0.5971E-01  0.7874E-01
     -2.097  0.6153E-01  0.8337E-01
     -2.022  0.7191E-01  0.8877E-01
     -1.947  0.5409E-01  0.9284E-01
     -1.871  0.4898E-01  0.9652E-01
     -1.796  0.4258E-01  0.9972E-01
     -1.721  0.2239E-01  0.1014E+00
     -1.646  0.3009E-01  0.1037E+00
     -1.571  0.3071E-01  0.1060E+00
     -1.496  0.3312E-01  0.1085E+00
     -1.421  0.2748E-01  0.1105E+00
     -1.345  0.3095E-01  0.1128E+00
     -1.270  0.2080E-01  0.1144E+00
     -1.195  0.2817E-01  0.1165E+00
     -1.120  0.2376E-01  0.1183E+00
     -1.045  0.1902E-01  0.1197E+00
     -0.970  0.3393E-02  0.1200E+00
     -0.895  0.4008E-04  0.1200E+00
     -0.819  0.9761E-08  0.1200E+00
     -0.744  0.3318E-13  0.1200E+00
     -0.669  0.0000E+00  0.1200E+00
     -0.594  0.0000E+00  0.1200E+00
     -0.519  0.0000E+00  0.1200E+00
     -0.444  0.0000E+00  0.1200E+00
     -0.369  0.0000E+00  0.1200E+00
     -0.293  0.0000E+00  0.1200E+00
     -0.218  0.0000E+00  0.1200E+00
     -0.143  0.0000E+00  0.1200E+00
     -0.068  0.0000E+00  0.1200E+00
      0.007  0.0000E+00  0.1200E+00
      0.082  0.0000E+00  0.1200E+00
      0.157  0.0000E+00  0.1200E+00
      0.233  0.0000E+00  0.1200E+00
      0.308  0.0000E+00  0.1200E+00
      0.383  0.0000E+00  0.1200E+00
      0.458  0.0000E+00  0.1200E+00
      0.533  0.0000E+00  0.1200E+00
      0.608  0.0000E+00  0.1200E+00
      0.683  0.2431E-15  0.1200E+00
      0.759  0.2007E-09  0.1200E+00
      0.834  0.2228E-05  0.1200E+00
      0.909  0.4225E-03  0.1200E+00
      0.984  0.3469E-02  0.1203E+00
      1.059  0.1118E-01  0.1211E+00
      1.134  0.1633E-01  0.1224E+00
      1.209  0.2059E-01  0.1239E+00
      1.285  0.1696E-01  0.1252E+00
      1.360  0.1895E-01  0.1266E+00
      1.435  0.2169E-01  0.1282E+00
      1.510  0.4700E-01  0.1318E+00
      1.585  0.4413E-01  0.1351E+00
      1.660  0.3297E-01  0.1376E+00
      1.735  0.2275E-01  0.1393E+00
      1.811  0.2863E-01  0.1414E+00
      1.886  0.5135E-01  0.1453E+00
      1.961  0.5639E-01  0.1495E+00
      2.036  0.4854E-01  0.1532E+00
      2.111  0.4207E-01  0.1563E+00
      2.186  0.5731E-01  0.1606E+00
      2.261  0.4013E-01  0.1636E+00
      2.337  0.5159E-01  0.1675E+00
      2.412  0.4661E-01  0.1710E+00
      2.487  0.4495E-01  0.1744E+00
      2.562  0.4971E-01  0.1781E+00
      2.637  0.4669E-01  0.1816E+00
      2.712  0.4133E-01  0.1848E+00
      2.787  0.5005E-01  0.1885E+00
      2.863  0.4424E-01  0.1918E+00
      2.938  0.3556E-01  0.1945E+00
      3.013  0.4614E-01  0.1980E+00
      3.088  0.4029E-01  0.2010E+00
      3.163  0.4421E-01  0.2043E+00
      3.238  0.2863E-01  0.2065E+00
      3.313  0.3495E-01  0.2091E+00
      3.389  0.5088E-01  0.2129E+00
      3.464  0.3592E-01  0.2156E+00
      3.539  0.3490E-01  0.2183E+00
      3.614  0.4597E-01  0.2217E+00
      3.689  0.3978E-01  0.2247E+00
      3.764  0.3615E-01  0.2274E+00
      3.839  0.3005E-01  0.2297E+00
      3.915  0.3655E-01  0.2324E+00
      3.990  0.4034E-01  0.2354E+00
      4.065  0.4248E-01  0.2386E+00
      4.140  0.4162E-01  0.2418E+00
      4.215  0.4156E-01  0.2449E+00
      4.290  0.5214E-01  0.2488E+00
      4.365  0.5067E-01  0.2526E+00
      4.441  0.4718E-01  0.2562E+00
      4.516  0.5198E-01  0.2601E+00
      4.591  0.3969E-01  0.2630E+00
      4.666  0.4669E-01  0.2666E+00
      4.741  0.4839E-01  0.2702E+00
      4.816  0.5607E-01  0.2744E+00
      4.891  0.4101E-01  0.2775E+00
      4.967  0.4240E-01  0.2807E+00
      5.042  0.4440E-01  0.2840E+00
      5.117  0.4916E-01  0.2877E+00
      5.192  0.4565E-01  0.2911E+00
      5.267  0.5072E-01  0.2949E+00
      5.342  0.4724E-01  0.2985E+00
      5.417  0.5330E-01  0.3025E+00
      5.493  0.4800E-01  0.3061E+00
      5.568  0.4275E-01  0.3093E+00
      5.643  0.5346E-01  0.3133E+00
      5.718  0.5411E-01  0.3174E+00
      5.793  0.6574E-01  0.3223E+00
      5.868  0.6352E-01  0.3271E+00
      5.943  0.5435E-01  0.3312E+00
      6.019  0.4949E-01  0.3349E+00
      6.094  0.5497E-01  0.3390E+00
      6.169  0.5187E-01  0.3429E+00
      6.244  0.5184E-01  0.3468E+00
      6.319  0.6426E-01  0.3517E+00
      6.394  0.6499E-01  0.3566E+00
      6.469  0.7089E-01  0.3619E+00
      6.545  0.7423E-01  0.3675E+00
      6.620  0.6823E-01  0.3726E+00
      6.695  0.6943E-01  0.3778E+00
      6.770  0.6820E-01  0.3829E+00
      6.845  0.6463E-01  0.3878E+00
      6.920  0.6719E-01  0.3928E+00
      6.995  0.6648E-01  0.3978E+00
      7.071  0.7629E-01  0.4036E+00
      7.146  0.7797E-01  0.4094E+00
      7.221  0.7675E-01  0.4152E+00
      7.296  0.6148E-01  0.4198E+00
      7.371  0.6230E-01  0.4245E+00
      7.446  0.5889E-01  0.4289E+00
      7.521  0.5868E-01  0.4333E+00
      7.597  0.7436E-01  0.4389E+00
      7.672  0.7287E-01  0.4444E+00
      7.747  0.6616E-01  0.4494E+00
      7.822  0.6115E-01  0.4539E+00
      7.897  0.4533E-01  0.4574E+00
      7.972  0.3174E-01  0.4597E+00
      8.047  0.3444E-01  0.4623E+00
      8.122  0.5879E-01  0.4667E+00
      8.198  0.5417E-01  0.4708E+00
      8.273  0.4066E-01  0.4739E+00
      8.348  0.2345E-01  0.4756E+00
      8.423  0.2180E-01  0.4773E+00
      8.498  0.1287E-01  0.4782E+00
      8.573  0.1278E-01  0.4792E+00
      8.648  0.7605E-02  0.4798E+00
      8.724  0.2911E-02  0.4800E+00
      8.799  0.1497E-03  0.4800E+00
      8.874  0.3242E-06  0.4800E+00
      8.949  0.1435E-10  0.4800E+00
      9.024  0.8731E-17  0.4800E+00
      9.099  0.0000E+00  0.4800E+00
      9.174  0.0000E+00  0.4800E+00
      9.250  0.0000E+00  0.4800E+00
      9.325  0.0000E+00  0.4800E+00
      9.400  0.0000E+00  0.4800E+00
      9.475  0.0000E+00  0.4800E+00
      9.550  0.0000E+00  0.4800E+00
      9.625  0.0000E+00  0.4800E+00
      9.700  0.0000E+00  0.4800E+00
      9.776  0.0000E+00  0.4800E+00
      9.851  0.0000E+00  0.4800E+00
      9.926  0.3197E-15  0.4800E+00
     10.001  0.3767E-09  0.4800E+00
     10.076  0.5863E-05  0.4800E+00
     10.151  0.1425E-02  0.4801E+00
     10.226  0.9494E-02  0.4808E+00
     10.302  0.1108E-01  0.4817E+00
     10.377  0.2431E-01  0.4835E+00
     10.452  0.2843E-01  0.4856E+00
     10.527  0.2422E-01  0.4874E+00
     10.602  0.2038E-01  0.4890E+00
     10.677  0.1588E-01  0.4902E+00
     10.752  0.1862E-01  0.4916E+00
     10.828  0.1896E-01  0.4930E+00
     10.903  0.1899E-01  0.4944E+00
     10.978  0.2464E-01  0.4963E+00
     11.053  0.3080E-01  0.4986E+00
     11.128  0.2812E-01  0.5007E+00
     11.203  0.3343E-01  0.5032E+00
     11.278  0.3020E-01  0.5055E+00
     11.354  0.4765E-01  0.5091E+00
     11.429  0.3815E-01  0.5119E+00
     11.504  0.3617E-01  0.5146E+00
     11.579  0.3719E-01  0.5174E+00
     11.654  0.4880E-01  0.5211E+00
     11.729  0.3342E-01  0.5236E+00
     11.804  0.2097E-01  0.5252E+00
     11.880  0.3191E-01  0.5276E+00
     11.955  0.7227E-01  0.5330E+00
     12.030  0.5733E-01  0.5373E+00
     12.105  0.3917E-01  0.5403E+00
     12.180  0.3822E-01  0.5431E+00
     12.255  0.4888E-01  0.5468E+00
     12.330  0.4093E-01  0.5499E+00
     12.406  0.4895E-01  0.5536E+00
     12.481  0.6098E-01  0.5581E+00
     12.556  0.6581E-01  0.5631E+00
     12.631  0.6170E-01  0.5677E+00
     12.706  0.5183E-01  0.5716E+00
     12.781  0.5700E-01  0.5759E+00
     12.856  0.4263E-01  0.5791E+00
     12.932  0.5410E-01  0.5832E+00
     13.007  0.5284E-01  0.5871E+00
     13.082  0.4192E-01  0.5903E+00
     13.157  0.4642E-01  0.5938E+00
     13.232  0.4359E-01  0.5971E+00
     13.307  0.3777E-01  0.5999E+00
     13.382  0.4276E-01  0.6031E+00
     13.458  0.3516E-01  0.6058E+00
     13.533  0.4278E-01  0.6090E+00
     13.608  0.4526E-01  0.6124E+00
     13.683  0.6931E-01  0.6176E+00
     13.758  0.6004E-01  0.6221E+00
     13.833  0.7062E-01  0.6274E+00
     13.908  0.4729E-01  0.6309E+00
     13.984  0.5101E-01  0.6348E+00
     14.059  0.5401E-01  0.6388E+00
     14.134  0.5727E-01  0.6431E+00
     14.209  0.3951E-01  0.6461E+00
     14.284  0.3690E-01  0.6489E+00
     14.359  0.3513E-01  0.6515E+00
     14.434  0.4100E-01  0.6546E+00
     14.510  0.2415E-01  0.6564E+00
     14.585  0.1383E-01  0.6575E+00
     14.660  0.1654E-01  0.6587E+00
     14.735  0.1387E-01  0.6597E+00
     14.810  0.3300E-02  0.6600E+00
     14.885  0.1126E-03  0.6600E+00
     14.960  0.2187E-06  0.6600E+00
     15.036  0.8236E-11  0.6600E+00
     15.111  0.4113E-17  0.6600E+00
     15.186  0.0000E+00  0.6600E+00
     15.261  0.0000E+00  0.6600E+00
     15.336  0.0000E+00  0.6600E+00
     15.411  0.0000E+00  0.6600E+00
     15.486  0.0000E+00  0.6600E+00
     15.562  0.0000E+00  0.6600E+00
     15.637  0.0000E+00  0.6600E+00
     15.712  0.0000E+00  0.6600E+00
     15.787  0.0000E+00  0.6600E+00
