       N       E                     dE             d eps       ncg     rms          rms(c)
DAV:   1    -0.194482411919E+03   -0.19448E+03   -0.10779E+02  8286   0.271E+01    0.263E+01
DAV:   2    -0.169528716387E+03    0.24954E+02   -0.83077E+01  8052   0.238E+01    0.775E+00
DAV:   3    -0.169083149001E+03    0.44557E+00   -0.56726E+00  8454   0.703E+00    0.477E+00
DAV:   4    -0.168999351263E+03    0.83798E-01   -0.62199E-01  8256   0.264E+00    0.104E+00
DAV:   5    -0.168964593506E+03    0.34758E-01   -0.13235E-01  8556   0.107E+00    0.407E-01
DAV:   6    -0.168964773416E+03   -0.17991E-03   -0.16347E-02  8706   0.426E-01    0.149E-01
DAV:   7    -0.168964811894E+03   -0.38478E-04   -0.74249E-04  9042   0.111E-01    0.833E-02
DAV:   8    -0.168964854828E+03   -0.42934E-04   -0.43387E-04  8538   0.629E-02    0.296E-02
DAV:   9    -0.168964844857E+03    0.99710E-05   -0.84340E-05  7950   0.270E-02
   1 F= -.16896484E+03 E0= -.16896484E+03  d E =-.168965E+03
       N       E                     dE             d eps       ncg     rms          rms(c)
DAV:   1    -0.169819401428E+03   -0.85455E+00   -0.21795E+01  7920   0.178E+01    0.491E+00
DAV:   2    -0.169206759985E+03    0.61264E+00   -0.18950E+00  8388   0.409E+00    0.189E+00
DAV:   3    -0.169179183958E+03    0.27576E-01   -0.18048E-01  8544   0.123E+00    0.656E-01
DAV:   4    -0.169171182635E+03    0.80013E-02   -0.19822E-02  8532   0.377E-01    0.255E-01
DAV:   5    -0.169169671320E+03    0.15113E-02   -0.46834E-03  8508   0.187E-01    0.122E-01
DAV:   6    -0.169169488373E+03    0.18295E-03   -0.44185E-04  8448   0.637E-02    0.501E-02
DAV:   7    -0.169169476074E+03    0.12298E-04   -0.13192E-04  8514   0.327E-02    0.856E-03
DAV:   8    -0.169169474496E+03    0.15787E-05   -0.60539E-06  4446   0.930E-03
   2 F= -.16916947E+03 E0= -.16916947E+03  d E =-.204630E+00
       N       E                     dE             d eps       ncg     rms          rms(c)
DAV:   1    -0.169520827956E+03   -0.35135E+00   -0.41723E+00  7914   0.803E+00    0.210E+00
DAV:   2    -0.169409456054E+03    0.11137E+00   -0.33803E-01  8436   0.174E+00    0.833E-01
DAV:   3    -0.169403786155E+03    0.56699E-02   -0.34037E-02  8520   0.542E-01    0.282E-01
DAV:   4    -0.169402359260E+03    0.14269E-02   -0.34105E-03  8466   0.159E-01    0.111E-01
DAV:   5    -0.169402125061E+03    0.23420E-03   -0.73163E-04  8490   0.757E-02    0.547E-02
DAV:   6    -0.169402102318E+03    0.22743E-04   -0.71050E-05  8028   0.256E-02    0.202E-02
DAV:   7    -0.169402099947E+03    0.23712E-05   -0.20748E-05  4530   0.136E-02
   3 F= -.16940210E+03 E0= -.16940210E+03  d E =-.437255E+00
       N       E                     dE             d eps       ncg     rms          rms(c)
DAV:   1    -0.169420816840E+03   -0.18715E-01   -0.10138E+00  7128   0.402E+00    0.189E-01
DAV:   2    -0.169420278917E+03    0.53792E-03   -0.17238E-02  8910   0.495E-01    0.118E-01
DAV:   3    -0.169419952081E+03    0.32684E-03   -0.21750E-03  8784   0.175E-01    0.539E-02
DAV:   4    -0.169419951253E+03    0.82776E-06   -0.49036E-04  8772   0.699E-02    0.269E-02
DAV:   5    -0.169419947695E+03    0.35576E-05   -0.10382E-04  8526   0.350E-02    0.102E-02
DAV:   6    -0.169419946409E+03    0.12869E-05   -0.14637E-05  4914   0.152E-02
   4 F= -.16941995E+03 E0= -.16941995E+03  d E =-.178465E-01
       N       E                     dE             d eps       ncg     rms          rms(c)
DAV:   1    -0.169425947511E+03   -0.59998E-02   -0.85462E-01  7128   0.369E+00    0.174E-01
DAV:   2    -0.169425505923E+03    0.44159E-03   -0.14537E-02  8940   0.454E-01    0.108E-01
DAV:   3    -0.169425228817E+03    0.27711E-03   -0.17876E-03  8772   0.159E-01    0.498E-02
DAV:   4    -0.169425228443E+03    0.37427E-06   -0.41108E-04  8796   0.635E-02    0.250E-02
DAV:   5    -0.169425225834E+03    0.26090E-05   -0.81781E-05  8520   0.313E-02
   5 F= -.16942523E+03 E0= -.16942523E+03  d E =-.231259E-01
       N       E                     dE             d eps       ncg     rms          rms(c)
DAV:   1    -0.169433385172E+03   -0.81567E-02   -0.11287E+00  7128   0.417E+00    0.193E-01
DAV:   2    -0.169433571414E+03   -0.18624E-03   -0.27992E-02  8928   0.590E-01    0.141E-01
DAV:   3    -0.169432999330E+03    0.57208E-03   -0.16400E-03  8784   0.163E-01    0.655E-02
DAV:   4    -0.169433008053E+03   -0.87225E-05   -0.79096E-04  8766   0.857E-02    0.281E-02
DAV:   5    -0.169433008250E+03   -0.19663E-06   -0.30481E-05  6726   0.236E-02
   6 F= -.16943301E+03 E0= -.16943301E+03  d E =-.778242E-02
       N       E                     dE             d eps       ncg     rms          rms(c)
DAV:   1    -0.169433011399E+03   -0.33459E-05   -0.19112E-04  7554   0.543E-02    0.553E-03
DAV:   2    -0.169433011043E+03    0.35612E-06   -0.49068E-06  4290   0.853E-03
   7 F= -.16943301E+03 E0= -.16943301E+03  d E =-.778521E-02
       N       E                     dE             d eps       ncg     rms          rms(c)
DAV:   1    -0.169435494847E+03   -0.24834E-02   -0.22896E-01  7128   0.192E+00    0.819E-02
DAV:   2    -0.169435679523E+03   -0.18468E-03   -0.47140E-03  9240   0.243E-01    0.579E-02
DAV:   3    -0.169435586945E+03    0.92578E-04   -0.17439E-04  8742   0.550E-02    0.318E-02
DAV:   4    -0.169435568597E+03    0.18348E-04   -0.19737E-04  8748   0.459E-02    0.121E-02
DAV:   5    -0.169435568074E+03    0.52312E-06   -0.20546E-05  5166   0.177E-02
   8 F= -.16943557E+03 E0= -.16943557E+03  d E =-.255703E-02
       N       E                     dE             d eps       ncg     rms          rms(c)
DAV:   1    -0.169435986784E+03   -0.41819E-03   -0.90309E-02  7128   0.121E+00    0.517E-02
DAV:   2    -0.169436070332E+03   -0.83548E-04   -0.19199E-03  9252   0.155E-01    0.374E-02
DAV:   3    -0.169436033576E+03    0.36756E-04   -0.67537E-05  8700   0.344E-02    0.211E-02
DAV:   4    -0.169436025902E+03    0.76734E-05   -0.84915E-05  8136   0.302E-02
   9 F= -.16943603E+03 E0= -.16943603E+03  d E =-.301486E-02
       N       E                     dE             d eps       ncg     rms          rms(c)
DAV:   1    -0.169437557487E+03   -0.15239E-02   -0.67680E-02  7128   0.106E+00    0.516E-02
DAV:   2    -0.169437618921E+03   -0.61433E-04   -0.11749E-03  9228   0.124E-01    0.354E-02
DAV:   3    -0.169437609811E+03    0.91097E-05   -0.86687E-05  8730   0.340E-02
  10 F= -.16943761E+03 E0= -.16943761E+03  d E =-.158391E-02
       N       E                     dE             d eps       ncg     rms          rms(c)
DAV:   1    -0.169437799206E+03   -0.18029E-03   -0.17359E-02  7152   0.536E-01    0.308E-02
DAV:   2    -0.169437811610E+03   -0.12404E-04   -0.26652E-04  9156   0.609E-02    0.217E-02
DAV:   3    -0.169437809996E+03    0.16142E-05   -0.29138E-05  6846   0.206E-02
  11 F= -.16943781E+03 E0= -.16943781E+03  d E =-.178409E-02
       N       E                     dE             d eps       ncg     rms          rms(c)
DAV:   1    -0.169438848242E+03   -0.10366E-02   -0.11543E-01  7128   0.135E+00    0.713E-02
DAV:   2    -0.169439040426E+03   -0.19218E-03   -0.36335E-03  8862   0.213E-01    0.540E-02
DAV:   3    -0.169438985486E+03    0.54940E-04   -0.16845E-04  9588   0.549E-02    0.314E-02
DAV:   4    -0.169438981960E+03    0.35260E-05   -0.11121E-04  8388   0.354E-02    0.131E-02
DAV:   5    -0.169438982285E+03   -0.32503E-06   -0.79854E-06  4326   0.115E-02
  12 F= -.16943898E+03 E0= -.16943898E+03  d E =-.117229E-02
       N       E                     dE             d eps       ncg     rms          rms(c)
DAV:   1    -0.169439024527E+03   -0.42567E-04   -0.71060E-03  7128   0.336E-01    0.179E-02
DAV:   2    -0.169439038307E+03   -0.13781E-04   -0.23291E-04  8916   0.541E-02    0.137E-02
DAV:   3    -0.169439034462E+03    0.38453E-05   -0.77369E-06  4674   0.135E-02
  13 F= -.16943903E+03 E0= -.16943903E+03  d E =-.122447E-02
       N       E                     dE             d eps       ncg     rms          rms(c)
DAV:   1    -0.169439340337E+03   -0.30203E-03   -0.26142E-02  7128   0.643E-01    0.299E-02
DAV:   2    -0.169439347373E+03   -0.70363E-05   -0.52201E-04  8946   0.808E-02    0.212E-02
DAV:   3    -0.169439339816E+03    0.75576E-05   -0.29492E-05  7380   0.220E-02
  14 F= -.16943934E+03 E0= -.16943934E+03  d E =-.305354E-03
       N       E                     dE             d eps       ncg     rms          rms(c)
DAV:   1    -0.169439354959E+03   -0.75858E-05   -0.17834E-03  7266   0.169E-01    0.945E-03
DAV:   2    -0.169439355027E+03   -0.67393E-07   -0.27920E-05  7164   0.200E-02
  15 F= -.16943936E+03 E0= -.16943936E+03  d E =-.320565E-03
       N       E                     dE             d eps       ncg     rms          rms(c)
DAV:   1    -0.169439549958E+03   -0.19500E-03   -0.19921E-02  7128   0.574E-01    0.303E-02
DAV:   2    -0.169439544989E+03    0.49699E-05   -0.37572E-04  8880   0.692E-02    0.192E-02
DAV:   3    -0.169439540656E+03    0.43329E-05   -0.29380E-05  6660   0.208E-02
  16 F= -.16943954E+03 E0= -.16943954E+03  d E =-.185629E-03
       N       E                     dE             d eps       ncg     rms          rms(c)
DAV:   1    -0.169439540418E+03    0.45705E-05   -0.87858E-06  4386   0.104E-02    0.379E-03
DAV:   2    -0.169439540411E+03    0.65152E-08   -0.12085E-06  4038   0.443E-03
  17 F= -.16943954E+03 E0= -.16943954E+03  d E =-.185385E-03
       N       E                     dE             d eps       ncg     rms          rms(c)
DAV:   1    -0.169439611337E+03   -0.70919E-04   -0.16494E-02  7140   0.515E-01    0.220E-02
DAV:   2    -0.169439621865E+03   -0.10528E-04   -0.35561E-04  8868   0.674E-02    0.164E-02
DAV:   3    -0.169439614768E+03    0.70965E-05   -0.15970E-05  5694   0.189E-02
  18 F= -.16943961E+03 E0= -.16943961E+03  d E =-.743569E-04
