Al4C3 Pnma-III - H(P) scan @ 0 GPa (ISIF
           1
     9.147920    0.000000    0.000000
     0.000000    3.084859    0.000000
     0.000000    0.000000    9.974035
   Al   C 
    16    12
Direct configuration=     1
   0.74180780  0.25000000  0.71778748
   0.75819220  0.75000000  0.21778748
   0.25819220  0.75000000  0.28221252
   0.24180780  0.25000000  0.78221252
   0.60773435  0.25000000  0.47600156
   0.89226565  0.75000000  0.97600156
   0.39226565  0.75000000  0.52399844
   0.10773435  0.25000000  0.02399844
   0.13395224  0.25000000  0.51776837
   0.36604776  0.75000000  0.01776837
   0.86604776  0.75000000  0.48223163
   0.63395224  0.25000000  0.98223163
   0.98665306  0.25000000  0.28172991
   0.51334694  0.75000000  0.78172991
   0.01334694  0.75000000  0.71827009
   0.48665306  0.25000000  0.21827009
   0.92953700  0.25000000  0.62149593
   0.57046300  0.75000000  0.12149593
   0.07046300  0.75000000  0.37850407
   0.42953700  0.25000000  0.87850407
   0.39591620  0.25000000  0.39991619
   0.10408380  0.75000000  0.89991619
   0.60408380  0.75000000  0.60008381
   0.89591620  0.25000000  0.10008381
   0.77447672  0.25000000  0.35773820
   0.72552328  0.75000000  0.85773820
   0.22552328  0.75000000  0.64226180
   0.27447672  0.25000000  0.14226180
Al4C3 Pnma-III - H(P) scan @ 0 GPa (ISIF
           1
     9.423576    0.000000    0.000000
     0.000000    3.177815    0.000000
     0.000000    0.000000   10.274585
   Al   C 
    16    12
Direct configuration=     2
   0.74181584  0.25000000  0.71778099
   0.75818416  0.75000000  0.21778099
   0.25818416  0.75000000  0.28221901
   0.24181584  0.25000000  0.78221901
   0.60775093  0.25000000  0.47598709
   0.89224907  0.75000000  0.97598709
   0.39224907  0.75000000  0.52401291
   0.10775093  0.25000000  0.02401291
   0.13394147  0.25000000  0.51777032
   0.36605853  0.75000000  0.01777032
   0.86605853  0.75000000  0.48222968
   0.63394147  0.25000000  0.98222968
   0.98661886  0.25000000  0.28175497
   0.51338114  0.75000000  0.78175497
   0.01338114  0.75000000  0.71824503
   0.48661886  0.25000000  0.21824503
   0.92954004  0.25000000  0.62148457
   0.57045996  0.75000000  0.12148457
   0.07045996  0.75000000  0.37851543
   0.42954004  0.25000000  0.87851543
   0.39589039  0.25000000  0.39994159
   0.10410961  0.75000000  0.89994159
   0.60410961  0.75000000  0.60005841
   0.89589039  0.25000000  0.10005841
   0.77447345  0.25000000  0.35773865
   0.72552655  0.75000000  0.85773865
   0.22552655  0.75000000  0.64226135
   0.27447345  0.25000000  0.14226135
Al4C3 Pnma-III - H(P) scan @ 0 GPa (ISIF
           1
     9.304808    0.000000    0.000000
     0.000000    3.137764    0.000000
     0.000000    0.000000   10.145091
   Al   C 
    16    12
Direct configuration=     3
   0.74181248  0.25000000  0.71778371
   0.75818752  0.75000000  0.21778371
   0.25818752  0.75000000  0.28221629
   0.24181248  0.25000000  0.78221629
   0.60774399  0.25000000  0.47599315
   0.89225601  0.75000000  0.97599315
   0.39225601  0.75000000  0.52400685
   0.10774399  0.25000000  0.02400685
   0.13394597  0.25000000  0.51776950
   0.36605403  0.75000000  0.01776950
   0.86605403  0.75000000  0.48223050
   0.63394597  0.25000000  0.98223050
   0.98663317  0.25000000  0.28174448
   0.51336683  0.75000000  0.78174448
   0.01336683  0.75000000  0.71825552
   0.48663317  0.25000000  0.21825552
   0.92953877  0.25000000  0.62148932
   0.57046123  0.75000000  0.12148932
   0.07046123  0.75000000  0.37851068
   0.42953877  0.25000000  0.87851068
   0.39590119  0.25000000  0.39993097
   0.10409881  0.75000000  0.89993097
   0.60409881  0.75000000  0.60006903
   0.89590119  0.25000000  0.10006903
   0.77447482  0.25000000  0.35773847
   0.72552518  0.75000000  0.85773847
   0.22552518  0.75000000  0.64226153
   0.27447482  0.25000000  0.14226153
Al4C3 Pnma-III - H(P) scan @ 0 GPa (ISIF
           1
     9.309070    0.000000    0.000000
     0.000000    3.139202    0.000000
     0.000000    0.000000   10.149738
   Al   C 
    16    12
Direct configuration=     4
   0.74229296  0.25000000  0.71788467
   0.75770704  0.75000000  0.21788467
   0.25770704  0.75000000  0.28211533
   0.24229296  0.25000000  0.78211533
   0.60790460  0.25000000  0.47652655
   0.89209540  0.75000000  0.97652655
   0.39209540  0.75000000  0.52347345
   0.10790460  0.25000000  0.02347345
   0.13334340  0.25000000  0.51815515
   0.36665660  0.75000000  0.01815515
   0.86665660  0.75000000  0.48184485
   0.63334340  0.25000000  0.98184485
   0.98596905  0.25000000  0.28224708
   0.51403095  0.75000000  0.78224708
   0.01403095  0.75000000  0.71775292
   0.48596905  0.25000000  0.21775292
   0.92954434  0.25000000  0.62205415
   0.57045566  0.75000000  0.12205415
   0.07045566  0.75000000  0.37794585
   0.42954434  0.25000000  0.87794585
   0.39672911  0.25000000  0.40018120
   0.10327089  0.75000000  0.90018120
   0.60327089  0.75000000  0.59981880
   0.89672911  0.25000000  0.09981880
   0.77455469  0.25000000  0.35792912
   0.72544531  0.75000000  0.85792912
   0.22544531  0.75000000  0.64207088
   0.27455469  0.25000000  0.14207088
Al4C3 Pnma-III - H(P) scan @ 0 GPa (ISIF
           1
     9.312985    0.000000    0.000000
     0.000000    3.140522    0.000000
     0.000000    0.000000   10.154007
   Al   C 
    16    12
Direct configuration=     5
   0.74273408  0.25000000  0.71797736
   0.75726592  0.75000000  0.21797736
   0.25726592  0.75000000  0.28202264
   0.24273408  0.25000000  0.78202264
   0.60805205  0.25000000  0.47701624
   0.89194795  0.75000000  0.97701624
   0.39194795  0.75000000  0.52298376
   0.10805205  0.25000000  0.02298376
   0.13279021  0.25000000  0.51850920
   0.36720979  0.75000000  0.01850920
   0.86720979  0.75000000  0.48149080
   0.63279021  0.25000000  0.98149080
   0.98535935  0.25000000  0.28270849
   0.51464065  0.75000000  0.78270849
   0.01464065  0.75000000  0.71729151
   0.48535935  0.25000000  0.21729151
   0.92954946  0.25000000  0.62257270
   0.57045054  0.75000000  0.12257270
   0.07045054  0.75000000  0.37742730
   0.42954946  0.25000000  0.87742730
   0.39748919  0.25000000  0.40041093
   0.10251081  0.75000000  0.90041093
   0.60251081  0.75000000  0.59958907
   0.89748919  0.25000000  0.09958907
   0.77462801  0.25000000  0.35810415
   0.72537199  0.75000000  0.85810415
   0.22537199  0.75000000  0.64189585
   0.27462801  0.25000000  0.14189585
Al4C3 Pnma-III - H(P) scan @ 0 GPa (ISIF
           1
     9.315684    0.000000    0.000000
     0.000000    3.141432    0.000000
     0.000000    0.000000   10.156949
   Al   C 
    16    12
Direct configuration=     6
   0.74298792  0.25000000  0.71836251
   0.75701208  0.75000000  0.21836251
   0.25701208  0.75000000  0.28163749
   0.24298792  0.25000000  0.78163749
   0.60820402  0.25000000  0.47751397
   0.89179598  0.75000000  0.97751397
   0.39179598  0.75000000  0.52248603
   0.10820402  0.25000000  0.02248603
   0.13240949  0.25000000  0.51891368
   0.36759051  0.75000000  0.01891368
   0.86759051  0.75000000  0.48108632
   0.63240949  0.25000000  0.98108632
   0.98417774  0.25000000  0.28235517
   0.51582226  0.75000000  0.78235517
   0.01582226  0.75000000  0.71764483
   0.48417774  0.25000000  0.21764483
   0.92986306  0.25000000  0.62255689
   0.57013694  0.75000000  0.12255689
   0.07013694  0.75000000  0.37744311
   0.42986306  0.25000000  0.87744311
   0.39820123  0.25000000  0.39981925
   0.10179877  0.75000000  0.89981925
   0.60179877  0.75000000  0.60018075
   0.89820123  0.25000000  0.10018075
   0.77488216  0.25000000  0.35843043
   0.72511784  0.75000000  0.85843043
   0.22511784  0.75000000  0.64156957
   0.27488216  0.25000000  0.14156957
Al4C3 Pnma-III - H(P) scan @ 0 GPa (ISIF
           1
     9.315649    0.000000    0.000000
     0.000000    3.141420    0.000000
     0.000000    0.000000   10.156911
   Al   C 
    16    12
Direct configuration=     7
   0.74298467  0.25000000  0.71835757
   0.75701533  0.75000000  0.21835757
   0.25701533  0.75000000  0.28164243
   0.24298467  0.25000000  0.78164243
   0.60820207  0.25000000  0.47750759
   0.89179793  0.75000000  0.97750759
   0.39179793  0.75000000  0.52249241
   0.10820207  0.25000000  0.02249241
   0.13241437  0.25000000  0.51890849
   0.36758563  0.75000000  0.01890849
   0.86758563  0.75000000  0.48109151
   0.63241437  0.25000000  0.98109151
   0.98419288  0.25000000  0.28235970
   0.51580712  0.75000000  0.78235970
   0.01580712  0.75000000  0.71764030
   0.48419288  0.25000000  0.21764030
   0.92985904  0.25000000  0.62255709
   0.57014096  0.75000000  0.12255709
   0.07014096  0.75000000  0.37744291
   0.42985904  0.25000000  0.87744291
   0.39819211  0.25000000  0.39982684
   0.10180789  0.75000000  0.89982684
   0.60180789  0.75000000  0.60017316
   0.89819211  0.25000000  0.10017316
   0.77487890  0.25000000  0.35842625
   0.72512110  0.75000000  0.85842625
   0.22512110  0.75000000  0.64157375
   0.27487890  0.25000000  0.14157375
Al4C3 Pnma-III - H(P) scan @ 0 GPa (ISIF
           1
     9.316770    0.000000    0.000000
     0.000000    3.141798    0.000000
     0.000000    0.000000   10.158133
   Al   C 
    16    12
Direct configuration=     8
   0.74345322  0.25000000  0.71859343
   0.75654678  0.75000000  0.21859343
   0.25654678  0.75000000  0.28140657
   0.24345322  0.25000000  0.78140657
   0.60834722  0.25000000  0.47768600
   0.89165278  0.75000000  0.97768600
   0.39165278  0.75000000  0.52231400
   0.10834722  0.25000000  0.02231400
   0.13211927  0.25000000  0.51874655
   0.36788073  0.75000000  0.01874655
   0.86788073  0.75000000  0.48125345
   0.63211927  0.25000000  0.98125345
   0.98413858  0.25000000  0.28228621
   0.51586142  0.75000000  0.78228621
   0.01586142  0.75000000  0.71771379
   0.48413858  0.25000000  0.21771379
   0.93005261  0.25000000  0.62249117
   0.56994739  0.75000000  0.12249117
   0.06994739  0.75000000  0.37750883
   0.43005261  0.25000000  0.87750883
   0.39821136  0.25000000  0.39955923
   0.10178864  0.75000000  0.89955923
   0.60178864  0.75000000  0.60044077
   0.89821136  0.25000000  0.10044077
   0.77474184  0.25000000  0.35874691
   0.72525816  0.75000000  0.85874691
   0.22525816  0.75000000  0.64125309
   0.27474184  0.25000000  0.14125309
Al4C3 Pnma-III - H(P) scan @ 0 GPa (ISIF
           1
     9.317473    0.000000    0.000000
     0.000000    3.142035    0.000000
     0.000000    0.000000   10.158900
   Al   C 
    16    12
Direct configuration=     9
   0.74374731  0.25000000  0.71874146
   0.75625269  0.75000000  0.21874146
   0.25625269  0.75000000  0.28125854
   0.24374731  0.25000000  0.78125854
   0.60843833  0.25000000  0.47779798
   0.89156167  0.75000000  0.97779798
   0.39156167  0.75000000  0.52220202
   0.10843833  0.25000000  0.02220202
   0.13193404  0.25000000  0.51864491
   0.36806596  0.75000000  0.01864491
   0.86806596  0.75000000  0.48135509
   0.63193404  0.25000000  0.98135509
   0.98410450  0.25000000  0.28224009
   0.51589550  0.75000000  0.78224009
   0.01589550  0.75000000  0.71775991
   0.48410450  0.25000000  0.21775991
   0.93017410  0.25000000  0.62244980
   0.56982590  0.75000000  0.12244980
   0.06982590  0.75000000  0.37755020
   0.43017410  0.25000000  0.87755020
   0.39822344  0.25000000  0.39939127
   0.10177656  0.75000000  0.89939127
   0.60177656  0.75000000  0.60060873
   0.89822344  0.25000000  0.10060873
   0.77465581  0.25000000  0.35894817
   0.72534419  0.75000000  0.85894817
   0.22534419  0.75000000  0.64105183
   0.27465581  0.25000000  0.14105183
Al4C3 Pnma-III - H(P) scan @ 0 GPa (ISIF
           1
     9.317151    0.000000    0.000000
     0.000000    3.141926    0.000000
     0.000000    0.000000   10.158548
   Al   C 
    16    12
Direct configuration=    10
   0.74408587  0.25000000  0.71917246
   0.75591413  0.75000000  0.21917246
   0.25591413  0.75000000  0.28082754
   0.24408587  0.25000000  0.78082754
   0.60831081  0.25000000  0.47825061
   0.89168919  0.75000000  0.97825061
   0.39168919  0.75000000  0.52174939
   0.10831081  0.25000000  0.02174939
   0.13189238  0.25000000  0.51844116
   0.36810762  0.75000000  0.01844116
   0.86810762  0.75000000  0.48155884
   0.63189238  0.25000000  0.98155884
   0.98400560  0.25000000  0.28223231
   0.51599440  0.75000000  0.78223231
   0.01599440  0.75000000  0.71776769
   0.48400560  0.25000000  0.21776769
   0.93034688  0.25000000  0.62244682
   0.56965312  0.75000000  0.12244682
   0.06965312  0.75000000  0.37755318
   0.43034688  0.25000000  0.87755318
   0.39806621  0.25000000  0.39937866
   0.10193379  0.75000000  0.89937866
   0.60193379  0.75000000  0.60062134
   0.89806621  0.25000000  0.10062134
   0.77461967  0.25000000  0.35903125
   0.72538033  0.75000000  0.85903125
   0.22538033  0.75000000  0.64096875
   0.27461967  0.25000000  0.14096875
Al4C3 Pnma-III - H(P) scan @ 0 GPa (ISIF
           1
     9.316987    0.000000    0.000000
     0.000000    3.141871    0.000000
     0.000000    0.000000   10.158370
   Al   C 
    16    12
Direct configuration=    11
   0.74425784  0.25000000  0.71939137
   0.75574216  0.75000000  0.21939137
   0.25574216  0.75000000  0.28060863
   0.24425784  0.25000000  0.78060863
   0.60824603  0.25000000  0.47848051
   0.89175397  0.75000000  0.97848051
   0.39175397  0.75000000  0.52151949
   0.10824603  0.25000000  0.02151949
   0.13187122  0.25000000  0.51833766
   0.36812878  0.75000000  0.01833766
   0.86812878  0.75000000  0.48166234
   0.63187122  0.25000000  0.98166234
   0.98395537  0.25000000  0.28222835
   0.51604463  0.75000000  0.78222835
   0.01604463  0.75000000  0.71777165
   0.48395537  0.25000000  0.21777165
   0.93043464  0.25000000  0.62244530
   0.56956536  0.75000000  0.12244530
   0.06956536  0.75000000  0.37755470
   0.43043464  0.25000000  0.87755470
   0.39798635  0.25000000  0.39937226
   0.10201365  0.75000000  0.89937226
   0.60201365  0.75000000  0.60062774
   0.89798635  0.25000000  0.10062774
   0.77460132  0.25000000  0.35907345
   0.72539868  0.75000000  0.85907345
   0.22539868  0.75000000  0.64092655
   0.27460132  0.25000000  0.14092655
Al4C3 Pnma-III - H(P) scan @ 0 GPa (ISIF
           1
     9.318502    0.000000    0.000000
     0.000000    3.142382    0.000000
     0.000000    0.000000   10.160021
   Al   C 
    16    12
Direct configuration=    12
   0.74455525  0.25000000  0.71992395
   0.75544475  0.75000000  0.21992395
   0.25544475  0.75000000  0.28007605
   0.24455525  0.25000000  0.78007605
   0.60838986  0.25000000  0.47874244
   0.89161014  0.75000000  0.97874244
   0.39161014  0.75000000  0.52125756
   0.10838986  0.25000000  0.02125756
   0.13217516  0.25000000  0.51815404
   0.36782484  0.75000000  0.01815404
   0.86782484  0.75000000  0.48184596
   0.63217516  0.25000000  0.98184596
   0.98369323  0.25000000  0.28217093
   0.51630677  0.75000000  0.78217093
   0.01630677  0.75000000  0.71782907
   0.48369323  0.25000000  0.21782907
   0.93046076  0.25000000  0.62256311
   0.56953924  0.75000000  0.12256311
   0.06953924  0.75000000  0.37743689
   0.43046076  0.25000000  0.87743689
   0.39785838  0.25000000  0.39936116
   0.10214162  0.75000000  0.89936116
   0.60214162  0.75000000  0.60063884
   0.89785838  0.25000000  0.10063884
   0.77434841  0.25000000  0.35918046
   0.72565159  0.75000000  0.85918046
   0.22565159  0.75000000  0.64081954
   0.27434841  0.25000000  0.14081954
Al4C3 Pnma-III - H(P) scan @ 0 GPa (ISIF
           1
     9.318877    0.000000    0.000000
     0.000000    3.142508    0.000000
     0.000000    0.000000   10.160430
   Al   C 
    16    12
Direct configuration=    13
   0.74462891  0.25000000  0.72005586
   0.75537109  0.75000000  0.22005586
   0.25537109  0.75000000  0.27994414
   0.24462891  0.25000000  0.77994414
   0.60842548  0.25000000  0.47880732
   0.89157452  0.75000000  0.97880732
   0.39157452  0.75000000  0.52119268
   0.10842548  0.25000000  0.02119268
   0.13225044  0.25000000  0.51810856
   0.36774956  0.75000000  0.01810856
   0.86774956  0.75000000  0.48189144
   0.63225044  0.25000000  0.98189144
   0.98362830  0.25000000  0.28215670
   0.51637170  0.75000000  0.78215670
   0.01637170  0.75000000  0.71784330
   0.48362830  0.25000000  0.21784330
   0.93046723  0.25000000  0.62259229
   0.56953277  0.75000000  0.12259229
   0.06953277  0.75000000  0.37740771
   0.43046723  0.25000000  0.87740771
   0.39782668  0.25000000  0.39935841
   0.10217332  0.75000000  0.89935841
   0.60217332  0.75000000  0.60064159
   0.89782668  0.25000000  0.10064159
   0.77428577  0.25000000  0.35920697
   0.72571423  0.75000000  0.85920697
   0.22571423  0.75000000  0.64079303
   0.27428577  0.25000000  0.14079303
Al4C3 Pnma-III - H(P) scan @ 0 GPa (ISIF
           1
     9.317912    0.000000    0.000000
     0.000000    3.142183    0.000000
     0.000000    0.000000   10.159378
   Al   C 
    16    12
Direct configuration=    14
   0.74481619  0.25000000  0.72009332
   0.75518381  0.75000000  0.22009332
   0.25518381  0.75000000  0.27990668
   0.24481619  0.25000000  0.77990668
   0.60837414  0.25000000  0.47878544
   0.89162586  0.75000000  0.97878544
   0.39162586  0.75000000  0.52121456
   0.10837414  0.25000000  0.02121456
   0.13238416  0.25000000  0.51793381
   0.36761584  0.75000000  0.01793381
   0.86761584  0.75000000  0.48206619
   0.63238416  0.25000000  0.98206619
   0.98350843  0.25000000  0.28221169
   0.51649157  0.75000000  0.78221169
   0.01649157  0.75000000  0.71778831
   0.48350843  0.25000000  0.21778831
   0.93050667  0.25000000  0.62271662
   0.56949333  0.75000000  0.12271662
   0.06949333  0.75000000  0.37728338
   0.43050667  0.25000000  0.87728338
   0.39785858  0.25000000  0.39933013
   0.10214142  0.75000000  0.89933013
   0.60214142  0.75000000  0.60066987
   0.89785858  0.25000000  0.10066987
   0.77423409  0.25000000  0.35925635
   0.72576591  0.75000000  0.85925635
   0.22576591  0.75000000  0.64074365
   0.27423409  0.25000000  0.14074365
Al4C3 Pnma-III - H(P) scan @ 0 GPa (ISIF
           1
     9.317659    0.000000    0.000000
     0.000000    3.142098    0.000000
     0.000000    0.000000   10.159102
   Al   C 
    16    12
Direct configuration=    15
   0.74486522  0.25000000  0.72010313
   0.75513478  0.75000000  0.22010313
   0.25513478  0.75000000  0.27989687
   0.24486522  0.25000000  0.77989687
   0.60836070  0.25000000  0.47877972
   0.89163930  0.75000000  0.97877972
   0.39163930  0.75000000  0.52122028
   0.10836070  0.25000000  0.02122028
   0.13241918  0.25000000  0.51788806
   0.36758082  0.75000000  0.01788806
   0.86758082  0.75000000  0.48211194
   0.63241918  0.25000000  0.98211194
   0.98347705  0.25000000  0.28222609
   0.51652295  0.75000000  0.78222609
   0.01652295  0.75000000  0.71777391
   0.48347705  0.25000000  0.21777391
   0.93051700  0.25000000  0.62274917
   0.56948300  0.75000000  0.12274917
   0.06948300  0.75000000  0.37725083
   0.43051700  0.25000000  0.87725083
   0.39786694  0.25000000  0.39932272
   0.10213306  0.75000000  0.89932272
   0.60213306  0.75000000  0.60067728
   0.89786694  0.25000000  0.10067728
   0.77422056  0.25000000  0.35926928
   0.72577944  0.75000000  0.85926928
   0.22577944  0.75000000  0.64073072
   0.27422056  0.25000000  0.14073072
Al4C3 Pnma-III - H(P) scan @ 0 GPa (ISIF
           1
     9.318864    0.000000    0.000000
     0.000000    3.142504    0.000000
     0.000000    0.000000   10.160416
   Al   C 
    16    12
Direct configuration=    16
   0.74492310  0.25000000  0.72014194
   0.75507690  0.75000000  0.22014194
   0.25507690  0.75000000  0.27985806
   0.24492310  0.25000000  0.77985806
   0.60823822  0.25000000  0.47873798
   0.89176178  0.75000000  0.97873798
   0.39176178  0.75000000  0.52126202
   0.10823822  0.25000000  0.02126202
   0.13255063  0.25000000  0.51771834
   0.36744937  0.75000000  0.01771834
   0.86744937  0.75000000  0.48228166
   0.63255063  0.25000000  0.98228166
   0.98325318  0.25000000  0.28227587
   0.51674682  0.75000000  0.78227587
   0.01674682  0.75000000  0.71772413
   0.48325318  0.25000000  0.21772413
   0.93065320  0.25000000  0.62274469
   0.56934680  0.75000000  0.12274469
   0.06934680  0.75000000  0.37725531
   0.43065320  0.25000000  0.87725531
   0.39785980  0.25000000  0.39932707
   0.10214020  0.75000000  0.89932707
   0.60214020  0.75000000  0.60067293
   0.89785980  0.25000000  0.10067293
   0.77423198  0.25000000  0.35931658
   0.72576802  0.75000000  0.85931658
   0.22576802  0.75000000  0.64068342
   0.27423198  0.25000000  0.14068342
Al4C3 Pnma-III - H(P) scan @ 0 GPa (ISIF
           1
     9.318869    0.000000    0.000000
     0.000000    3.142506    0.000000
     0.000000    0.000000   10.160422
   Al   C 
    16    12
Direct configuration=    17
   0.74492335  0.25000000  0.72014211
   0.75507665  0.75000000  0.22014211
   0.25507665  0.75000000  0.27985789
   0.24492335  0.25000000  0.77985789
   0.60823771  0.25000000  0.47873781
   0.89176229  0.75000000  0.97873781
   0.39176229  0.75000000  0.52126219
   0.10823771  0.25000000  0.02126219
   0.13255119  0.25000000  0.51771762
   0.36744881  0.75000000  0.01771762
   0.86744881  0.75000000  0.48228238
   0.63255119  0.25000000  0.98228238
   0.98325223  0.25000000  0.28227608
   0.51674777  0.75000000  0.78227608
   0.01674777  0.75000000  0.71772392
   0.48325223  0.25000000  0.21772392
   0.93065378  0.25000000  0.62274467
   0.56934622  0.75000000  0.12274467
   0.06934622  0.75000000  0.37725533
   0.43065378  0.25000000  0.87725533
   0.39785977  0.25000000  0.39932709
   0.10214023  0.75000000  0.89932709
   0.60214023  0.75000000  0.60067291
   0.89785977  0.25000000  0.10067291
   0.77423203  0.25000000  0.35931678
   0.72576797  0.75000000  0.85931678
   0.22576797  0.75000000  0.64068322
   0.27423203  0.25000000  0.14068322
Al4C3 Pnma-III - H(P) scan @ 0 GPa (ISIF
           1
     9.318595    0.000000    0.000000
     0.000000    3.142413    0.000000
     0.000000    0.000000   10.160123
   Al   C 
    16    12
Direct configuration=    18
   0.74497446  0.25000000  0.72016694
   0.75502554  0.75000000  0.22016694
   0.25502554  0.75000000  0.27983306
   0.24497446  0.25000000  0.77983306
   0.60825458  0.25000000  0.47868019
   0.89174542  0.75000000  0.97868019
   0.39174542  0.75000000  0.52131981
   0.10825458  0.25000000  0.02131981
   0.13256150  0.25000000  0.51763421
   0.36743850  0.75000000  0.01763421
   0.86743850  0.75000000  0.48236579
   0.63256150  0.25000000  0.98236579
   0.98309986  0.25000000  0.28236580
   0.51690014  0.75000000  0.78236580
   0.01690014  0.75000000  0.71763420
   0.48309986  0.25000000  0.21763420
   0.93070941  0.25000000  0.62270963
   0.56929059  0.75000000  0.12270963
   0.06929059  0.75000000  0.37729037
   0.43070941  0.25000000  0.87729037
   0.39778918  0.25000000  0.39939121
   0.10221082  0.75000000  0.89939121
   0.60221082  0.75000000  0.60060879
   0.89778918  0.25000000  0.10060879
   0.77418993  0.25000000  0.35935955
   0.72581007  0.75000000  0.85935955
   0.22581007  0.75000000  0.64064045
   0.27418993  0.25000000  0.14064045
