  28  28   0   0
  0.8656588E+01  0.8703244E-09  0.2934905E-09  0.9489201E-09  0.5000000E-15
  1.000000000000000E-004
  CAR 
 Al4C3 Pnma-III - H(P) scan @ 40 GPa (ISI
     19.18422222     -6.16708361  301     10.90807717      1.00000000
     -6.167  0.0000E+00  0.0000E+00
     -6.083  0.0000E+00  0.0000E+00
     -5.998  0.0000E+00  0.0000E+00
     -5.914  0.0000E+00  0.0000E+00
     -5.829  0.0000E+00  0.0000E+00
     -5.745  0.0000E+00  0.0000E+00
     -5.660  0.0000E+00  0.0000E+00
     -5.576  0.0000E+00  0.0000E+00
     -5.491  0.0000E+00  0.0000E+00
     -5.407  0.0000E+00  0.0000E+00
     -5.322  0.0000E+00  0.0000E+00
     -5.238  0.9924E-13  0.8386E-14
     -5.153  0.3088E-07  0.2610E-08
     -5.069  0.4316E-04  0.3650E-05
     -4.984  0.6265E-03  0.5659E-04
     -4.900  0.2681E-02  0.2832E-03
     -4.815  0.5155E-02  0.7188E-03
     -4.731  0.5847E-02  0.1213E-02
     -4.646  0.5146E-02  0.1648E-02
     -4.562  0.5681E-02  0.2128E-02
     -4.477  0.1030E-01  0.2998E-02
     -4.392  0.1317E-01  0.4111E-02
     -4.308  0.6907E-02  0.4695E-02
     -4.223  0.5465E-02  0.5156E-02
     -4.139  0.1157E-01  0.6134E-02
     -4.054  0.1713E-01  0.7582E-02
     -3.970  0.8048E-02  0.8262E-02
     -3.885  0.8963E-02  0.9019E-02
     -3.801  0.1433E-01  0.1023E-01
     -3.716  0.1924E-01  0.1186E-01
     -3.632  0.1182E-01  0.1285E-01
     -3.547  0.1238E-01  0.1390E-01
     -3.463  0.1461E-01  0.1514E-01
     -3.378  0.1752E-01  0.1662E-01
     -3.294  0.2063E-01  0.1836E-01
     -3.209  0.1319E-01  0.1947E-01
     -3.125  0.1226E-01  0.2051E-01
     -3.040  0.1524E-01  0.2180E-01
     -2.956  0.2359E-01  0.2379E-01
     -2.871  0.1710E-01  0.2524E-01
     -2.787  0.2356E-01  0.2723E-01
     -2.702  0.1917E-01  0.2885E-01
     -2.618  0.7987E-02  0.2952E-01
     -2.533  0.1795E-01  0.3104E-01
     -2.449  0.3272E-01  0.3380E-01
     -2.364  0.2382E-01  0.3582E-01
     -2.280  0.1001E-01  0.3666E-01
     -2.195  0.1899E-01  0.3827E-01
     -2.111  0.2866E-01  0.4069E-01
     -2.026  0.2579E-01  0.4287E-01
     -1.942  0.2536E-01  0.4501E-01
     -1.857  0.2930E-01  0.4749E-01
     -1.773  0.2575E-01  0.4966E-01
     -1.688  0.3548E-01  0.5266E-01
     -1.604  0.2586E-01  0.5485E-01
     -1.519  0.1883E-01  0.5644E-01
     -1.435  0.2896E-01  0.5889E-01
     -1.350  0.2526E-01  0.6102E-01
     -1.266  0.2321E-01  0.6298E-01
     -1.181  0.4599E-01  0.6687E-01
     -1.097  0.3666E-01  0.6997E-01
     -1.012  0.3265E-01  0.7273E-01
     -0.928  0.2652E-01  0.7497E-01
     -0.843  0.4012E-01  0.7836E-01
     -0.759  0.4682E-01  0.8231E-01
     -0.674  0.4842E-01  0.8641E-01
     -0.590  0.5071E-01  0.9069E-01
     -0.505  0.5050E-01  0.9496E-01
     -0.421  0.3341E-01  0.9778E-01
     -0.336  0.2877E-01  0.1002E+00
     -0.252  0.3250E-01  0.1030E+00
     -0.167  0.1997E-01  0.1046E+00
     -0.083  0.2614E-01  0.1069E+00
      0.002  0.2658E-01  0.1091E+00
      0.086  0.2270E-01  0.1110E+00
      0.171  0.2357E-01  0.1130E+00
      0.255  0.1559E-01  0.1143E+00
      0.340  0.2265E-01  0.1162E+00
      0.424  0.1320E-01  0.1174E+00
      0.509  0.1952E-01  0.1190E+00
      0.593  0.9571E-02  0.1198E+00
      0.678  0.2112E-02  0.1200E+00
      0.762  0.5203E-04  0.1200E+00
      0.847  0.1411E-07  0.1200E+00
      0.931  0.1921E-13  0.1200E+00
      1.016  0.0000E+00  0.1200E+00
      1.100  0.0000E+00  0.1200E+00
      1.185  0.0000E+00  0.1200E+00
      1.269  0.0000E+00  0.1200E+00
      1.354  0.0000E+00  0.1200E+00
      1.438  0.0000E+00  0.1200E+00
      1.523  0.0000E+00  0.1200E+00
      1.607  0.0000E+00  0.1200E+00
      1.692  0.0000E+00  0.1200E+00
      1.776  0.7854E-15  0.1200E+00
      1.861  0.1594E-08  0.1200E+00
      1.945  0.1336E-04  0.1200E+00
      2.030  0.6939E-03  0.1201E+00
      2.114  0.1335E-02  0.1202E+00
      2.199  0.5629E-02  0.1206E+00
      2.283  0.9123E-02  0.1214E+00
      2.368  0.1928E-01  0.1230E+00
      2.452  0.1713E-01  0.1245E+00
      2.537  0.1226E-01  0.1255E+00
      2.621  0.1585E-01  0.1269E+00
      2.706  0.2717E-01  0.1292E+00
      2.790  0.3030E-01  0.1317E+00
      2.875  0.4074E-01  0.1352E+00
      2.959  0.3238E-01  0.1379E+00
      3.044  0.2552E-01  0.1401E+00
      3.128  0.3821E-01  0.1433E+00
      3.213  0.4967E-01  0.1475E+00
      3.297  0.4515E-01  0.1513E+00
      3.382  0.3788E-01  0.1545E+00
      3.466  0.3932E-01  0.1578E+00
      3.551  0.3866E-01  0.1611E+00
      3.635  0.3924E-01  0.1644E+00
      3.720  0.4110E-01  0.1679E+00
      3.804  0.4046E-01  0.1713E+00
      3.889  0.3159E-01  0.1740E+00
      3.973  0.3675E-01  0.1771E+00
      4.058  0.4643E-01  0.1810E+00
      4.142  0.5049E-01  0.1853E+00
      4.227  0.4434E-01  0.1890E+00
      4.311  0.4210E-01  0.1926E+00
      4.396  0.3161E-01  0.1952E+00
      4.480  0.4401E-01  0.1990E+00
      4.565  0.3529E-01  0.2019E+00
      4.649  0.2575E-01  0.2041E+00
      4.734  0.3125E-01  0.2068E+00
      4.818  0.2856E-01  0.2092E+00
      4.903  0.3043E-01  0.2117E+00
      4.987  0.5067E-01  0.2160E+00
      5.072  0.5097E-01  0.2203E+00
      5.156  0.3401E-01  0.2232E+00
      5.241  0.3662E-01  0.2263E+00
      5.326  0.3664E-01  0.2294E+00
      5.410  0.2853E-01  0.2318E+00
      5.495  0.3711E-01  0.2349E+00
      5.579  0.3645E-01  0.2380E+00
      5.664  0.3331E-01  0.2408E+00
      5.748  0.4573E-01  0.2447E+00
      5.833  0.3535E-01  0.2477E+00
      5.917  0.5493E-01  0.2523E+00
      6.002  0.5066E-01  0.2566E+00
      6.086  0.4984E-01  0.2608E+00
      6.171  0.3191E-01  0.2635E+00
      6.255  0.5013E-01  0.2678E+00
      6.340  0.6100E-01  0.2729E+00
      6.424  0.2396E-01  0.2749E+00
      6.509  0.3453E-01  0.2779E+00
      6.593  0.3588E-01  0.2809E+00
      6.678  0.5196E-01  0.2853E+00
      6.762  0.3521E-01  0.2883E+00
      6.847  0.3899E-01  0.2916E+00
      6.931  0.5638E-01  0.2963E+00
      7.016  0.4582E-01  0.3002E+00
      7.100  0.3151E-01  0.3029E+00
      7.185  0.4560E-01  0.3067E+00
      7.269  0.4178E-01  0.3102E+00
      7.354  0.4659E-01  0.3142E+00
      7.438  0.5950E-01  0.3192E+00
      7.523  0.5052E-01  0.3235E+00
      7.607  0.4079E-01  0.3269E+00
      7.692  0.3799E-01  0.3301E+00
      7.776  0.4427E-01  0.3339E+00
      7.861  0.4100E-01  0.3373E+00
      7.945  0.6028E-01  0.3424E+00
      8.030  0.4903E-01  0.3466E+00
      8.114  0.5013E-01  0.3508E+00
      8.199  0.5113E-01  0.3551E+00
      8.283  0.6354E-01  0.3605E+00
      8.368  0.6064E-01  0.3656E+00
      8.452  0.6868E-01  0.3714E+00
      8.537  0.6954E-01  0.3773E+00
      8.621  0.6511E-01  0.3828E+00
      8.706  0.5416E-01  0.3874E+00
      8.790  0.5059E-01  0.3917E+00
      8.875  0.6342E-01  0.3970E+00
      8.959  0.7066E-01  0.4030E+00
      9.044  0.6538E-01  0.4085E+00
      9.128  0.5541E-01  0.4132E+00
      9.213  0.5030E-01  0.4174E+00
      9.297  0.5897E-01  0.4224E+00
      9.382  0.5601E-01  0.4272E+00
      9.466  0.6362E-01  0.4325E+00
      9.551  0.6030E-01  0.4376E+00
      9.635  0.6091E-01  0.4428E+00
      9.720  0.5967E-01  0.4478E+00
      9.804  0.6167E-01  0.4530E+00
      9.889  0.5267E-01  0.4575E+00
      9.973  0.4095E-01  0.4609E+00
     10.058  0.4121E-01  0.4644E+00
     10.142  0.5352E-01  0.4689E+00
     10.227  0.3000E-01  0.4715E+00
     10.311  0.2892E-01  0.4739E+00
     10.396  0.2189E-01  0.4758E+00
     10.480  0.2126E-01  0.4776E+00
     10.565  0.1816E-01  0.4791E+00
     10.649  0.8587E-02  0.4798E+00
     10.734  0.1949E-02  0.4800E+00
     10.818  0.3226E-04  0.4800E+00
     10.903  0.9460E-08  0.4800E+00
     10.987  0.1498E-13  0.4800E+00
     11.072  0.0000E+00  0.4800E+00
     11.156  0.0000E+00  0.4800E+00
     11.241  0.0000E+00  0.4800E+00
     11.325  0.0000E+00  0.4800E+00
     11.410  0.0000E+00  0.4800E+00
     11.494  0.0000E+00  0.4800E+00
     11.579  0.0000E+00  0.4800E+00
     11.663  0.0000E+00  0.4800E+00
     11.748  0.0000E+00  0.4800E+00
     11.832  0.0000E+00  0.4800E+00
     11.917  0.0000E+00  0.4800E+00
     12.001  0.0000E+00  0.4800E+00
     12.086  0.8593E-15  0.4800E+00
     12.170  0.2115E-08  0.4800E+00
     12.255  0.2137E-04  0.4800E+00
     12.339  0.1357E-02  0.4801E+00
     12.424  0.3054E-02  0.4804E+00
     12.508  0.4766E-02  0.4808E+00
     12.593  0.1204E-01  0.4818E+00
     12.677  0.1162E-01  0.4828E+00
     12.762  0.1085E-01  0.4837E+00
     12.846  0.1838E-01  0.4852E+00
     12.931  0.2129E-01  0.4870E+00
     13.015  0.2203E-01  0.4889E+00
     13.100  0.1556E-01  0.4902E+00
     13.184  0.2927E-01  0.4927E+00
     13.269  0.3400E-01  0.4956E+00
     13.353  0.1817E-01  0.4971E+00
     13.438  0.2680E-01  0.4994E+00
     13.522  0.3303E-01  0.5022E+00
     13.607  0.3451E-01  0.5051E+00
     13.691  0.3158E-01  0.5077E+00
     13.776  0.4561E-01  0.5116E+00
     13.860  0.5975E-01  0.5166E+00
     13.945  0.2350E-01  0.5186E+00
     14.029  0.2568E-01  0.5208E+00
     14.114  0.2097E-01  0.5226E+00
     14.198  0.1895E-01  0.5242E+00
     14.283  0.3896E-01  0.5275E+00
     14.367  0.4855E-01  0.5316E+00
     14.452  0.4989E-01  0.5358E+00
     14.536  0.3859E-01  0.5391E+00
     14.621  0.3147E-01  0.5417E+00
     14.705  0.3184E-01  0.5444E+00
     14.790  0.3498E-01  0.5474E+00
     14.875  0.4288E-01  0.5510E+00
     14.959  0.4466E-01  0.5548E+00
     15.044  0.4399E-01  0.5585E+00
     15.128  0.3967E-01  0.5618E+00
     15.213  0.3185E-01  0.5645E+00
     15.297  0.4225E-01  0.5681E+00
     15.382  0.3720E-01  0.5712E+00
     15.466  0.3562E-01  0.5742E+00
     15.551  0.5379E-01  0.5788E+00
     15.635  0.4464E-01  0.5826E+00
     15.720  0.4653E-01  0.5865E+00
     15.804  0.3405E-01  0.5894E+00
     15.889  0.4619E-01  0.5933E+00
     15.973  0.4678E-01  0.5972E+00
     16.058  0.3470E-01  0.6002E+00
     16.142  0.4164E-01  0.6037E+00
     16.227  0.4611E-01  0.6076E+00
     16.311  0.3813E-01  0.6108E+00
     16.396  0.3896E-01  0.6141E+00
     16.480  0.4402E-01  0.6178E+00
     16.565  0.3515E-01  0.6208E+00
     16.649  0.3669E-01  0.6239E+00
     16.734  0.4251E-01  0.6275E+00
     16.818  0.3945E-01  0.6308E+00
     16.903  0.2737E-01  0.6331E+00
     16.987  0.2697E-01  0.6354E+00
     17.072  0.3623E-01  0.6385E+00
     17.156  0.3490E-01  0.6414E+00
     17.241  0.3570E-01  0.6444E+00
     17.325  0.3253E-01  0.6472E+00
     17.410  0.4264E-01  0.6508E+00
     17.494  0.3619E-01  0.6538E+00
     17.579  0.1627E-01  0.6552E+00
     17.663  0.2194E-01  0.6571E+00
     17.748  0.1780E-01  0.6586E+00
     17.832  0.8166E-02  0.6593E+00
     17.917  0.5786E-02  0.6597E+00
     18.001  0.1789E-02  0.6599E+00
     18.086  0.1163E-02  0.6600E+00
     18.170  0.8681E-04  0.6600E+00
     18.255  0.6178E-07  0.6600E+00
     18.339  0.1985E-12  0.6600E+00
     18.424  0.0000E+00  0.6600E+00
     18.508  0.0000E+00  0.6600E+00
     18.593  0.0000E+00  0.6600E+00
     18.677  0.0000E+00  0.6600E+00
     18.762  0.0000E+00  0.6600E+00
     18.846  0.0000E+00  0.6600E+00
     18.931  0.0000E+00  0.6600E+00
     19.015  0.0000E+00  0.6600E+00
     19.100  0.0000E+00  0.6600E+00
     19.184  0.0000E+00  0.6600E+00
