       N       E                     dE             d eps       ncg     rms          rms(c)
DAV:   1    -0.162161313708E+03   -0.16216E+03   -0.13712E-06  4458   0.423E-03    0.167E-03
DAV:   2    -0.162161313668E+03    0.40269E-07   -0.27174E-07  4392   0.263E-03
   1 F= -.10164754E+03 E0= -.10164754E+03  d E =-.101648E+03
       N       E                     dE             d eps       ncg     rms          rms(c)
DAV:   1    -0.167159619634E+03   -0.49983E+01   -0.15583E+01  7848   0.157E+01    0.421E+00
DAV:   2    -0.166740398456E+03    0.41922E+00   -0.11785E+00  8328   0.337E+00    0.178E+00
DAV:   3    -0.166714493816E+03    0.25905E-01   -0.14683E-01  8406   0.112E+00    0.579E-01
DAV:   4    -0.166709598812E+03    0.48950E-02   -0.12449E-02  8490   0.327E-01    0.201E-01
DAV:   5    -0.166708692755E+03    0.90606E-03   -0.23448E-03  8418   0.143E-01    0.110E-01
DAV:   6    -0.166708551516E+03    0.14124E-03   -0.33271E-04  8400   0.549E-02    0.318E-02
DAV:   7    -0.166708546058E+03    0.54582E-05   -0.46215E-05  7854   0.238E-02
   2 F= -.10130454E+03 E0= -.10130454E+03  d E =0.343002E+00
       N       E                     dE             d eps       ncg     rms          rms(c)
DAV:   1    -0.164401136251E+03    0.23074E+01   -0.61153E+00  7806   0.102E+01    0.259E+00
DAV:   2    -0.164244996341E+03    0.15614E+00   -0.43127E-01  8298   0.207E+00    0.112E+00
DAV:   3    -0.164234460175E+03    0.10536E-01   -0.56950E-02  8442   0.712E-01    0.357E-01
DAV:   4    -0.164232761119E+03    0.16991E-02   -0.42590E-03  8430   0.197E-01    0.125E-01
DAV:   5    -0.164232498619E+03    0.26250E-03   -0.66665E-04  8328   0.791E-02    0.701E-02
DAV:   6    -0.164232468478E+03    0.30141E-04   -0.99070E-05  8028   0.304E-02    0.173E-02
DAV:   7    -0.164232466780E+03    0.16978E-05   -0.11985E-05  4446   0.136E-02
   3 F= -.10187183E+03 E0= -.10187183E+03  d E =-.224283E+00
       N       E                     dE             d eps       ncg     rms          rms(c)
DAV:   1    -0.164209993382E+03    0.22475E-01   -0.35568E-04  8148   0.777E-02    0.202E-02
DAV:   2    -0.164209986183E+03    0.71991E-05   -0.23858E-05  4842   0.161E-02
   4 F= -.10187186E+03 E0= -.10187186E+03  d E =-.224320E+00
       N       E                     dE             d eps       ncg     rms          rms(c)
DAV:   1    -0.164256212018E+03   -0.46219E-01   -0.43866E-01  7152   0.269E+00    0.138E-01
DAV:   2    -0.164255812872E+03    0.39915E-03   -0.76755E-03  8706   0.347E-01    0.870E-02
DAV:   3    -0.164255632012E+03    0.18086E-03   -0.90292E-04  8544   0.117E-01    0.385E-02
DAV:   4    -0.164255630312E+03    0.17005E-05   -0.22213E-04  8508   0.455E-02    0.152E-02
DAV:   5    -0.164255629166E+03    0.11455E-05   -0.17590E-05  5418   0.173E-02
   5 F= -.10187746E+03 E0= -.10187746E+03  d E =-.559320E-02
       N       E                     dE             d eps       ncg     rms          rms(c)
DAV:   1    -0.164261203633E+03   -0.55733E-02   -0.82393E-03  7344   0.368E-01    0.191E-02
DAV:   2    -0.164261198530E+03    0.51029E-05   -0.14970E-04  8718   0.481E-02    0.121E-02
DAV:   3    -0.164261195161E+03    0.33692E-05   -0.13867E-05  4908   0.154E-02
   6 F= -.10187754E+03 E0= -.10187754E+03  d E =-.567934E-02
       N       E                     dE             d eps       ncg     rms          rms(c)
DAV:   1    -0.164286279986E+03   -0.25081E-01   -0.33375E-01  7128   0.229E+00    0.123E-01
DAV:   2    -0.164286013886E+03    0.26610E-03   -0.79064E-03  8724   0.333E-01    0.791E-02
DAV:   3    -0.164285819523E+03    0.19436E-03   -0.68036E-04  8340   0.105E-01    0.312E-02
DAV:   4    -0.164285830657E+03   -0.11133E-04   -0.22755E-04  8388   0.462E-02    0.148E-02
DAV:   5    -0.164285830923E+03   -0.26673E-06   -0.84632E-06  4410   0.115E-02
   7 F= -.10187975E+03 E0= -.10187975E+03  d E =-.220478E-02
       N       E                     dE             d eps       ncg     rms          rms(c)
DAV:   1    -0.164283045195E+03    0.27855E-02   -0.52414E-03  7152   0.288E-01    0.149E-02
DAV:   2    -0.164283041652E+03    0.35430E-05   -0.12521E-04  8706   0.415E-02    0.990E-03
DAV:   3    -0.164283038573E+03    0.30791E-05   -0.82229E-06  4176   0.123E-02
   8 F= -.10187979E+03 E0= -.10187979E+03  d E =-.224617E-02
       N       E                     dE             d eps       ncg     rms          rms(c)
DAV:   1    -0.164285260470E+03   -0.22188E-02   -0.47548E-02  7140   0.874E-01    0.420E-02
DAV:   2    -0.164285276101E+03   -0.15632E-04   -0.95859E-04  8808   0.117E-01    0.288E-02
DAV:   3    -0.164285250266E+03    0.25835E-04   -0.47839E-05  8358   0.306E-02    0.139E-02
DAV:   4    -0.164285247798E+03    0.24686E-05   -0.34388E-05  5274   0.202E-02
   9 F= -.10188021E+03 E0= -.10188021E+03  d E =-.422764E-03
       N       E                     dE             d eps       ncg     rms          rms(c)
DAV:   1    -0.164285516052E+03   -0.26579E-03   -0.10114E-03  7260   0.128E-01    0.756E-03
DAV:   2    -0.164285516561E+03   -0.50957E-06   -0.21842E-05  6624   0.178E-02
  10 F= -.10188022E+03 E0= -.10188022E+03  d E =-.431351E-03
       N       E                     dE             d eps       ncg     rms          rms(c)
DAV:   1    -0.164289710684E+03   -0.41946E-02   -0.15126E-02  7140   0.504E-01    0.220E-02
DAV:   2    -0.164289717285E+03   -0.66006E-05   -0.24034E-04  8982   0.570E-02    0.159E-02
DAV:   3    -0.164289714345E+03    0.29398E-05   -0.97519E-06  5070   0.143E-02
  11 F= -.10188047E+03 E0= -.10188047E+03  d E =-.247845E-03
       N       E                     dE             d eps       ncg     rms          rms(c)
DAV:   1    -0.164290454954E+03   -0.73767E-03   -0.51617E-04  7446   0.934E-02    0.610E-03
DAV:   2    -0.164290454908E+03    0.46010E-07   -0.63161E-06  5412   0.997E-03
  12 F= -.10188047E+03 E0= -.10188047E+03  d E =-.253638E-03
       N       E                     dE             d eps       ncg     rms          rms(c)
DAV:   1    -0.164289783783E+03    0.67117E-03   -0.13156E-02  7128   0.457E-01    0.217E-02
DAV:   2    -0.164289792541E+03   -0.87581E-05   -0.28602E-04  8676   0.649E-02    0.157E-02
DAV:   3    -0.164289786249E+03    0.62926E-05   -0.17132E-05  5646   0.188E-02
  13 F= -.10188061E+03 E0= -.10188061E+03  d E =-.140602E-03
