Al4C3 I-43d polymorph (findsym-output, f
   1.00000000000000     
     5.8581325592793139    0.0000000000000000    0.0000000000000000
     0.0000000000000000    5.8581325592793139    0.0000000000000000
     0.0000000000000000    0.0000000000000000    5.8581325592793139
   Al   C 
    16    12
Direct
  0.3162298318982139  0.3162298318982139  0.3162298318982139
  0.1837701681017862  0.6837701681017863  0.8162298318982137
  0.6837701681017863  0.8162298318982137  0.1837701681017862
  0.8162298318982137  0.1837701681017862  0.6837701681017863
  0.5662298318982137  0.5662298318982137  0.5662298318982137
  0.9337701681017863  0.4337701681017861  0.0662298318982138
  0.0662298318982138  0.9337701681017863  0.4337701681017861
  0.4337701681017861  0.0662298318982138  0.9337701681017863
  0.8162298318982137  0.8162298318982137  0.8162298318982137
  0.6837701681017863  0.1837701681017862  0.3162298318982139
  0.1837701681017862  0.3162298318982139  0.6837701681017863
  0.3162298318982139  0.6837701681017863  0.1837701681017862
  0.0662298318982138  0.0662298318982138  0.0662298318982138
  0.4337701681017861  0.9337701681017863  0.5662298318982137
  0.5662298318982137  0.4337701681017861  0.9337701681017863
  0.9337701681017863  0.5662298318982137  0.4337701681017861
  0.3750000000000000  0.0000000000000000  0.2500000000000000
  0.1250000000000000  0.0000000000000000  0.7500000000000000
  0.6250000000000000  0.5000000000000000  0.2500000000000000
  0.8750000000000000  0.5000000000000000  0.7500000000000000
  0.2500000000000000  0.3750000000000000  0.0000000000000000
  0.7500000000000000  0.1250000000000000  0.0000000000000000
  0.2500000000000000  0.6250000000000000  0.5000000000000000
  0.7500000000000000  0.8750000000000000  0.5000000000000000
  0.0000000000000000  0.2500000000000000  0.3750000000000000
  0.0000000000000000  0.7500000000000000  0.1250000000000000
  0.5000000000000000  0.2500000000000000  0.6250000000000000
  0.5000000000000000  0.7500000000000000  0.8750000000000000
 
  0.00000000E+00  0.00000000E+00  0.00000000E+00
  0.00000000E+00  0.00000000E+00  0.00000000E+00
  0.00000000E+00  0.00000000E+00  0.00000000E+00
  0.00000000E+00  0.00000000E+00  0.00000000E+00
  0.00000000E+00  0.00000000E+00  0.00000000E+00
  0.00000000E+00  0.00000000E+00  0.00000000E+00
  0.00000000E+00  0.00000000E+00  0.00000000E+00
  0.00000000E+00  0.00000000E+00  0.00000000E+00
  0.00000000E+00  0.00000000E+00  0.00000000E+00
  0.00000000E+00  0.00000000E+00  0.00000000E+00
  0.00000000E+00  0.00000000E+00  0.00000000E+00
  0.00000000E+00  0.00000000E+00  0.00000000E+00
  0.00000000E+00  0.00000000E+00  0.00000000E+00
  0.00000000E+00  0.00000000E+00  0.00000000E+00
  0.00000000E+00  0.00000000E+00  0.00000000E+00
  0.00000000E+00  0.00000000E+00  0.00000000E+00
  0.00000000E+00  0.00000000E+00  0.00000000E+00
  0.00000000E+00  0.00000000E+00  0.00000000E+00
  0.00000000E+00  0.00000000E+00  0.00000000E+00
  0.00000000E+00  0.00000000E+00  0.00000000E+00
  0.00000000E+00  0.00000000E+00  0.00000000E+00
  0.00000000E+00  0.00000000E+00  0.00000000E+00
  0.00000000E+00  0.00000000E+00  0.00000000E+00
  0.00000000E+00  0.00000000E+00  0.00000000E+00
  0.00000000E+00  0.00000000E+00  0.00000000E+00
  0.00000000E+00  0.00000000E+00  0.00000000E+00
  0.00000000E+00  0.00000000E+00  0.00000000E+00
  0.00000000E+00  0.00000000E+00  0.00000000E+00
