Al4C3 I-43d polymorph (findsym-output, f
   1.00000000000000     
     6.4841071811242381    0.0000000000000000    0.0000000000000000
     0.0000000000000000    6.4841071811242381    0.0000000000000000
     0.0000000000000000    0.0000000000000000    6.4841071811242381
   Al   C 
    16    12
Direct
  0.3004473496146052  0.3004473496146052  0.3004473496146052
  0.1995526503853948  0.6995526503853948  0.8004473496146052
  0.6995526503853948  0.8004473496146052  0.1995526503853948
  0.8004473496146052  0.1995526503853948  0.6995526503853948
  0.5504473496146052  0.5504473496146052  0.5504473496146052
  0.9495526503853948  0.4495526503853948  0.0504473496146052
  0.0504473496146052  0.9495526503853948  0.4495526503853948
  0.4495526503853948  0.0504473496146052  0.9495526503853948
  0.8004473496146052  0.8004473496146052  0.8004473496146052
  0.6995526503853948  0.1995526503853948  0.3004473496146052
  0.1995526503853948  0.3004473496146052  0.6995526503853948
  0.3004473496146052  0.6995526503853948  0.1995526503853948
  0.0504473496146052  0.0504473496146052  0.0504473496146052
  0.4495526503853948  0.9495526503853948  0.5504473496146052
  0.5504473496146052  0.4495526503853948  0.9495526503853948
  0.9495526503853948  0.5504473496146052  0.4495526503853948
  0.3750000000000000  0.0000000000000000  0.2500000000000000
  0.1250000000000000  0.0000000000000000  0.7500000000000000
  0.6250000000000000  0.5000000000000000  0.2500000000000000
  0.8750000000000000  0.5000000000000000  0.7500000000000000
  0.2500000000000000  0.3750000000000000 -0.0000000000000000
  0.7500000000000000  0.1250000000000000 -0.0000000000000000
  0.2500000000000000  0.6250000000000000  0.5000000000000000
  0.7500000000000000  0.8750000000000000  0.5000000000000000
 -0.0000000000000000  0.2500000000000000  0.3750000000000000
 -0.0000000000000000  0.7500000000000000  0.1250000000000000
  0.5000000000000000  0.2500000000000000  0.6250000000000000
  0.5000000000000000  0.7500000000000000  0.8750000000000000
 
  0.00000000E+00  0.00000000E+00  0.00000000E+00
  0.00000000E+00  0.00000000E+00  0.00000000E+00
  0.00000000E+00  0.00000000E+00  0.00000000E+00
  0.00000000E+00  0.00000000E+00  0.00000000E+00
  0.00000000E+00  0.00000000E+00  0.00000000E+00
  0.00000000E+00  0.00000000E+00  0.00000000E+00
  0.00000000E+00  0.00000000E+00  0.00000000E+00
  0.00000000E+00  0.00000000E+00  0.00000000E+00
  0.00000000E+00  0.00000000E+00  0.00000000E+00
  0.00000000E+00  0.00000000E+00  0.00000000E+00
  0.00000000E+00  0.00000000E+00  0.00000000E+00
  0.00000000E+00  0.00000000E+00  0.00000000E+00
  0.00000000E+00  0.00000000E+00  0.00000000E+00
  0.00000000E+00  0.00000000E+00  0.00000000E+00
  0.00000000E+00  0.00000000E+00  0.00000000E+00
  0.00000000E+00  0.00000000E+00  0.00000000E+00
  0.00000000E+00  0.00000000E+00  0.00000000E+00
  0.00000000E+00  0.00000000E+00  0.00000000E+00
  0.00000000E+00  0.00000000E+00  0.00000000E+00
  0.00000000E+00  0.00000000E+00  0.00000000E+00
  0.00000000E+00  0.00000000E+00  0.00000000E+00
  0.00000000E+00  0.00000000E+00  0.00000000E+00
  0.00000000E+00  0.00000000E+00  0.00000000E+00
  0.00000000E+00  0.00000000E+00  0.00000000E+00
  0.00000000E+00  0.00000000E+00  0.00000000E+00
  0.00000000E+00  0.00000000E+00  0.00000000E+00
  0.00000000E+00  0.00000000E+00  0.00000000E+00
  0.00000000E+00  0.00000000E+00  0.00000000E+00
