       N       E                     dE             d eps       ncg     rms          rms(c)
DAV:   1    -0.235261637324E+03   -0.23526E+03   -0.51192E+00  1320   0.109E+01    0.679E+00
DAV:   2    -0.219498436463E+03    0.15763E+02   -0.11122E+00  1428   0.565E+00    0.484E+00
DAV:   3    -0.219785157148E+03   -0.28672E+00   -0.21905E-01  1452   0.200E+00    0.393E+00
DAV:   4    -0.219822375239E+03   -0.37218E-01   -0.80101E-02  1566   0.988E-01    0.727E-01
DAV:   5    -0.219823909970E+03   -0.15347E-02   -0.74551E-03  1596   0.274E-01    0.347E-01
DAV:   6    -0.219824556182E+03   -0.64621E-03   -0.85529E-04  1602   0.123E-01    0.718E-02
DAV:   7    -0.219824632368E+03   -0.76186E-04   -0.37339E-05  1524   0.260E-02    0.486E-02
DAV:   8    -0.219824724637E+03   -0.92269E-04   -0.17431E-04  1470   0.547E-02    0.746E-03
DAV:   9    -0.219824733882E+03   -0.92451E-05   -0.82406E-06   912   0.124E-02
   1 F= -.21982473E+03 E0= -.21982473E+03  d E =-.219825E+03
       N       E                     dE             d eps       ncg     rms          rms(c)
DAV:   1    -0.219912693801E+03   -0.87969E-01   -0.42547E+00  1440   0.836E+00    0.214E+00
DAV:   2    -0.219856405449E+03    0.56288E-01   -0.32753E-01  1536   0.182E+00    0.107E+00
DAV:   3    -0.219858774887E+03   -0.23694E-02   -0.29080E-02  1530   0.544E-01    0.453E-01
DAV:   4    -0.219859044216E+03   -0.26933E-03   -0.17601E-03  1506   0.202E-01    0.195E-01
DAV:   5    -0.219859450515E+03   -0.40630E-03   -0.34635E-04  1476   0.101E-01    0.985E-02
DAV:   6    -0.219859468649E+03   -0.18134E-04   -0.15300E-04  1536   0.466E-02    0.421E-02
DAV:   7    -0.219859459116E+03    0.95327E-05   -0.15313E-05   768   0.136E-02
   2 F= -.21985946E+03 E0= -.21985946E+03  d E =-.347252E-01
       N       E                     dE             d eps       ncg     rms          rms(c)
DAV:   1    -0.219928230627E+03   -0.68762E-01   -0.80209E-01  1434   0.357E+00    0.944E-01
DAV:   2    -0.219918706573E+03    0.95241E-02   -0.66021E-02  1542   0.804E-01    0.476E-01
DAV:   3    -0.219919210826E+03   -0.50425E-03   -0.55342E-03  1548   0.238E-01    0.204E-01
DAV:   4    -0.219919187950E+03    0.22876E-04   -0.35246E-04  1518   0.913E-02    0.854E-02
DAV:   5    -0.219919263475E+03   -0.75525E-04   -0.69118E-05  1512   0.454E-02    0.422E-02
DAV:   6    -0.219919247193E+03    0.16282E-04   -0.27136E-05   906   0.204E-02    0.176E-02
DAV:   7    -0.219919250349E+03   -0.31566E-05   -0.26748E-06   696   0.713E-03
   3 F= -.21991925E+03 E0= -.21991925E+03  d E =-.945165E-01
       N       E                     dE             d eps       ncg     rms          rms(c)
DAV:   1    -0.219920629598E+03   -0.13824E-02   -0.80723E-03  1332   0.332E-01    0.579E-02
DAV:   2    -0.219920541969E+03    0.87628E-04   -0.37390E-04  1644   0.683E-02    0.225E-02
DAV:   3    -0.219920540990E+03    0.97993E-06   -0.58427E-05  1464   0.236E-02
   4 F= -.21992054E+03 E0= -.21992054E+03  d E =-.129064E-02
       N       E                     dE             d eps       ncg     rms          rms(c)
DAV:   1    -0.219924386179E+03   -0.38442E-02   -0.73496E-02  1320   0.100E+00    0.173E-01
DAV:   2    -0.219923632555E+03    0.75362E-03   -0.32726E-03  1644   0.204E-01    0.645E-02
DAV:   3    -0.219923631610E+03    0.94484E-06   -0.51691E-04  1536   0.702E-02    0.271E-02
DAV:   4    -0.219923633945E+03   -0.23346E-05   -0.25726E-05  1170   0.176E-02
   5 F= -.21992363E+03 E0= -.21992363E+03  d E =-.438360E-02
       N       E                     dE             d eps       ncg     rms          rms(c)
DAV:   1    -0.219929198173E+03   -0.55666E-02   -0.29345E-01  1320   0.200E+00    0.347E-01
DAV:   2    -0.219926164586E+03    0.30336E-02   -0.13134E-02  1644   0.408E-01    0.127E-01
DAV:   3    -0.219926164867E+03   -0.28098E-06   -0.20203E-03  1536   0.139E-01    0.535E-02
DAV:   4    -0.219926185299E+03   -0.20432E-04   -0.94667E-05  1596   0.341E-02    0.352E-02
DAV:   5    -0.219926194607E+03   -0.93082E-05   -0.13175E-05   858   0.171E-02
   6 F= -.21992619E+03 E0= -.21992619E+03  d E =-.694426E-02
