Al4C3 I-43d - r2SCAN H(P) scan @ 0 GPa (
           1
     6.546377    0.000000    0.000000
     0.000000    6.546377    0.000000
     0.000000    0.000000    6.546377
   Al   C 
    16    12
Direct configuration=     1
   0.29900103  0.29900103  0.29900103
   0.20099897  0.70099897  0.79900103
   0.70099897  0.79900103  0.20099897
   0.79900103  0.20099897  0.70099897
   0.54900103  0.54900103  0.54900103
   0.95099897  0.45099897  0.04900103
   0.04900103  0.95099897  0.45099897
   0.45099897  0.04900103  0.95099897
   0.79900103  0.79900103  0.79900103
   0.70099897  0.20099897  0.29900103
   0.20099897  0.29900103  0.70099897
   0.29900103  0.70099897  0.20099897
   0.04900103  0.04900103  0.04900103
   0.45099897  0.95099897  0.54900103
   0.54900103  0.45099897  0.95099897
   0.95099897  0.54900103  0.45099897
   0.37500000  0.00000000  0.25000000
   0.12500000  0.00000000  0.75000000
   0.62500000  0.50000000  0.25000000
   0.87500000  0.50000000  0.75000000
   0.25000000  0.37500000  0.00000000
   0.75000000  0.12500000  0.00000000
   0.25000000  0.62500000  0.50000000
   0.75000000  0.87500000  0.50000000
   0.00000000  0.25000000  0.37500000
   0.00000000  0.75000000  0.12500000
   0.50000000  0.25000000  0.62500000
   0.50000000  0.75000000  0.87500000
Al4C3 I-43d - r2SCAN H(P) scan @ 0 GPa (
           1
     6.457146    0.000000    0.000000
     0.000000    6.457146    0.000000
     0.000000    0.000000    6.457146
   Al   C 
    16    12
Direct configuration=     2
   0.29857132  0.29857132  0.29857132
   0.20142868  0.70142868  0.79857132
   0.70142868  0.79857132  0.20142868
   0.79857132  0.20142868  0.70142868
   0.54857132  0.54857132  0.54857132
   0.95142868  0.45142868  0.04857132
   0.04857132  0.95142868  0.45142868
   0.45142868  0.04857132  0.95142868
   0.79857132  0.79857132  0.79857132
   0.70142868  0.20142868  0.29857132
   0.20142868  0.29857132  0.70142868
   0.29857132  0.70142868  0.20142868
   0.04857132  0.04857132  0.04857132
   0.45142868  0.95142868  0.54857132
   0.54857132  0.45142868  0.95142868
   0.95142868  0.54857132  0.45142868
   0.37500000  0.00000000  0.25000000
   0.12500000  0.00000000  0.75000000
   0.62500000  0.50000000  0.25000000
   0.87500000  0.50000000  0.75000000
   0.25000000  0.37500000 -0.00000000
   0.75000000  0.12500000 -0.00000000
   0.25000000  0.62500000  0.50000000
   0.75000000  0.87500000  0.50000000
  -0.00000000  0.25000000  0.37500000
  -0.00000000  0.75000000  0.12500000
   0.50000000  0.25000000  0.62500000
   0.50000000  0.75000000  0.87500000
Al4C3 I-43d - r2SCAN H(P) scan @ 0 GPa (
           1
     6.496228    0.000000    0.000000
     0.000000    6.496228    0.000000
     0.000000    0.000000    6.496228
   Al   C 
    16    12
Direct configuration=     3
   0.29876213  0.29876213  0.29876213
   0.20123787  0.70123787  0.79876213
   0.70123787  0.79876213  0.20123787
   0.79876213  0.20123787  0.70123787
   0.54876213  0.54876213  0.54876213
   0.95123787  0.45123787  0.04876213
   0.04876213  0.95123787  0.45123787
   0.45123787  0.04876213  0.95123787
   0.79876213  0.79876213  0.79876213
   0.70123787  0.20123787  0.29876213
   0.20123787  0.29876213  0.70123787
   0.29876213  0.70123787  0.20123787
   0.04876213  0.04876213  0.04876213
   0.45123787  0.95123787  0.54876213
   0.54876213  0.45123787  0.95123787
   0.95123787  0.54876213  0.45123787
   0.37500000  0.00000000  0.25000000
   0.12500000  0.00000000  0.75000000
   0.62500000  0.50000000  0.25000000
   0.87500000  0.50000000  0.75000000
   0.25000000  0.37500000 -0.00000000
   0.75000000  0.12500000 -0.00000000
   0.25000000  0.62500000  0.50000000
   0.75000000  0.87500000  0.50000000
  -0.00000000  0.25000000  0.37500000
  -0.00000000  0.75000000  0.12500000
   0.50000000  0.25000000  0.62500000
   0.50000000  0.75000000  0.87500000
Al4C3 I-43d - r2SCAN H(P) scan @ 0 GPa (
           1
     6.495016    0.000000    0.000000
     0.000000    6.495016    0.000000
     0.000000    0.000000    6.495016
   Al   C 
    16    12
Direct configuration=     4
   0.29893057  0.29893057  0.29893057
   0.20106943  0.70106943  0.79893057
   0.70106943  0.79893057  0.20106943
   0.79893057  0.20106943  0.70106943
   0.54893057  0.54893057  0.54893057
   0.95106943  0.45106943  0.04893057
   0.04893057  0.95106943  0.45106943
   0.45106943  0.04893057  0.95106943
   0.79893057  0.79893057  0.79893057
   0.70106943  0.20106943  0.29893057
   0.20106943  0.29893057  0.70106943
   0.29893057  0.70106943  0.20106943
   0.04893057  0.04893057  0.04893057
   0.45106943  0.95106943  0.54893057
   0.54893057  0.45106943  0.95106943
   0.95106943  0.54893057  0.45106943
   0.37500000  0.00000000  0.25000000
   0.12500000  0.00000000  0.75000000
   0.62500000  0.50000000  0.25000000
   0.87500000  0.50000000  0.75000000
   0.25000000  0.37500000 -0.00000000
   0.75000000  0.12500000 -0.00000000
   0.25000000  0.62500000  0.50000000
   0.75000000  0.87500000  0.50000000
  -0.00000000  0.25000000  0.37500000
  -0.00000000  0.75000000  0.12500000
   0.50000000  0.25000000  0.62500000
   0.50000000  0.75000000  0.87500000
Al4C3 I-43d - r2SCAN H(P) scan @ 0 GPa (
           1
     6.491380    0.000000    0.000000
     0.000000    6.491380    0.000000
     0.000000    0.000000    6.491380
   Al   C 
    16    12
Direct configuration=     5
   0.29943597  0.29943597  0.29943597
   0.20056403  0.70056403  0.79943597
   0.70056403  0.79943597  0.20056403
   0.79943597  0.20056403  0.70056403
   0.54943597  0.54943597  0.54943597
   0.95056403  0.45056403  0.04943597
   0.04943597  0.95056403  0.45056403
   0.45056403  0.04943597  0.95056403
   0.79943597  0.79943597  0.79943597
   0.70056403  0.20056403  0.29943597
   0.20056403  0.29943597  0.70056403
   0.29943597  0.70056403  0.20056403
   0.04943597  0.04943597  0.04943597
   0.45056403  0.95056403  0.54943597
   0.54943597  0.45056403  0.95056403
   0.95056403  0.54943597  0.45056403
   0.37500000  0.00000000  0.25000000
   0.12500000  0.00000000  0.75000000
   0.62500000  0.50000000  0.25000000
   0.87500000  0.50000000  0.75000000
   0.25000000  0.37500000 -0.00000000
   0.75000000  0.12500000 -0.00000000
   0.25000000  0.62500000  0.50000000
   0.75000000  0.87500000  0.50000000
  -0.00000000  0.25000000  0.37500000
  -0.00000000  0.75000000  0.12500000
   0.50000000  0.25000000  0.62500000
   0.50000000  0.75000000  0.87500000
Al4C3 I-43d - r2SCAN H(P) scan @ 0 GPa (
           1
     6.484107    0.000000    0.000000
     0.000000    6.484107    0.000000
     0.000000    0.000000    6.484107
   Al   C 
    16    12
Direct configuration=     6
   0.30044735  0.30044735  0.30044735
   0.19955265  0.69955265  0.80044735
   0.69955265  0.80044735  0.19955265
   0.80044735  0.19955265  0.69955265
   0.55044735  0.55044735  0.55044735
   0.94955265  0.44955265  0.05044735
   0.05044735  0.94955265  0.44955265
   0.44955265  0.05044735  0.94955265
   0.80044735  0.80044735  0.80044735
   0.69955265  0.19955265  0.30044735
   0.19955265  0.30044735  0.69955265
   0.30044735  0.69955265  0.19955265
   0.05044735  0.05044735  0.05044735
   0.44955265  0.94955265  0.55044735
   0.55044735  0.44955265  0.94955265
   0.94955265  0.55044735  0.44955265
   0.37500000  0.00000000  0.25000000
   0.12500000  0.00000000  0.75000000
   0.62500000  0.50000000  0.25000000
   0.87500000  0.50000000  0.75000000
   0.25000000  0.37500000 -0.00000000
   0.75000000  0.12500000 -0.00000000
   0.25000000  0.62500000  0.50000000
   0.75000000  0.87500000  0.50000000
  -0.00000000  0.25000000  0.37500000
  -0.00000000  0.75000000  0.12500000
   0.50000000  0.25000000  0.62500000
   0.50000000  0.75000000  0.87500000
