Al4C3 Pnma (POSCAR.III, symmetrized via 
   1.00000000000000     
     8.7610042709922311    0.0000000000000000    0.0000000000000000
     0.0000000000000000    2.9543828544528949    0.0000000000000000
     0.0000000000000000    0.0000000000000000    9.5521782143747895
   Al   C 
    16    12
Direct
  0.7382757332124104  0.2500000000000000  0.7149387231467355
  0.7617242667875896  0.7500000000000000  0.2149387231467355
  0.2617242667875898  0.7500000000000000  0.2850612768532644
  0.2382757332124102  0.2500000000000000  0.7850612768532645
  0.6066207278782464  0.2500000000000000  0.4723981242970005
  0.8933792721217536  0.7500000000000000  0.9723981242970005
  0.3933792721217535  0.7500000000000000  0.5276018757029995
  0.1066207278782465  0.2500000000000000  0.0276018757029995
  0.1367929830906618  0.2500000000000000  0.5177021873569903
  0.3632070169093383  0.7500000000000000  0.0177021873569903
  0.8632070169093383  0.7500000000000000  0.4822978126430097
  0.6367929830906617  0.2500000000000000  0.9822978126430097
  0.9913906065151125  0.2500000000000000  0.2804799740413814
  0.5086093934848875  0.7500000000000000  0.7804799740413815
  0.0086093934848874  0.7500000000000000  0.7195200259586185
  0.4913906065151128  0.2500000000000000  0.2195200259586186
  0.9288106372361592  0.2500000000000000  0.6197013026510021
  0.5711893627638408  0.7500000000000000  0.1197013026510022
  0.0711893627638407  0.7500000000000000  0.3802986973489977
  0.4288106372361593  0.2500000000000000  0.8802986973489979
  0.3926016139263016  0.2500000000000000  0.4013870287965285
  0.1073983860736985  0.7500000000000000  0.9013870287965213
  0.6073983860736986  0.7500000000000000  0.5986129712034787
  0.8926016139263014  0.2500000000000000  0.0986129712034786
  0.7741047248907612  0.2500000000000000  0.3550453267860936
  0.7258952751092388  0.7500000000000000  0.8550453267860931
  0.2258952751092389  0.7500000000000000  0.6449546732139069
  0.2741047248907612  0.2500000000000000  0.1449546732139066
 
  0.00000000E+00  0.00000000E+00  0.00000000E+00
  0.00000000E+00  0.00000000E+00  0.00000000E+00
  0.00000000E+00  0.00000000E+00  0.00000000E+00
  0.00000000E+00  0.00000000E+00  0.00000000E+00
  0.00000000E+00  0.00000000E+00  0.00000000E+00
  0.00000000E+00  0.00000000E+00  0.00000000E+00
  0.00000000E+00  0.00000000E+00  0.00000000E+00
  0.00000000E+00  0.00000000E+00  0.00000000E+00
  0.00000000E+00  0.00000000E+00  0.00000000E+00
  0.00000000E+00  0.00000000E+00  0.00000000E+00
  0.00000000E+00  0.00000000E+00  0.00000000E+00
  0.00000000E+00  0.00000000E+00  0.00000000E+00
  0.00000000E+00  0.00000000E+00  0.00000000E+00
  0.00000000E+00  0.00000000E+00  0.00000000E+00
  0.00000000E+00  0.00000000E+00  0.00000000E+00
  0.00000000E+00  0.00000000E+00  0.00000000E+00
  0.00000000E+00  0.00000000E+00  0.00000000E+00
  0.00000000E+00  0.00000000E+00  0.00000000E+00
  0.00000000E+00  0.00000000E+00  0.00000000E+00
  0.00000000E+00  0.00000000E+00  0.00000000E+00
  0.00000000E+00  0.00000000E+00  0.00000000E+00
  0.00000000E+00  0.00000000E+00  0.00000000E+00
  0.00000000E+00  0.00000000E+00  0.00000000E+00
  0.00000000E+00  0.00000000E+00  0.00000000E+00
  0.00000000E+00  0.00000000E+00  0.00000000E+00
  0.00000000E+00  0.00000000E+00  0.00000000E+00
  0.00000000E+00  0.00000000E+00  0.00000000E+00
  0.00000000E+00  0.00000000E+00  0.00000000E+00
