  28  28   0   0
  0.8927729E+01  0.8793178E-09  0.2965233E-09  0.9587258E-09  0.5000000E-15
  1.000000000000000E-004
  CAR 
 Al4C3 Pnma-III - r2SCAN H(P) scan @ 40 G
     20.03086156     -7.06782123  301     10.91328391      1.00000000
     -7.068  0.0000E+00  0.0000E+00
     -6.977  0.0000E+00  0.0000E+00
     -6.887  0.0000E+00  0.0000E+00
     -6.797  0.0000E+00  0.0000E+00
     -6.707  0.0000E+00  0.0000E+00
     -6.616  0.0000E+00  0.0000E+00
     -6.526  0.0000E+00  0.0000E+00
     -6.436  0.0000E+00  0.0000E+00
     -6.345  0.0000E+00  0.0000E+00
     -6.255  0.0000E+00  0.0000E+00
     -6.165  0.0000E+00  0.0000E+00
     -6.074  0.5134E-14  0.4637E-15
     -5.984  0.9139E-08  0.8255E-09
     -5.894  0.3272E-04  0.2956E-05
     -5.803  0.5906E-03  0.5631E-04
     -5.713  0.2631E-02  0.2940E-03
     -5.623  0.5095E-02  0.7543E-03
     -5.532  0.5491E-02  0.1250E-02
     -5.442  0.4725E-02  0.1677E-02
     -5.352  0.6106E-02  0.2229E-02
     -5.261  0.1048E-01  0.3175E-02
     -5.171  0.1197E-01  0.4256E-02
     -5.081  0.5461E-02  0.4750E-02
     -4.990  0.6629E-02  0.5349E-02
     -4.900  0.1257E-01  0.6484E-02
     -4.810  0.1567E-01  0.7899E-02
     -4.719  0.5463E-02  0.8392E-02
     -4.629  0.1207E-01  0.9482E-02
     -4.539  0.1471E-01  0.1081E-01
     -4.448  0.1774E-01  0.1241E-01
     -4.358  0.8541E-02  0.1319E-01
     -4.268  0.1535E-01  0.1457E-01
     -4.177  0.1388E-01  0.1583E-01
     -4.087  0.2063E-01  0.1769E-01
     -3.997  0.1496E-01  0.1904E-01
     -3.906  0.1196E-01  0.2012E-01
     -3.816  0.1289E-01  0.2129E-01
     -3.726  0.2217E-01  0.2329E-01
     -3.635  0.1619E-01  0.2475E-01
     -3.545  0.2195E-01  0.2673E-01
     -3.455  0.2108E-01  0.2864E-01
     -3.364  0.8767E-02  0.2943E-01
     -3.274  0.1512E-01  0.3079E-01
     -3.184  0.3055E-01  0.3355E-01
     -3.093  0.2464E-01  0.3578E-01
     -3.003  0.9911E-02  0.3667E-01
     -2.913  0.1910E-01  0.3840E-01
     -2.822  0.2831E-01  0.4096E-01
     -2.732  0.2493E-01  0.4321E-01
     -2.642  0.2525E-01  0.4549E-01
     -2.551  0.2809E-01  0.4803E-01
     -2.461  0.2772E-01  0.5053E-01
     -2.371  0.3450E-01  0.5365E-01
     -2.280  0.2094E-01  0.5554E-01
     -2.190  0.2274E-01  0.5759E-01
     -2.100  0.2886E-01  0.6020E-01
     -2.009  0.2006E-01  0.6201E-01
     -1.919  0.4015E-01  0.6564E-01
     -1.829  0.3777E-01  0.6905E-01
     -1.738  0.3398E-01  0.7212E-01
     -1.648  0.2693E-01  0.7455E-01
     -1.558  0.3847E-01  0.7803E-01
     -1.467  0.4807E-01  0.8237E-01
     -1.377  0.4848E-01  0.8675E-01
     -1.287  0.4925E-01  0.9120E-01
     -1.196  0.5044E-01  0.9575E-01
     -1.106  0.3057E-01  0.9851E-01
     -1.016  0.3218E-01  0.1014E+00
     -0.925  0.2387E-01  0.1036E+00
     -0.835  0.1953E-01  0.1053E+00
     -0.745  0.2857E-01  0.1079E+00
     -0.654  0.2137E-01  0.1099E+00
     -0.564  0.2382E-01  0.1120E+00
     -0.474  0.1910E-01  0.1137E+00
     -0.383  0.2012E-01  0.1155E+00
     -0.293  0.1647E-01  0.1170E+00
     -0.203  0.1669E-01  0.1185E+00
     -0.112  0.1345E-01  0.1198E+00
     -0.022  0.2616E-02  0.1200E+00
      0.068  0.6377E-04  0.1200E+00
      0.158  0.1133E-07  0.1200E+00
      0.249  0.4667E-14  0.1200E+00
      0.339  0.0000E+00  0.1200E+00
      0.429  0.0000E+00  0.1200E+00
      0.520  0.0000E+00  0.1200E+00
      0.610  0.0000E+00  0.1200E+00
      0.700  0.0000E+00  0.1200E+00
      0.791  0.0000E+00  0.1200E+00
      0.881  0.0000E+00  0.1200E+00
      0.971  0.0000E+00  0.1200E+00
      1.062  0.0000E+00  0.1200E+00
      1.152  0.0000E+00  0.1200E+00
      1.242  0.0000E+00  0.1200E+00
      1.333  0.0000E+00  0.1200E+00
      1.423  0.0000E+00  0.1200E+00
      1.513  0.1276E-13  0.1200E+00
      1.604  0.2100E-07  0.1200E+00
      1.694  0.6974E-04  0.1200E+00
      1.784  0.9962E-03  0.1201E+00
      1.875  0.2260E-02  0.1203E+00
      1.965  0.5932E-02  0.1208E+00
      2.055  0.1275E-01  0.1220E+00
      2.146  0.1908E-01  0.1237E+00
      2.236  0.1545E-01  0.1251E+00
      2.326  0.1044E-01  0.1261E+00
      2.417  0.2417E-01  0.1282E+00
      2.507  0.2790E-01  0.1308E+00
      2.597  0.3408E-01  0.1338E+00
      2.688  0.3769E-01  0.1372E+00
      2.778  0.2438E-01  0.1394E+00
      2.868  0.3529E-01  0.1426E+00
      2.959  0.4692E-01  0.1469E+00
      3.049  0.4788E-01  0.1512E+00
      3.139  0.3522E-01  0.1544E+00
      3.230  0.3943E-01  0.1579E+00
      3.320  0.3793E-01  0.1614E+00
      3.410  0.3728E-01  0.1647E+00
      3.501  0.4046E-01  0.1684E+00
      3.591  0.3805E-01  0.1718E+00
      3.681  0.3288E-01  0.1748E+00
      3.772  0.3530E-01  0.1780E+00
      3.862  0.4822E-01  0.1823E+00
      3.952  0.4708E-01  0.1866E+00
      4.043  0.4603E-01  0.1907E+00
      4.133  0.3379E-01  0.1938E+00
      4.223  0.3606E-01  0.1971E+00
      4.314  0.4028E-01  0.2007E+00
      4.404  0.2986E-01  0.2034E+00
      4.494  0.2390E-01  0.2055E+00
      4.585  0.2946E-01  0.2082E+00
      4.675  0.2546E-01  0.2105E+00
      4.765  0.4292E-01  0.2144E+00
      4.856  0.5046E-01  0.2189E+00
      4.946  0.3800E-01  0.2224E+00
      5.036  0.3287E-01  0.2253E+00
      5.127  0.3629E-01  0.2286E+00
      5.217  0.2699E-01  0.2311E+00
      5.307  0.3814E-01  0.2345E+00
      5.398  0.3451E-01  0.2376E+00
      5.488  0.2973E-01  0.2403E+00
      5.578  0.4201E-01  0.2441E+00
      5.669  0.3458E-01  0.2472E+00
      5.759  0.5341E-01  0.2520E+00
      5.849  0.4809E-01  0.2564E+00
      5.940  0.4605E-01  0.2606E+00
      6.030  0.3363E-01  0.2636E+00
      6.120  0.4848E-01  0.2680E+00
      6.211  0.5491E-01  0.2729E+00
      6.301  0.2300E-01  0.2750E+00
      6.391  0.3427E-01  0.2781E+00
      6.482  0.3597E-01  0.2814E+00
      6.572  0.4834E-01  0.2857E+00
      6.662  0.3196E-01  0.2886E+00
      6.753  0.4508E-01  0.2927E+00
      6.843  0.4979E-01  0.2972E+00
      6.933  0.4069E-01  0.3009E+00
      7.023  0.3441E-01  0.3040E+00
      7.114  0.4187E-01  0.3077E+00
      7.204  0.3826E-01  0.3112E+00
      7.294  0.5287E-01  0.3160E+00
      7.385  0.5195E-01  0.3207E+00
      7.475  0.5186E-01  0.3253E+00
      7.565  0.3034E-01  0.3281E+00
      7.656  0.3862E-01  0.3316E+00
      7.746  0.4116E-01  0.3353E+00
      7.836  0.5095E-01  0.3399E+00
      7.927  0.5329E-01  0.3447E+00
      8.017  0.4288E-01  0.3486E+00
      8.107  0.5436E-01  0.3535E+00
      8.198  0.5607E-01  0.3586E+00
      8.288  0.6062E-01  0.3640E+00
      8.378  0.6064E-01  0.3695E+00
      8.469  0.6747E-01  0.3756E+00
      8.559  0.6509E-01  0.3815E+00
      8.649  0.5458E-01  0.3864E+00
      8.740  0.4875E-01  0.3908E+00
      8.830  0.5926E-01  0.3962E+00
      8.920  0.6629E-01  0.4022E+00
      9.011  0.6532E-01  0.4081E+00
      9.101  0.5339E-01  0.4129E+00
      9.191  0.4682E-01  0.4171E+00
      9.282  0.5883E-01  0.4224E+00
      9.372  0.5359E-01  0.4273E+00
      9.462  0.5903E-01  0.4326E+00
      9.553  0.5883E-01  0.4379E+00
      9.643  0.5874E-01  0.4432E+00
      9.733  0.5855E-01  0.4485E+00
      9.824  0.5695E-01  0.4537E+00
      9.914  0.5081E-01  0.4582E+00
     10.004  0.3733E-01  0.4616E+00
     10.095  0.4506E-01  0.4657E+00
     10.185  0.4446E-01  0.4697E+00
     10.275  0.2832E-01  0.4723E+00
     10.366  0.2572E-01  0.4746E+00
     10.456  0.2045E-01  0.4764E+00
     10.546  0.2318E-01  0.4785E+00
     10.637  0.1208E-01  0.4796E+00
     10.727  0.4150E-02  0.4800E+00
     10.817  0.1156E-03  0.4800E+00
     10.908  0.4770E-07  0.4800E+00
     10.998  0.6323E-13  0.4800E+00
     11.088  0.0000E+00  0.4800E+00
     11.179  0.0000E+00  0.4800E+00
     11.269  0.0000E+00  0.4800E+00
     11.359  0.0000E+00  0.4800E+00
     11.450  0.0000E+00  0.4800E+00
     11.540  0.0000E+00  0.4800E+00
     11.630  0.0000E+00  0.4800E+00
     11.721  0.0000E+00  0.4800E+00
     11.811  0.0000E+00  0.4800E+00
     11.901  0.0000E+00  0.4800E+00
     11.992  0.0000E+00  0.4800E+00
     12.082  0.0000E+00  0.4800E+00
     12.172  0.0000E+00  0.4800E+00
     12.263  0.0000E+00  0.4800E+00
     12.353  0.0000E+00  0.4800E+00
     12.443  0.0000E+00  0.4800E+00
     12.534  0.2520E-15  0.4800E+00
     12.624  0.2059E-08  0.4800E+00
     12.714  0.3167E-04  0.4800E+00
     12.805  0.1618E-02  0.4801E+00
     12.895  0.2801E-02  0.4804E+00
     12.985  0.4656E-02  0.4808E+00
     13.076  0.1257E-01  0.4820E+00
     13.166  0.9454E-02  0.4828E+00
     13.256  0.8967E-02  0.4836E+00
     13.347  0.1818E-01  0.4853E+00
     13.437  0.1960E-01  0.4870E+00
     13.527  0.2346E-01  0.4892E+00
     13.618  0.1324E-01  0.4903E+00
     13.708  0.3047E-01  0.4931E+00
     13.798  0.3004E-01  0.4958E+00
     13.888  0.1407E-01  0.4971E+00
     13.979  0.2928E-01  0.4997E+00
     14.069  0.3067E-01  0.5025E+00
     14.159  0.3034E-01  0.5052E+00
     14.250  0.4026E-01  0.5089E+00
     14.340  0.4244E-01  0.5127E+00
     14.430  0.4724E-01  0.5170E+00
     14.521  0.2229E-01  0.5190E+00
     14.611  0.2587E-01  0.5213E+00
     14.701  0.2033E-01  0.5232E+00
     14.792  0.2258E-01  0.5252E+00
     14.882  0.4057E-01  0.5289E+00
     14.972  0.4992E-01  0.5334E+00
     15.063  0.4764E-01  0.5377E+00
     15.153  0.3128E-01  0.5405E+00
     15.243  0.2393E-01  0.5427E+00
     15.334  0.2764E-01  0.5452E+00
     15.424  0.4162E-01  0.5489E+00
     15.514  0.3944E-01  0.5525E+00
     15.605  0.4282E-01  0.5564E+00
     15.695  0.4117E-01  0.5601E+00
     15.785  0.2970E-01  0.5628E+00
     15.876  0.3290E-01  0.5657E+00
     15.966  0.3608E-01  0.5690E+00
     16.056  0.3047E-01  0.5717E+00
     16.147  0.4214E-01  0.5755E+00
     16.237  0.4924E-01  0.5800E+00
     16.327  0.4288E-01  0.5839E+00
     16.418  0.3895E-01  0.5874E+00
     16.508  0.4336E-01  0.5913E+00
     16.598  0.4473E-01  0.5953E+00
     16.689  0.3858E-01  0.5988E+00
     16.779  0.3569E-01  0.6021E+00
     16.869  0.4210E-01  0.6059E+00
     16.960  0.3260E-01  0.6088E+00
     17.050  0.4101E-01  0.6125E+00
     17.140  0.3636E-01  0.6158E+00
     17.231  0.4102E-01  0.6195E+00
     17.321  0.3453E-01  0.6226E+00
     17.411  0.3526E-01  0.6258E+00
     17.502  0.4168E-01  0.6296E+00
     17.592  0.3105E-01  0.6324E+00
     17.682  0.2201E-01  0.6344E+00
     17.773  0.3189E-01  0.6372E+00
     17.863  0.3845E-01  0.6407E+00
     17.953  0.2763E-01  0.6432E+00
     18.044  0.2849E-01  0.6458E+00
     18.134  0.4124E-01  0.6495E+00
     18.224  0.3999E-01  0.6531E+00
     18.315  0.1717E-01  0.6547E+00
     18.405  0.1594E-01  0.6561E+00
     18.495  0.1958E-01  0.6579E+00
     18.586  0.1228E-01  0.6590E+00
     18.676  0.4775E-02  0.6594E+00
     18.766  0.4733E-02  0.6598E+00
     18.857  0.1681E-02  0.6600E+00
     18.947  0.5540E-04  0.6600E+00
     19.037  0.1118E-07  0.6600E+00
     19.128  0.5488E-14  0.6600E+00
     19.218  0.0000E+00  0.6600E+00
     19.308  0.0000E+00  0.6600E+00
     19.399  0.0000E+00  0.6600E+00
     19.489  0.0000E+00  0.6600E+00
     19.579  0.0000E+00  0.6600E+00
     19.670  0.0000E+00  0.6600E+00
     19.760  0.0000E+00  0.6600E+00
     19.850  0.0000E+00  0.6600E+00
     19.941  0.0000E+00  0.6600E+00
     20.031  0.0000E+00  0.6600E+00
