Al4C3 Pnma-III - r2SCAN H(P) scan @ 40 G
           1
     8.793178    0.000000    0.000000
     0.000000    2.965232    0.000000
     0.000000    0.000000    9.587257
   Al   C 
    16    12
Direct configuration=     1
   0.73778855  0.25000000  0.71427989
   0.76221145  0.75000000  0.21427989
   0.26221145  0.75000000  0.28572011
   0.23778855  0.25000000  0.78572011
   0.60661239  0.25000000  0.47160245
   0.89338761  0.75000000  0.97160245
   0.39338761  0.75000000  0.52839755
   0.10661239  0.25000000  0.02839755
   0.13671614  0.25000000  0.51787688
   0.36328386  0.75000000  0.01787688
   0.86328386  0.75000000  0.48212312
   0.63671614  0.25000000  0.98212312
   0.99224835  0.25000000  0.28001834
   0.50775165  0.75000000  0.78001834
   0.00775165  0.75000000  0.71998166
   0.49224835  0.25000000  0.21998166
   0.92854802  0.25000000  0.61919383
   0.57145198  0.75000000  0.11919383
   0.07145198  0.75000000  0.38080617
   0.42854802  0.25000000  0.88080617
   0.39212626  0.25000000  0.40147921
   0.10787374  0.75000000  0.90147921
   0.60787374  0.75000000  0.59852079
   0.89212626  0.25000000  0.09852079
   0.77451364  0.25000000  0.35463874
   0.72548636  0.75000000  0.85463874
   0.22548636  0.75000000  0.64536126
   0.27451364  0.25000000  0.14536126
Al4C3 Pnma-III - r2SCAN H(P) scan @ 40 G
           1
     8.701391    0.000000    0.000000
     0.000000    2.934280    0.000000
     0.000000    0.000000    9.487182
   Al   C 
    16    12
Direct configuration=     2
   0.73793765  0.25000000  0.71446615
   0.76206235  0.75000000  0.21446615
   0.26206235  0.75000000  0.28553385
   0.23793765  0.25000000  0.78553385
   0.60668039  0.25000000  0.47221639
   0.89331961  0.75000000  0.97221639
   0.39331961  0.75000000  0.52778361
   0.10668039  0.25000000  0.02778361
   0.13648201  0.25000000  0.51812210
   0.36351799  0.75000000  0.01812210
   0.86351799  0.75000000  0.48187790
   0.63648201  0.25000000  0.98187790
   0.99188166  0.25000000  0.28073036
   0.50811834  0.75000000  0.78073036
   0.00811834  0.75000000  0.71926964
   0.49188166  0.25000000  0.21926964
   0.92866658  0.25000000  0.61992641
   0.57133342  0.75000000  0.11992641
   0.07133342  0.75000000  0.38007359
   0.42866658  0.25000000  0.88007359
   0.39284687  0.25000000  0.40201289
   0.10715313  0.75000000  0.90201289
   0.60715313  0.75000000  0.59798711
   0.89284687  0.25000000  0.09798711
   0.77421429  0.25000000  0.35476424
   0.72578571  0.75000000  0.85476424
   0.22578571  0.75000000  0.64523576
   0.27421429  0.25000000  0.14523576
Al4C3 Pnma-III - r2SCAN H(P) scan @ 40 G
           1
     8.759267    0.000000    0.000000
     0.000000    2.953797    0.000000
     0.000000    0.000000    9.550284
   Al   C 
    16    12
Direct configuration=     3
   0.73784265  0.25000000  0.71434747
   0.76215735  0.75000000  0.21434747
   0.26215735  0.75000000  0.28565253
   0.23784265  0.25000000  0.78565253
   0.60663706  0.25000000  0.47182519
   0.89336294  0.75000000  0.97182519
   0.39336294  0.75000000  0.52817481
   0.10663706  0.25000000  0.02817481
   0.13663120  0.25000000  0.51796585
   0.36336880  0.75000000  0.01796585
   0.86336880  0.75000000  0.48203415
   0.63663120  0.25000000  0.98203415
   0.99211532  0.25000000  0.28027666
   0.50788468  0.75000000  0.78027666
   0.00788468  0.75000000  0.71972334
   0.49211532  0.25000000  0.21972334
   0.92859103  0.25000000  0.61945961
   0.57140897  0.75000000  0.11945961
   0.07140897  0.75000000  0.38054039
   0.42859103  0.25000000  0.88054039
   0.39238770  0.25000000  0.40167283
   0.10761230  0.75000000  0.90167283
   0.60761230  0.75000000  0.59832717
   0.89238770  0.25000000  0.09832717
   0.77440503  0.25000000  0.35468427
   0.72559497  0.75000000  0.85468427
   0.22559497  0.75000000  0.64531573
   0.27440503  0.25000000  0.14531573
Al4C3 Pnma-III - r2SCAN H(P) scan @ 40 G
           1
     8.758851    0.000000    0.000000
     0.000000    2.953657    0.000000
     0.000000    0.000000    9.549830
   Al   C 
    16    12
Direct configuration=     4
   0.73784333  0.25000000  0.71434832
   0.76215667  0.75000000  0.21434832
   0.26215667  0.75000000  0.28565168
   0.23784333  0.25000000  0.78565168
   0.60663737  0.25000000  0.47182799
   0.89336263  0.75000000  0.97182799
   0.39336263  0.75000000  0.52817201
   0.10663737  0.25000000  0.02817201
   0.13663013  0.25000000  0.51796696
   0.36336987  0.75000000  0.01796696
   0.86336987  0.75000000  0.48203304
   0.63663013  0.25000000  0.98203304
   0.99211365  0.25000000  0.28027990
   0.50788635  0.75000000  0.78027990
   0.00788635  0.75000000  0.71972010
   0.49211365  0.25000000  0.21972010
   0.92859157  0.25000000  0.61946295
   0.57140843  0.75000000  0.11946295
   0.07140843  0.75000000  0.38053705
   0.42859157  0.25000000  0.88053705
   0.39239098  0.25000000  0.40167526
   0.10760902  0.75000000  0.90167526
   0.60760902  0.75000000  0.59832474
   0.89239098  0.25000000  0.09832474
   0.77440367  0.25000000  0.35468484
   0.72559633  0.75000000  0.85468484
   0.22559633  0.75000000  0.64531516
   0.27440367  0.25000000  0.14531516
Al4C3 Pnma-III - r2SCAN H(P) scan @ 40 G
           1
     8.758962    0.000000    0.000000
     0.000000    2.953694    0.000000
     0.000000    0.000000    9.549952
   Al   C 
    16    12
Direct configuration=     5
   0.73784314  0.25000000  0.71434809
   0.76215686  0.75000000  0.21434809
   0.26215686  0.75000000  0.28565191
   0.23784314  0.25000000  0.78565191
   0.60663729  0.25000000  0.47182724
   0.89336271  0.75000000  0.97182724
   0.39336271  0.75000000  0.52817276
   0.10663729  0.25000000  0.02817276
   0.13663042  0.25000000  0.51796666
   0.36336958  0.75000000  0.01796666
   0.86336958  0.75000000  0.48203334
   0.63663042  0.25000000  0.98203334
   0.99211409  0.25000000  0.28027903
   0.50788591  0.75000000  0.78027903
   0.00788591  0.75000000  0.71972097
   0.49211409  0.25000000  0.21972097
   0.92859143  0.25000000  0.61946205
   0.57140857  0.75000000  0.11946205
   0.07140857  0.75000000  0.38053795
   0.42859143  0.25000000  0.88053795
   0.39239010  0.25000000  0.40167461
   0.10760990  0.75000000  0.90167461
   0.60760990  0.75000000  0.59832539
   0.89239010  0.25000000  0.09832539
   0.77440403  0.25000000  0.35468469
   0.72559597  0.75000000  0.85468469
   0.22559597  0.75000000  0.64531531
   0.27440403  0.25000000  0.14531531
Al4C3 Pnma-III - r2SCAN H(P) scan @ 40 G
           1
     8.759045    0.000000    0.000000
     0.000000    2.953722    0.000000
     0.000000    0.000000    9.550042
   Al   C 
    16    12
Direct configuration=     6
   0.73784301  0.25000000  0.71434792
   0.76215699  0.75000000  0.21434792
   0.26215699  0.75000000  0.28565208
   0.23784301  0.25000000  0.78565208
   0.60663723  0.25000000  0.47182668
   0.89336277  0.75000000  0.97182668
   0.39336277  0.75000000  0.52817332
   0.10663723  0.25000000  0.02817332
   0.13663063  0.25000000  0.51796644
   0.36336937  0.75000000  0.01796644
   0.86336937  0.75000000  0.48203356
   0.63663063  0.25000000  0.98203356
   0.99211443  0.25000000  0.28027839
   0.50788557  0.75000000  0.78027839
   0.00788557  0.75000000  0.71972161
   0.49211443  0.25000000  0.21972161
   0.92859132  0.25000000  0.61946139
   0.57140868  0.75000000  0.11946139
   0.07140868  0.75000000  0.38053861
   0.42859132  0.25000000  0.88053861
   0.39238945  0.25000000  0.40167413
   0.10761055  0.75000000  0.90167413
   0.60761055  0.75000000  0.59832587
   0.89238945  0.25000000  0.09832587
   0.77440430  0.25000000  0.35468458
   0.72559570  0.75000000  0.85468458
   0.22559570  0.75000000  0.64531542
   0.27440430  0.25000000  0.14531542
Al4C3 Pnma-III - r2SCAN H(P) scan @ 40 G
           1
     8.759919    0.000000    0.000000
     0.000000    2.954017    0.000000
     0.000000    0.000000    9.550995
   Al   C 
    16    12
Direct configuration=     7
   0.73777190  0.25000000  0.71447212
   0.76222810  0.75000000  0.21447212
   0.26222810  0.75000000  0.28552788
   0.23777190  0.25000000  0.78552788
   0.60662527  0.25000000  0.47203231
   0.89337473  0.75000000  0.97203231
   0.39337473  0.75000000  0.52796769
   0.10662527  0.25000000  0.02796769
   0.13671697  0.25000000  0.51801509
   0.36328303  0.75000000  0.01801509
   0.86328303  0.75000000  0.48198491
   0.63671697  0.25000000  0.98198491
   0.99183619  0.25000000  0.28029767
   0.50816381  0.75000000  0.78029767
   0.00816381  0.75000000  0.71970233
   0.49183619  0.25000000  0.21970233
   0.92866381  0.25000000  0.61960653
   0.57133619  0.75000000  0.11960653
   0.07133619  0.75000000  0.38039347
   0.42866381  0.25000000  0.88039347
   0.39258071  0.25000000  0.40163303
   0.10741929  0.75000000  0.90163303
   0.60741929  0.75000000  0.59836697
   0.89258071  0.25000000  0.09836697
   0.77427729  0.25000000  0.35470391
   0.72572271  0.75000000  0.85470391
   0.22572271  0.75000000  0.64529609
   0.27427729  0.25000000  0.14529609
Al4C3 Pnma-III - r2SCAN H(P) scan @ 40 G
           1
     8.760088    0.000000    0.000000
     0.000000    2.954074    0.000000
     0.000000    0.000000    9.551180
   Al   C 
    16    12
Direct configuration=     8
   0.73775810  0.25000000  0.71449622
   0.76224190  0.75000000  0.21449622
   0.26224190  0.75000000  0.28550378
   0.23775810  0.25000000  0.78550378
   0.60662295  0.25000000  0.47207222
   0.89337705  0.75000000  0.97207222
   0.39337705  0.75000000  0.52792778
   0.10662295  0.25000000  0.02792778
   0.13673373  0.25000000  0.51802453
   0.36326627  0.75000000  0.01802453
   0.86326627  0.75000000  0.48197547
   0.63673373  0.25000000  0.98197547
   0.99178220  0.25000000  0.28030141
   0.50821780  0.75000000  0.78030141
   0.00821780  0.75000000  0.71969859
   0.49178220  0.25000000  0.21969859
   0.92867788  0.25000000  0.61963470
   0.57132212  0.75000000  0.11963470
   0.07132212  0.75000000  0.38036530
   0.42867788  0.25000000  0.88036530
   0.39261782  0.25000000  0.40162505
   0.10738218  0.75000000  0.90162505
   0.60738218  0.75000000  0.59837495
   0.89261782  0.25000000  0.09837495
   0.77425264  0.25000000  0.35470766
   0.72574736  0.75000000  0.85470766
   0.22574736  0.75000000  0.64529234
   0.27425264  0.25000000  0.14529234
Al4C3 Pnma-III - r2SCAN H(P) scan @ 40 G
           1
     8.760999    0.000000    0.000000
     0.000000    2.954381    0.000000
     0.000000    0.000000    9.552172
   Al   C 
    16    12
Direct configuration=     9
   0.73794012  0.25000000  0.71457266
   0.76205988  0.75000000  0.21457266
   0.26205988  0.75000000  0.28542734
   0.23794012  0.25000000  0.78542734
   0.60667810  0.25000000  0.47217688
   0.89332190  0.75000000  0.97217688
   0.39332190  0.75000000  0.52782312
   0.10667810  0.25000000  0.02782312
   0.13670157  0.25000000  0.51793095
   0.36329843  0.75000000  0.01793095
   0.86329843  0.75000000  0.48206905
   0.63670157  0.25000000  0.98206905
   0.99167868  0.25000000  0.28040440
   0.50832132  0.75000000  0.78040440
   0.00832132  0.75000000  0.71959560
   0.49167868  0.25000000  0.21959560
   0.92867140  0.25000000  0.61973273
   0.57132860  0.75000000  0.11973273
   0.07132860  0.75000000  0.38026727
   0.42867140  0.25000000  0.88026727
   0.39270693  0.25000000  0.40153864
   0.10729307  0.75000000  0.90153864
   0.60729307  0.75000000  0.59846136
   0.89270693  0.25000000  0.09846136
   0.77411389  0.25000000  0.35481772
   0.72588611  0.75000000  0.85481772
   0.22588611  0.75000000  0.64518228
   0.27411389  0.25000000  0.14518228
Al4C3 Pnma-III - r2SCAN H(P) scan @ 40 G
           1
     8.761029    0.000000    0.000000
     0.000000    2.954391    0.000000
     0.000000    0.000000    9.552205
   Al   C 
    16    12
Direct configuration=    10
   0.73794609  0.25000000  0.71457516
   0.76205391  0.75000000  0.21457516
   0.26205391  0.75000000  0.28542484
   0.23794609  0.25000000  0.78542484
   0.60667990  0.25000000  0.47218031
   0.89332010  0.75000000  0.97218031
   0.39332010  0.75000000  0.52781969
   0.10667990  0.25000000  0.02781969
   0.13670052  0.25000000  0.51792788
   0.36329948  0.75000000  0.01792788
   0.86329948  0.75000000  0.48207212
   0.63670052  0.25000000  0.98207212
   0.99167529  0.25000000  0.28040778
   0.50832471  0.75000000  0.78040778
   0.00832471  0.75000000  0.71959222
   0.49167529  0.25000000  0.21959222
   0.92867119  0.25000000  0.61973594
   0.57132881  0.75000000  0.11973594
   0.07132881  0.75000000  0.38026406
   0.42867119  0.25000000  0.88026406
   0.39270985  0.25000000  0.40153581
   0.10729015  0.75000000  0.90153581
   0.60729015  0.75000000  0.59846419
   0.89270985  0.25000000  0.09846419
   0.77410935  0.25000000  0.35482132
   0.72589065  0.75000000  0.85482132
   0.22589065  0.75000000  0.64517868
   0.27410935  0.25000000  0.14517868
Al4C3 Pnma-III - r2SCAN H(P) scan @ 40 G
           1
     8.760972    0.000000    0.000000
     0.000000    2.954372    0.000000
     0.000000    0.000000    9.552143
   Al   C 
    16    12
Direct configuration=    11
   0.73810701  0.25000000  0.71471821
   0.76189299  0.75000000  0.21471821
   0.26189299  0.75000000  0.28528179
   0.23810701  0.25000000  0.78528179
   0.60662716  0.25000000  0.47231807
   0.89337284  0.75000000  0.97231807
   0.39337284  0.75000000  0.52768193
   0.10662716  0.25000000  0.02768193
   0.13668979  0.25000000  0.51781393
   0.36331021  0.75000000  0.01781393
   0.86331021  0.75000000  0.48218607
   0.63668979  0.25000000  0.98218607
   0.99152725  0.25000000  0.28044305
   0.50847275  0.75000000  0.78044305
   0.00847275  0.75000000  0.71955695
   0.49152725  0.25000000  0.21955695
   0.92872545  0.25000000  0.61969939
   0.57127455  0.75000000  0.11969939
   0.07127455  0.75000000  0.38030061
   0.42872545  0.25000000  0.88030061
   0.39271831  0.25000000  0.40139339
   0.10728169  0.75000000  0.90139339
   0.60728169  0.75000000  0.59860661
   0.89271831  0.25000000  0.09860661
   0.77411000  0.25000000  0.35491162
   0.72589000  0.75000000  0.85491162
   0.22589000  0.75000000  0.64508838
   0.27411000  0.25000000  0.14508838
Al4C3 Pnma-III - r2SCAN H(P) scan @ 40 G
           1
     8.760954    0.000000    0.000000
     0.000000    2.954366    0.000000
     0.000000    0.000000    9.552123
   Al   C 
    16    12
Direct configuration=    12
   0.73815956  0.25000000  0.71476492
   0.76184044  0.75000000  0.21476492
   0.26184044  0.75000000  0.28523508
   0.23815956  0.25000000  0.78523508
   0.60660994  0.25000000  0.47236306
   0.89339006  0.75000000  0.97236306
   0.39339006  0.75000000  0.52763694
   0.10660994  0.25000000  0.02763694
   0.13668629  0.25000000  0.51777672
   0.36331371  0.75000000  0.01777672
   0.86331371  0.75000000  0.48222328
   0.63668629  0.25000000  0.98222328
   0.99147891  0.25000000  0.28045456
   0.50852109  0.75000000  0.78045456
   0.00852109  0.75000000  0.71954544
   0.49147891  0.25000000  0.21954544
   0.92874317  0.25000000  0.61968745
   0.57125683  0.75000000  0.11968745
   0.07125683  0.75000000  0.38031255
   0.42874317  0.25000000  0.88031255
   0.39272108  0.25000000  0.40134689
   0.10727892  0.75000000  0.90134689
   0.60727892  0.75000000  0.59865311
   0.89272108  0.25000000  0.09865311
   0.77411021  0.25000000  0.35494111
   0.72588979  0.75000000  0.85494111
   0.22588979  0.75000000  0.64505889
   0.27411021  0.25000000  0.14505889
Al4C3 Pnma-III - r2SCAN H(P) scan @ 40 G
           1
     8.761014    0.000000    0.000000
     0.000000    2.954386    0.000000
     0.000000    0.000000    9.552189
   Al   C 
    16    12
Direct configuration=    13
   0.73821988  0.25000000  0.71489794
   0.76178012  0.75000000  0.21489794
   0.26178012  0.75000000  0.28510206
   0.23821988  0.25000000  0.78510206
   0.60665123  0.25000000  0.47238643
   0.89334877  0.75000000  0.97238643
   0.39334877  0.75000000  0.52761357
   0.10665123  0.25000000  0.02761357
   0.13674458  0.25000000  0.51774210
   0.36325542  0.75000000  0.01774210
   0.86325542  0.75000000  0.48225790
   0.63674458  0.25000000  0.98225790
   0.99141162  0.25000000  0.28047433
   0.50858838  0.75000000  0.78047433
   0.00858838  0.75000000  0.71952567
   0.49141162  0.25000000  0.21952567
   0.92880427  0.25000000  0.61965527
   0.57119573  0.75000000  0.11965527
   0.07119573  0.75000000  0.38034473
   0.42880427  0.25000000  0.88034473
   0.39265921  0.25000000  0.40135848
   0.10734079  0.75000000  0.90135848
   0.60734079  0.75000000  0.59864152
   0.89265921  0.25000000  0.09864152
   0.77409531  0.25000000  0.35503477
   0.72590469  0.75000000  0.85503477
   0.22590469  0.75000000  0.64496523
   0.27409531  0.25000000  0.14496523
Al4C3 Pnma-III - r2SCAN H(P) scan @ 40 G
           1
     8.761010    0.000000    0.000000
     0.000000    2.954385    0.000000
     0.000000    0.000000    9.552184
   Al   C 
    16    12
Direct configuration=    14
   0.73821543  0.25000000  0.71488813
   0.76178457  0.75000000  0.21488813
   0.26178457  0.75000000  0.28511187
   0.23821543  0.25000000  0.78511187
   0.60664819  0.25000000  0.47238471
   0.89335181  0.75000000  0.97238471
   0.39335181  0.75000000  0.52761529
   0.10664819  0.25000000  0.02761529
   0.13674028  0.25000000  0.51774465
   0.36325972  0.75000000  0.01774465
   0.86325972  0.75000000  0.48225535
   0.63674028  0.25000000  0.98225535
   0.99141658  0.25000000  0.28047287
   0.50858342  0.75000000  0.78047287
   0.00858342  0.75000000  0.71952713
   0.49141658  0.25000000  0.21952713
   0.92879976  0.25000000  0.61965765
   0.57120024  0.75000000  0.11965765
   0.07120024  0.75000000  0.38034235
   0.42879976  0.25000000  0.88034235
   0.39266377  0.25000000  0.40135763
   0.10733623  0.75000000  0.90135763
   0.60733623  0.75000000  0.59864237
   0.89266377  0.25000000  0.09864237
   0.77409641  0.25000000  0.35502786
   0.72590359  0.75000000  0.85502786
   0.22590359  0.75000000  0.64497214
   0.27409641  0.25000000  0.14497214
Al4C3 Pnma-III - r2SCAN H(P) scan @ 40 G
           1
     8.761004    0.000000    0.000000
     0.000000    2.954383    0.000000
     0.000000    0.000000    9.552178
   Al   C 
    16    12
Direct configuration=    15
   0.73827573  0.25000000  0.71493872
   0.76172427  0.75000000  0.21493872
   0.26172427  0.75000000  0.28506128
   0.23827573  0.25000000  0.78506128
   0.60662073  0.25000000  0.47239812
   0.89337927  0.75000000  0.97239812
   0.39337927  0.75000000  0.52760188
   0.10662073  0.25000000  0.02760188
   0.13679298  0.25000000  0.51770219
   0.36320702  0.75000000  0.01770219
   0.86320702  0.75000000  0.48229781
   0.63679298  0.25000000  0.98229781
   0.99139061  0.25000000  0.28047997
   0.50860939  0.75000000  0.78047997
   0.00860939  0.75000000  0.71952003
   0.49139061  0.25000000  0.21952003
   0.92881064  0.25000000  0.61970130
   0.57118936  0.75000000  0.11970130
   0.07118936  0.75000000  0.38029870
   0.42881064  0.25000000  0.88029870
   0.39260161  0.25000000  0.40138703
   0.10739839  0.75000000  0.90138703
   0.60739839  0.75000000  0.59861297
   0.89260161  0.25000000  0.09861297
   0.77410472  0.25000000  0.35504533
   0.72589528  0.75000000  0.85504533
   0.22589528  0.75000000  0.64495467
   0.27410472  0.25000000  0.14495467
