  28  28   0   0
  0.8296588E+01  0.6147320E-09  0.6147320E-09  0.6147320E-09  0.5000000E-15
  1.000000000000000E-004
  CAR 
 Al4C3 I-43d - H(P) scan @ 30 GPa (ISIF=8
     19.02382365     -5.75333139  301     12.00879163      1.00000000
     -5.753  0.0000E+00  0.0000E+00
     -5.671  0.0000E+00  0.0000E+00
     -5.588  0.0000E+00  0.0000E+00
     -5.506  0.0000E+00  0.0000E+00
     -5.423  0.0000E+00  0.0000E+00
     -5.340  0.0000E+00  0.0000E+00
     -5.258  0.0000E+00  0.0000E+00
     -5.175  0.0000E+00  0.0000E+00
     -5.093  0.0000E+00  0.0000E+00
     -5.010  0.0000E+00  0.0000E+00
     -4.927  0.0000E+00  0.0000E+00
     -4.845  0.2057E-12  0.1699E-13
     -4.762  0.3702E-07  0.3057E-08
     -4.680  0.3846E-04  0.3179E-05
     -4.597  0.5325E-03  0.4716E-04
     -4.514  0.2478E-02  0.2518E-03
     -4.432  0.4887E-02  0.6555E-03
     -4.349  0.4818E-02  0.1053E-02
     -4.267  0.3560E-02  0.1347E-02
     -4.184  0.5618E-02  0.1811E-02
     -4.102  0.1183E-01  0.2788E-02
     -4.019  0.1060E-01  0.3663E-02
     -3.936  0.1544E-02  0.3791E-02
     -3.854  0.5714E-02  0.4263E-02
     -3.771  0.1323E-01  0.5356E-02
     -3.689  0.1297E-01  0.6427E-02
     -3.606  0.1206E-01  0.7423E-02
     -3.523  0.8059E-02  0.8088E-02
     -3.441  0.7512E-02  0.8709E-02
     -3.358  0.1623E-01  0.1005E-01
     -3.276  0.1810E-01  0.1154E-01
     -3.193  0.1490E-02  0.1167E-01
     -3.110  0.6114E-02  0.1217E-01
     -3.028  0.2260E-01  0.1404E-01
     -2.945  0.1920E-01  0.1562E-01
     -2.863  0.1371E-01  0.1676E-01
     -2.780  0.1307E-01  0.1784E-01
     -2.697  0.2202E-01  0.1965E-01
     -2.615  0.1643E-01  0.2101E-01
     -2.532  0.4260E-02  0.2136E-01
     -2.450  0.8227E-02  0.2204E-01
     -2.367  0.1460E-01  0.2325E-01
     -2.285  0.2816E-01  0.2557E-01
     -2.202  0.2760E-01  0.2785E-01
     -2.119  0.9912E-02  0.2867E-01
     -2.037  0.2003E-01  0.3033E-01
     -1.954  0.3134E-01  0.3292E-01
     -1.872  0.1529E-01  0.3418E-01
     -1.789  0.4023E-02  0.3451E-01
     -1.706  0.1765E-01  0.3597E-01
     -1.624  0.2838E-01  0.3831E-01
     -1.541  0.2631E-01  0.4048E-01
     -1.459  0.2214E-01  0.4231E-01
     -1.376  0.1339E-01  0.4342E-01
     -1.293  0.3380E-01  0.4621E-01
     -1.211  0.1389E-01  0.4736E-01
     -1.128  0.1597E-01  0.4868E-01
     -1.046  0.4995E-01  0.5280E-01
     -0.963  0.3509E-01  0.5570E-01
     -0.880  0.1742E-01  0.5714E-01
     -0.798  0.3414E-01  0.5996E-01
     -0.715  0.2669E-01  0.6216E-01
     -0.633  0.2517E-01  0.6424E-01
     -0.550  0.4079E-01  0.6761E-01
     -0.468  0.2288E-01  0.6950E-01
     -0.385  0.6386E-01  0.7478E-01
     -0.302  0.6358E-01  0.8003E-01
     -0.220  0.1759E-01  0.8148E-01
     -0.137  0.1204E-01  0.8247E-01
     -0.055  0.2073E-01  0.8418E-01
      0.028  0.2166E-01  0.8597E-01
      0.111  0.7089E-02  0.8656E-01
      0.193  0.1507E-02  0.8668E-01
      0.276  0.1122E-01  0.8761E-01
      0.358  0.1537E-01  0.8888E-01
      0.441  0.2242E-01  0.9073E-01
      0.524  0.5889E-01  0.9560E-01
      0.606  0.2790E-01  0.9790E-01
      0.689  0.3394E-01  0.1007E+00
      0.771  0.3725E-01  0.1038E+00
      0.854  0.3245E-01  0.1065E+00
      0.937  0.6219E-01  0.1116E+00
      1.019  0.4307E-01  0.1152E+00
      1.102  0.7071E-02  0.1157E+00
      1.184  0.4033E-02  0.1161E+00
      1.267  0.1812E-01  0.1176E+00
      1.349  0.1246E-01  0.1186E+00
      1.432  0.9606E-02  0.1194E+00
      1.515  0.5098E-02  0.1198E+00
      1.597  0.7900E-03  0.1199E+00
      1.680  0.1438E-02  0.1200E+00
      1.762  0.6500E-04  0.1200E+00
      1.845  0.2600E-07  0.1200E+00
      1.928  0.5729E-13  0.1200E+00
      2.010  0.0000E+00  0.1200E+00
      2.093  0.0000E+00  0.1200E+00
      2.175  0.0000E+00  0.1200E+00
      2.258  0.0000E+00  0.1200E+00
      2.341  0.0000E+00  0.1200E+00
      2.423  0.5974E-17  0.1200E+00
      2.506  0.7714E-10  0.1200E+00
      2.588  0.5031E-05  0.1200E+00
      2.671  0.2036E-02  0.1202E+00
      2.753  0.1423E-01  0.1213E+00
      2.836  0.2665E-01  0.1235E+00
      2.919  0.2779E-01  0.1258E+00
      3.001  0.3028E-01  0.1283E+00
      3.084  0.4569E-01  0.1321E+00
      3.166  0.1553E-01  0.1334E+00
      3.249  0.2615E-01  0.1356E+00
      3.332  0.2919E-01  0.1380E+00
      3.414  0.3989E-01  0.1413E+00
      3.497  0.4266E-01  0.1448E+00
      3.579  0.3905E-01  0.1480E+00
      3.662  0.1828E-01  0.1495E+00
      3.745  0.2385E-01  0.1515E+00
      3.827  0.4421E-01  0.1551E+00
      3.910  0.3009E-01  0.1576E+00
      3.992  0.3334E-01  0.1604E+00
      4.075  0.1842E-01  0.1619E+00
      4.158  0.2323E-01  0.1638E+00
      4.240  0.1165E-01  0.1648E+00
      4.323  0.2038E-01  0.1665E+00
      4.405  0.6073E-01  0.1715E+00
      4.488  0.5540E-01  0.1761E+00
      4.570  0.6719E-01  0.1816E+00
      4.653  0.3876E-01  0.1848E+00
      4.736  0.9683E-02  0.1856E+00
      4.818  0.1641E-01  0.1870E+00
      4.901  0.3314E-01  0.1897E+00
      4.983  0.5355E-01  0.1941E+00
      5.066  0.6585E-01  0.1996E+00
      5.149  0.3638E-01  0.2026E+00
      5.231  0.2291E-01  0.2045E+00
      5.314  0.4392E-01  0.2081E+00
      5.396  0.5547E-01  0.2127E+00
      5.479  0.3993E-01  0.2160E+00
      5.562  0.1229E-01  0.2170E+00
      5.644  0.3829E-01  0.2201E+00
      5.727  0.3287E-01  0.2229E+00
      5.809  0.9953E-02  0.2237E+00
      5.892  0.2639E-01  0.2259E+00
      5.975  0.3559E-01  0.2288E+00
      6.057  0.4922E-01  0.2329E+00
      6.140  0.5874E-01  0.2377E+00
      6.222  0.4468E-01  0.2414E+00
      6.305  0.2671E-01  0.2436E+00
      6.387  0.2265E-01  0.2455E+00
      6.470  0.2286E-01  0.2474E+00
      6.553  0.2994E-01  0.2498E+00
      6.635  0.5914E-01  0.2547E+00
      6.718  0.5813E-01  0.2595E+00
      6.800  0.4110E-01  0.2629E+00
      6.883  0.3718E-01  0.2660E+00
      6.966  0.5168E-01  0.2703E+00
      7.048  0.7673E-01  0.2766E+00
      7.131  0.5545E-01  0.2812E+00
      7.213  0.4858E-01  0.2852E+00
      7.296  0.2952E-01  0.2876E+00
      7.379  0.3264E-01  0.2903E+00
      7.461  0.4367E-01  0.2939E+00
      7.544  0.3131E-01  0.2965E+00
      7.626  0.2421E-01  0.2985E+00
      7.709  0.4818E-01  0.3025E+00
      7.792  0.4729E-01  0.3064E+00
      7.874  0.4384E-01  0.3100E+00
      7.957  0.2658E-01  0.3122E+00
      8.039  0.5334E-01  0.3166E+00
      8.122  0.5176E-01  0.3209E+00
      8.204  0.3527E-01  0.3238E+00
      8.287  0.3466E-01  0.3267E+00
      8.370  0.2982E-01  0.3291E+00
      8.452  0.2782E-01  0.3314E+00
      8.535  0.2813E-01  0.3338E+00
      8.617  0.5262E-01  0.3381E+00
      8.700  0.4605E-01  0.3419E+00
      8.783  0.6342E-01  0.3471E+00
      8.865  0.5900E-01  0.3520E+00
      8.948  0.4163E-01  0.3555E+00
      9.030  0.3872E-01  0.3587E+00
      9.113  0.5057E-01  0.3628E+00
      9.196  0.3139E-01  0.3654E+00
      9.278  0.6194E-01  0.3705E+00
      9.361  0.4420E-01  0.3742E+00
      9.443  0.1823E-01  0.3757E+00
      9.526  0.3302E-01  0.3784E+00
      9.609  0.3944E-01  0.3817E+00
      9.691  0.8801E-01  0.3889E+00
      9.774  0.1073E+00  0.3978E+00
      9.856  0.4958E-01  0.4019E+00
      9.939  0.2255E-01  0.4038E+00
     10.021  0.5539E-01  0.4083E+00
     10.104  0.4809E-01  0.4123E+00
     10.187  0.4877E-01  0.4163E+00
     10.269  0.3668E-01  0.4194E+00
     10.352  0.3419E-01  0.4222E+00
     10.434  0.3216E-01  0.4249E+00
     10.517  0.4761E-01  0.4288E+00
     10.600  0.5632E-01  0.4334E+00
     10.682  0.4416E-01  0.4371E+00
     10.765  0.4632E-01  0.4409E+00
     10.847  0.3812E-01  0.4441E+00
     10.930  0.7712E-01  0.4504E+00
     11.013  0.1340E+00  0.4615E+00
     11.095  0.8447E-01  0.4685E+00
     11.178  0.5663E-01  0.4731E+00
     11.260  0.3443E-01  0.4760E+00
     11.343  0.1786E-01  0.4775E+00
     11.425  0.1338E-01  0.4786E+00
     11.508  0.6568E-02  0.4791E+00
     11.591  0.2678E-02  0.4793E+00
     11.673  0.4753E-02  0.4797E+00
     11.756  0.2496E-02  0.4799E+00
     11.838  0.8423E-03  0.4800E+00
     11.921  0.1702E-04  0.4800E+00
     12.004  0.2689E-08  0.4800E+00
     12.086  0.2251E-14  0.4800E+00
     12.169  0.0000E+00  0.4800E+00
     12.251  0.0000E+00  0.4800E+00
     12.334  0.0000E+00  0.4800E+00
     12.417  0.0000E+00  0.4800E+00
     12.499  0.0000E+00  0.4800E+00
     12.582  0.0000E+00  0.4800E+00
     12.664  0.0000E+00  0.4800E+00
     12.747  0.0000E+00  0.4800E+00
     12.830  0.0000E+00  0.4800E+00
     12.912  0.0000E+00  0.4800E+00
     12.995  0.0000E+00  0.4800E+00
     13.077  0.0000E+00  0.4800E+00
     13.160  0.1550E-14  0.4800E+00
     13.242  0.2837E-08  0.4800E+00
     13.325  0.2714E-04  0.4800E+00
     13.408  0.1907E-02  0.4802E+00
     13.490  0.2482E-02  0.4804E+00
     13.573  0.3435E-03  0.4804E+00
     13.655  0.8095E-02  0.4811E+00
     13.738  0.9472E-02  0.4818E+00
     13.821  0.1499E-01  0.4831E+00
     13.903  0.2766E-01  0.4854E+00
     13.986  0.3143E-01  0.4880E+00
     14.068  0.3437E-01  0.4908E+00
     14.151  0.6194E-01  0.4959E+00
     14.234  0.4790E-01  0.4999E+00
     14.316  0.3972E-01  0.5032E+00
     14.399  0.6741E-01  0.5087E+00
     14.481  0.3173E-01  0.5113E+00
     14.564  0.2112E-01  0.5131E+00
     14.647  0.2424E-01  0.5151E+00
     14.729  0.4736E-01  0.5190E+00
     14.812  0.6789E-01  0.5246E+00
     14.894  0.4129E-01  0.5280E+00
     14.977  0.5522E-01  0.5326E+00
     15.059  0.5747E-01  0.5373E+00
     15.142  0.4537E-01  0.5411E+00
     15.225  0.5329E-01  0.5455E+00
     15.307  0.4803E-01  0.5494E+00
     15.390  0.2968E-01  0.5519E+00
     15.472  0.2984E-01  0.5544E+00
     15.555  0.3014E-01  0.5568E+00
     15.638  0.4590E-01  0.5606E+00
     15.720  0.6120E-01  0.5657E+00
     15.803  0.6634E-01  0.5712E+00
     15.885  0.5575E-01  0.5758E+00
     15.968  0.7559E-01  0.5820E+00
     16.051  0.7940E-01  0.5886E+00
     16.133  0.6811E-01  0.5942E+00
     16.216  0.4109E-01  0.5976E+00
     16.298  0.6309E-01  0.6028E+00
     16.381  0.4084E-01  0.6062E+00
     16.464  0.5923E-01  0.6111E+00
     16.546  0.5496E-01  0.6156E+00
     16.629  0.5318E-01  0.6200E+00
     16.711  0.3884E-01  0.6232E+00
     16.794  0.2418E-01  0.6252E+00
     16.876  0.4024E-01  0.6285E+00
     16.959  0.3635E-01  0.6315E+00
     17.042  0.4217E-01  0.6350E+00
     17.124  0.4395E-01  0.6386E+00
     17.207  0.2675E-01  0.6409E+00
     17.289  0.3222E-01  0.6435E+00
     17.372  0.3535E-01  0.6464E+00
     17.455  0.5932E-01  0.6513E+00
     17.537  0.7234E-01  0.6573E+00
     17.620  0.2209E-01  0.6591E+00
     17.702  0.2890E-02  0.6594E+00
     17.785  0.4101E-02  0.6597E+00
     17.868  0.8164E-03  0.6598E+00
     17.950  0.2467E-02  0.6600E+00
     18.033  0.2304E-03  0.6600E+00
     18.115  0.2221E-06  0.6600E+00
     18.198  0.1234E-11  0.6600E+00
     18.281  0.0000E+00  0.6600E+00
     18.363  0.0000E+00  0.6600E+00
     18.446  0.0000E+00  0.6600E+00
     18.528  0.0000E+00  0.6600E+00
     18.611  0.0000E+00  0.6600E+00
     18.693  0.0000E+00  0.6600E+00
     18.776  0.0000E+00  0.6600E+00
     18.859  0.0000E+00  0.6600E+00
     18.941  0.0000E+00  0.6600E+00
     19.024  0.0000E+00  0.6600E+00
