Al4C3 R-3m polymorph (findsym-output, fr
   1.00000000000000     
     3.1873879571698449    0.0000000000000000    0.0000000000000000
    -1.5936939785849225    2.7603589426611186    0.0000000000000000
     0.0000000000000000    0.0000000000000000   23.8289250704236117
   Al   C 
    12     9
Direct
  0.0000000000000000  0.0000000000000000  0.6298802551620012
 -0.0000000000000000 -0.0000000000000000  0.3701197448379989
  0.6666666870000029  0.3333333429999996  0.9632135681619983
  0.6666666870000029  0.3333333429999996  0.7034530588379996
  0.3333333429999996  0.6666666870000029  0.2965469111619978
  0.3333333429999996  0.6666666870000029  0.0367864128380037
 -0.0000000000000000 -0.0000000000000000  0.2061781235857842
 -0.0000000000000000  0.0000000000000000  0.7938218764142159
  0.6666666870000029  0.3333333429999996  0.5395114375857849
  0.6666666870000029  0.3333333429999996  0.1271552044142177
  0.3333333429999996  0.6666666870000029  0.8728448105857870
  0.3333333429999996  0.6666666870000029  0.4604885324142125
  0.0000000000000000  0.0000000000000000  0.7167592369200493
 -0.0000000000000000 -0.0000000000000000  0.2832407630799506
  0.6666666870000029  0.3333333429999996  0.0500925689200516
  0.6666666870000029  0.3333333429999996  0.6165740760799479
  0.3333333429999996  0.6666666870000029  0.3834258939200498
  0.3333333429999996  0.6666666870000029  0.9499074500799465
  0.0000000000000000  0.0000000000000000  0.5000000000000000
  0.6666666870000029  0.3333333429999996  0.8333333129999971
  0.3333333429999996  0.6666666870000029  0.1666666719999981
 
  0.00000000E+00  0.00000000E+00  0.00000000E+00
  0.00000000E+00  0.00000000E+00  0.00000000E+00
  0.00000000E+00  0.00000000E+00  0.00000000E+00
  0.00000000E+00  0.00000000E+00  0.00000000E+00
  0.00000000E+00  0.00000000E+00  0.00000000E+00
  0.00000000E+00  0.00000000E+00  0.00000000E+00
  0.00000000E+00  0.00000000E+00  0.00000000E+00
  0.00000000E+00  0.00000000E+00  0.00000000E+00
  0.00000000E+00  0.00000000E+00  0.00000000E+00
  0.00000000E+00  0.00000000E+00  0.00000000E+00
  0.00000000E+00  0.00000000E+00  0.00000000E+00
  0.00000000E+00  0.00000000E+00  0.00000000E+00
  0.00000000E+00  0.00000000E+00  0.00000000E+00
  0.00000000E+00  0.00000000E+00  0.00000000E+00
  0.00000000E+00  0.00000000E+00  0.00000000E+00
  0.00000000E+00  0.00000000E+00  0.00000000E+00
  0.00000000E+00  0.00000000E+00  0.00000000E+00
  0.00000000E+00  0.00000000E+00  0.00000000E+00
  0.00000000E+00  0.00000000E+00  0.00000000E+00
  0.00000000E+00  0.00000000E+00  0.00000000E+00
  0.00000000E+00  0.00000000E+00  0.00000000E+00
