  21  21   0   0
  0.1009955E+02  0.3199684E-09  0.3199684E-09  0.2392085E-08  0.5000000E-15
  1.000000000000000E-004
  CAR 
 Al4C3 R-3m - r2SCAN H(P) scan @ 30 GPa (
     17.58609329     -7.81794673  301      9.03869232      1.00000000
     -7.818  0.0000E+00  0.0000E+00
     -7.733  0.0000E+00  0.0000E+00
     -7.649  0.0000E+00  0.0000E+00
     -7.564  0.0000E+00  0.0000E+00
     -7.479  0.0000E+00  0.0000E+00
     -7.395  0.0000E+00  0.0000E+00
     -7.310  0.0000E+00  0.0000E+00
     -7.225  0.0000E+00  0.0000E+00
     -7.141  0.0000E+00  0.0000E+00
     -7.056  0.0000E+00  0.0000E+00
     -6.971  0.0000E+00  0.0000E+00
     -6.886  0.5567E-13  0.4714E-14
     -6.802  0.1847E-07  0.1564E-08
     -6.717  0.3015E-04  0.2555E-05
     -6.632  0.6751E-03  0.5972E-04
     -6.548  0.2769E-02  0.2942E-03
     -6.463  0.6237E-02  0.8224E-03
     -6.378  0.5214E-02  0.1264E-02
     -6.294  0.6001E-02  0.1772E-02
     -6.209  0.6974E-02  0.2363E-02
     -6.124  0.1023E-01  0.3229E-02
     -6.040  0.6139E-02  0.3749E-02
     -5.955  0.2435E-02  0.3955E-02
     -5.870  0.4321E-02  0.4321E-02
     -5.786  0.1107E-01  0.5258E-02
     -5.701  0.1057E-01  0.6153E-02
     -5.616  0.1015E-01  0.7012E-02
     -5.532  0.7402E-02  0.7639E-02
     -5.447  0.8332E-02  0.8345E-02
     -5.362  0.4165E-02  0.8697E-02
     -5.278  0.1090E-01  0.9620E-02
     -5.193  0.2251E-01  0.1153E-01
     -5.108  0.1910E-01  0.1314E-01
     -5.024  0.1316E-01  0.1426E-01
     -4.939  0.1071E-01  0.1517E-01
     -4.854  0.1668E-01  0.1658E-01
     -4.769  0.1363E-01  0.1773E-01
     -4.685  0.6071E-02  0.1825E-01
     -4.600  0.1739E-01  0.1972E-01
     -4.515  0.1708E-01  0.2117E-01
     -4.431  0.2373E-01  0.2317E-01
     -4.346  0.2468E-01  0.2527E-01
     -4.261  0.1830E-01  0.2681E-01
     -4.177  0.6435E-02  0.2736E-01
     -4.092  0.1136E-01  0.2832E-01
     -4.007  0.1847E-01  0.2989E-01
     -3.923  0.1296E-01  0.3098E-01
     -3.838  0.2253E-01  0.3289E-01
     -3.753  0.3239E-01  0.3563E-01
     -3.669  0.3677E-01  0.3875E-01
     -3.584  0.2528E-01  0.4089E-01
     -3.499  0.1915E-01  0.4251E-01
     -3.415  0.1757E-01  0.4400E-01
     -3.330  0.2766E-01  0.4634E-01
     -3.245  0.3281E-01  0.4912E-01
     -3.161  0.2798E-01  0.5149E-01
     -3.076  0.2615E-01  0.5370E-01
     -2.991  0.3672E-01  0.5681E-01
     -2.906  0.3165E-01  0.5949E-01
     -2.822  0.2446E-01  0.6156E-01
     -2.737  0.1664E-01  0.6297E-01
     -2.652  0.2486E-01  0.6508E-01
     -2.568  0.3417E-01  0.6797E-01
     -2.483  0.1524E-01  0.6926E-01
     -2.398  0.1147E-01  0.7023E-01
     -2.314  0.2407E-01  0.7227E-01
     -2.229  0.4514E-01  0.7609E-01
     -2.144  0.4761E-01  0.8012E-01
     -2.060  0.7848E-01  0.8677E-01
     -1.975  0.3304E-01  0.8957E-01
     -1.890  0.5013E-02  0.8999E-01
     -1.806  0.8029E-04  0.9000E-01
     -1.721  0.1980E-07  0.9000E-01
     -1.636  0.2361E-13  0.9000E-01
     -1.552  0.0000E+00  0.9000E-01
     -1.467  0.0000E+00  0.9000E-01
     -1.382  0.0000E+00  0.9000E-01
     -1.298  0.0000E+00  0.9000E-01
     -1.213  0.0000E+00  0.9000E-01
     -1.128  0.0000E+00  0.9000E-01
     -1.044  0.0000E+00  0.9000E-01
     -0.959  0.0000E+00  0.9000E-01
     -0.874  0.0000E+00  0.9000E-01
     -0.789  0.0000E+00  0.9000E-01
     -0.705  0.0000E+00  0.9000E-01
     -0.620  0.0000E+00  0.9000E-01
     -0.535  0.0000E+00  0.9000E-01
     -0.451  0.0000E+00  0.9000E-01
     -0.366  0.0000E+00  0.9000E-01
     -0.281  0.0000E+00  0.9000E-01
     -0.197  0.0000E+00  0.9000E-01
     -0.112  0.2527E-17  0.9000E-01
     -0.027  0.2966E-10  0.9000E-01
      0.057  0.1352E-05  0.9000E-01
      0.142  0.3324E-03  0.9003E-01
      0.227  0.2126E-02  0.9021E-01
      0.311  0.1671E-02  0.9035E-01
      0.396  0.7622E-02  0.9100E-01
      0.481  0.9473E-02  0.9180E-01
      0.565  0.1179E-01  0.9280E-01
      0.650  0.1401E-01  0.9398E-01
      0.735  0.1042E-01  0.9486E-01
      0.819  0.5517E-02  0.9533E-01
      0.904  0.6492E-02  0.9588E-01
      0.989  0.1127E-01  0.9684E-01
      1.073  0.2318E-01  0.9880E-01
      1.158  0.2855E-01  0.1012E+00
      1.243  0.1065E-01  0.1021E+00
      1.328  0.1290E-01  0.1032E+00
      1.412  0.1448E-01  0.1044E+00
      1.497  0.1719E-01  0.1059E+00
      1.582  0.1658E-01  0.1073E+00
      1.666  0.3885E-02  0.1076E+00
      1.751  0.8022E-02  0.1083E+00
      1.836  0.1475E-01  0.1096E+00
      1.920  0.1640E-01  0.1109E+00
      2.005  0.3092E-01  0.1136E+00
      2.090  0.2132E-01  0.1154E+00
      2.174  0.2270E-01  0.1173E+00
      2.259  0.2392E-01  0.1193E+00
      2.344  0.3629E-01  0.1224E+00
      2.428  0.4031E-01  0.1258E+00
      2.513  0.3639E-01  0.1289E+00
      2.598  0.2507E-01  0.1310E+00
      2.682  0.2490E-01  0.1331E+00
      2.767  0.3685E-01  0.1362E+00
      2.852  0.3886E-01  0.1395E+00
      2.936  0.2497E-01  0.1416E+00
      3.021  0.2037E-01  0.1434E+00
      3.106  0.3185E-01  0.1461E+00
      3.190  0.2461E-01  0.1481E+00
      3.275  0.4790E-01  0.1522E+00
      3.360  0.3824E-01  0.1554E+00
      3.445  0.4150E-01  0.1590E+00
      3.529  0.4061E-01  0.1624E+00
      3.614  0.2569E-01  0.1646E+00
      3.699  0.2563E-01  0.1667E+00
      3.783  0.3322E-01  0.1696E+00
      3.868  0.4733E-01  0.1736E+00
      3.953  0.4755E-01  0.1776E+00
      4.037  0.3688E-01  0.1807E+00
      4.122  0.3516E-01  0.1837E+00
      4.207  0.2708E-01  0.1860E+00
      4.291  0.2895E-01  0.1884E+00
      4.376  0.2661E-01  0.1907E+00
      4.461  0.2164E-01  0.1925E+00
      4.545  0.2128E-01  0.1943E+00
      4.630  0.2908E-01  0.1968E+00
      4.715  0.3487E-01  0.1997E+00
      4.799  0.4281E-01  0.2034E+00
      4.884  0.3661E-01  0.2065E+00
      4.969  0.4279E-01  0.2101E+00
      5.053  0.2075E-01  0.2118E+00
      5.138  0.4436E-01  0.2156E+00
      5.223  0.3315E-01  0.2184E+00
      5.307  0.2525E-01  0.2205E+00
      5.392  0.2659E-01  0.2228E+00
      5.477  0.3651E-01  0.2259E+00
      5.562  0.4451E-01  0.2297E+00
      5.646  0.4003E-01  0.2330E+00
      5.731  0.5236E-01  0.2375E+00
      5.816  0.4809E-01  0.2416E+00
      5.900  0.3449E-01  0.2445E+00
      5.985  0.2871E-01  0.2469E+00
      6.070  0.2376E-01  0.2489E+00
      6.154  0.5036E-01  0.2532E+00
      6.239  0.4143E-01  0.2567E+00
      6.324  0.3703E-01  0.2598E+00
      6.408  0.3664E-01  0.2629E+00
      6.493  0.3739E-01  0.2661E+00
      6.578  0.6308E-01  0.2714E+00
      6.662  0.6944E-01  0.2773E+00
      6.747  0.4788E-01  0.2814E+00
      6.832  0.4954E-01  0.2856E+00
      6.916  0.4889E-01  0.2897E+00
      7.001  0.6181E-01  0.2949E+00
      7.086  0.4830E-01  0.2990E+00
      7.170  0.5263E-01  0.3035E+00
      7.255  0.6683E-01  0.3091E+00
      7.340  0.4338E-01  0.3128E+00
      7.424  0.4470E-01  0.3166E+00
      7.509  0.4608E-01  0.3205E+00
      7.594  0.4333E-01  0.3242E+00
      7.679  0.4684E-01  0.3281E+00
      7.763  0.5538E-01  0.3328E+00
      7.848  0.5002E-01  0.3371E+00
      7.933  0.4473E-01  0.3409E+00
      8.017  0.3327E-01  0.3437E+00
      8.102  0.3785E-01  0.3469E+00
      8.187  0.2511E-01  0.3490E+00
      8.271  0.2562E-01  0.3512E+00
      8.356  0.2670E-01  0.3534E+00
      8.441  0.1764E-01  0.3549E+00
      8.525  0.1674E-01  0.3563E+00
      8.610  0.1662E-01  0.3578E+00
      8.695  0.1079E-01  0.3587E+00
      8.779  0.1326E-01  0.3598E+00
      8.864  0.2491E-02  0.3600E+00
      8.949  0.1315E-04  0.3600E+00
      9.033  0.6618E-09  0.3600E+00
      9.118  0.1784E-15  0.3600E+00
      9.203  0.0000E+00  0.3600E+00
      9.287  0.0000E+00  0.3600E+00
      9.372  0.0000E+00  0.3600E+00
      9.457  0.0000E+00  0.3600E+00
      9.541  0.0000E+00  0.3600E+00
      9.626  0.0000E+00  0.3600E+00
      9.711  0.0000E+00  0.3600E+00
      9.796  0.0000E+00  0.3600E+00
      9.880  0.0000E+00  0.3600E+00
      9.965  0.0000E+00  0.3600E+00
     10.050  0.0000E+00  0.3600E+00
     10.134  0.4097E-18  0.3600E+00
     10.219  0.8659E-11  0.3600E+00
     10.304  0.6446E-06  0.3600E+00
     10.388  0.2341E-03  0.3600E+00
     10.473  0.1514E-02  0.3601E+00
     10.558  0.2169E-02  0.3603E+00
     10.642  0.3717E-02  0.3606E+00
     10.727  0.5666E-02  0.3611E+00
     10.812  0.6033E-02  0.3616E+00
     10.896  0.3008E-02  0.3619E+00
     10.981  0.6657E-02  0.3625E+00
     11.066  0.1065E-01  0.3634E+00
     11.150  0.1044E-01  0.3642E+00
     11.235  0.1975E-02  0.3644E+00
     11.320  0.5471E-02  0.3649E+00
     11.404  0.1426E-01  0.3661E+00
     11.489  0.1379E-01  0.3672E+00
     11.574  0.1637E-01  0.3686E+00
     11.658  0.1590E-01  0.3700E+00
     11.743  0.2273E-01  0.3719E+00
     11.828  0.1589E-01  0.3733E+00
     11.913  0.8083E-02  0.3739E+00
     11.997  0.1516E-01  0.3752E+00
     12.082  0.5172E-02  0.3757E+00
     12.167  0.1651E-01  0.3771E+00
     12.251  0.2328E-01  0.3790E+00
     12.336  0.2718E-01  0.3813E+00
     12.421  0.2187E-01  0.3832E+00
     12.505  0.1093E-01  0.3841E+00
     12.590  0.1229E-01  0.3851E+00
     12.675  0.1411E-01  0.3863E+00
     12.759  0.1633E-01  0.3877E+00
     12.844  0.1809E-01  0.3893E+00
     12.929  0.1840E-01  0.3908E+00
     13.013  0.1100E-01  0.3917E+00
     13.098  0.2313E-01  0.3937E+00
     13.183  0.4194E-01  0.3973E+00
     13.267  0.4517E-01  0.4011E+00
     13.352  0.5581E-01  0.4058E+00
     13.437  0.1812E-01  0.4073E+00
     13.521  0.1456E-01  0.4086E+00
     13.606  0.1989E-01  0.4103E+00
     13.691  0.1317E-01  0.4114E+00
     13.775  0.9119E-02  0.4121E+00
     13.860  0.2052E-01  0.4139E+00
     13.945  0.3245E-01  0.4166E+00
     14.030  0.2628E-01  0.4189E+00
     14.114  0.2394E-01  0.4209E+00
     14.199  0.2880E-01  0.4233E+00
     14.284  0.3040E-01  0.4259E+00
     14.368  0.3684E-01  0.4290E+00
     14.453  0.3288E-01  0.4318E+00
     14.538  0.2171E-01  0.4336E+00
     14.622  0.2947E-01  0.4361E+00
     14.707  0.4141E-01  0.4396E+00
     14.792  0.4302E-01  0.4433E+00
     14.876  0.6413E-01  0.4487E+00
     14.961  0.7175E-01  0.4548E+00
     15.046  0.4371E-01  0.4585E+00
     15.130  0.2381E-01  0.4605E+00
     15.215  0.3438E-01  0.4634E+00
     15.300  0.1847E-01  0.4650E+00
     15.384  0.2797E-01  0.4674E+00
     15.469  0.2617E-01  0.4696E+00
     15.554  0.1971E-01  0.4712E+00
     15.638  0.1041E-01  0.4721E+00
     15.723  0.2000E-01  0.4738E+00
     15.808  0.2569E-01  0.4760E+00
     15.892  0.2236E-01  0.4779E+00
     15.977  0.1412E-01  0.4791E+00
     16.062  0.1679E-02  0.4792E+00
     16.147  0.3582E-02  0.4795E+00
     16.231  0.3051E-02  0.4798E+00
     16.316  0.9067E-04  0.4798E+00
     16.401  0.4708E-03  0.4798E+00
     16.485  0.1831E-02  0.4800E+00
     16.570  0.1567E-03  0.4800E+00
     16.655  0.1093E-06  0.4800E+00
     16.739  0.3336E-12  0.4800E+00
     16.824  0.0000E+00  0.4800E+00
     16.909  0.0000E+00  0.4800E+00
     16.993  0.0000E+00  0.4800E+00
     17.078  0.0000E+00  0.4800E+00
     17.163  0.0000E+00  0.4800E+00
     17.247  0.0000E+00  0.4800E+00
     17.332  0.0000E+00  0.4800E+00
     17.417  0.0000E+00  0.4800E+00
     17.501  0.0000E+00  0.4800E+00
     17.586  0.0000E+00  0.4800E+00
