       N       E                     dE             d eps       ncg     rms          rms(c)
DAV:   1    -0.184863444192E+03   -0.18486E+03   -0.35958E+00  3744   0.110E+01    0.706E+00
DAV:   2    -0.172857908374E+03    0.12006E+02   -0.11555E+00  3804   0.643E+00    0.524E+00
DAV:   3    -0.173133197128E+03   -0.27529E+00   -0.17237E-01  4332   0.219E+00    0.420E+00
DAV:   4    -0.173157925137E+03   -0.24728E-01   -0.11410E-01  4296   0.134E+00    0.853E-01
DAV:   5    -0.173158387410E+03   -0.46227E-03   -0.10826E-02  4176   0.450E-01    0.299E-01
DAV:   6    -0.173158436043E+03   -0.48633E-04   -0.28659E-03  4392   0.202E-01    0.167E-01
DAV:   7    -0.173158506911E+03   -0.70868E-04   -0.23536E-04  4344   0.649E-02    0.879E-02
DAV:   8    -0.173158513434E+03   -0.65227E-05   -0.69859E-05  4836   0.392E-02
   1 F= -.13344557E+03 E0= -.13344557E+03  d E =-.133446E+03
       N       E                     dE             d eps       ncg     rms          rms(c)
DAV:   1    -0.172012561643E+03    0.11459E+01   -0.16933E+00  4320   0.639E+00    0.136E+00
DAV:   2    -0.171983437085E+03    0.29125E-01   -0.12812E-01  4272   0.136E+00    0.691E-01
DAV:   3    -0.171983044508E+03    0.39258E-03   -0.18321E-02  4344   0.468E-01    0.264E-01
DAV:   4    -0.171983297946E+03   -0.25344E-03   -0.40267E-04  4440   0.106E-01    0.117E-01
DAV:   5    -0.171983376673E+03   -0.78727E-04   -0.18117E-04  4296   0.606E-02    0.864E-02
DAV:   6    -0.171983404566E+03   -0.27893E-04   -0.46243E-05  4344   0.340E-02    0.263E-02
DAV:   7    -0.171983411420E+03   -0.68535E-05   -0.57908E-06  2292   0.121E-02
   2 F= -.13341398E+03 E0= -.13341398E+03  d E =0.315881E-01
       N       E                     dE             d eps       ncg     rms          rms(c)
DAV:   1    -0.172728778443E+03   -0.74537E+00   -0.58784E-01  4332   0.372E+00    0.814E-01
DAV:   2    -0.172719065437E+03    0.97130E-02   -0.45243E-02  4272   0.804E-01    0.413E-01
DAV:   3    -0.172718670242E+03    0.39520E-03   -0.65323E-03  4308   0.277E-01    0.157E-01
DAV:   4    -0.172718756111E+03   -0.85870E-04   -0.14333E-04  4464   0.625E-02    0.689E-02
DAV:   5    -0.172718714074E+03    0.42038E-04   -0.67217E-05  4236   0.365E-02    0.511E-02
DAV:   6    -0.172718694761E+03    0.19313E-04   -0.15434E-05  2556   0.201E-02    0.135E-02
DAV:   7    -0.172718688022E+03    0.67386E-05   -0.22914E-06  2124   0.898E-03
   3 F= -.13347191E+03 E0= -.13347191E+03  d E =-.263478E-01
       N       E                     dE             d eps       ncg     rms          rms(c)
DAV:   1    -0.172720501437E+03   -0.18067E-02   -0.28857E-02  3672   0.704E-01    0.475E-02
DAV:   2    -0.172720457974E+03    0.43463E-04   -0.14957E-03  4488   0.172E-01    0.353E-02
DAV:   3    -0.172720439100E+03    0.18874E-04   -0.12979E-04  4284   0.492E-02    0.238E-02
DAV:   4    -0.172720425917E+03    0.13183E-04   -0.31894E-05  3768   0.233E-02    0.101E-02
DAV:   5    -0.172720422357E+03    0.35603E-05   -0.48877E-06  2256   0.102E-02
   4 F= -.13347243E+03 E0= -.13347243E+03  d E =-.517442E-03
       N       E                     dE             d eps       ncg     rms          rms(c)
DAV:   1    -0.172720188348E+03    0.23757E-03   -0.19823E-03  3672   0.184E-01    0.126E-02
DAV:   2    -0.172720189027E+03   -0.67916E-06   -0.10487E-04  4452   0.454E-02    0.978E-03
DAV:   3    -0.172720189093E+03   -0.66098E-07   -0.81815E-06  2280   0.130E-02
   5 F= -.13347251E+03 E0= -.13347251E+03  d E =-.600523E-03
       N       E                     dE             d eps       ncg     rms          rms(c)
DAV:   1    -0.172735580711E+03   -0.15392E-01   -0.10946E-02  3936   0.520E-01    0.322E-02
DAV:   2    -0.172735569828E+03    0.10883E-04   -0.24966E-04  4668   0.716E-02    0.207E-02
DAV:   3    -0.172735561925E+03    0.79028E-05   -0.21241E-05  3288   0.212E-02
   6 F= -.13347259E+03 E0= -.13347259E+03  d E =-.742116E-04
       N       E                     dE             d eps       ncg     rms          rms(c)
DAV:   1    -0.172729531811E+03    0.60380E-02   -0.18310E-03  3804   0.209E-01    0.114E-02
DAV:   2    -0.172729531749E+03    0.62015E-07   -0.31453E-05  4212   0.261E-02
   7 F= -.13347267E+03 E0= -.13347267E+03  d E =-.153321E-03
