Al4C3 R-3m - r2SCAN H(P) scan @ 30 GPa (
           1
     3.199684    0.000000    0.000000
    -1.599842    2.771008    0.000000
     0.000000    0.000000   23.920851
   Al   C 
    12     9
Direct configuration=     1
   0.00000000  0.00000000  0.62963618
   0.00000000  0.00000000  0.37036382
   0.66666669  0.33333334  0.96296949
   0.66666669  0.33333334  0.70369713
   0.33333334  0.66666669  0.29630284
   0.33333334  0.66666669  0.03703049
   0.00000000  0.00000000  0.20619946
   0.00000000  0.00000000  0.79380054
   0.66666669  0.33333334  0.53953277
   0.66666669  0.33333334  0.12713387
   0.33333334  0.66666669  0.87286614
   0.33333334  0.66666669  0.46046720
   0.00000000  0.00000000  0.71671543
   0.00000000  0.00000000  0.28328457
   0.66666669  0.33333334  0.05004876
   0.66666669  0.33333334  0.61661788
   0.33333334  0.66666669  0.38338209
   0.33333334  0.66666669  0.94995126
   0.00000000  0.00000000  0.50000000
   0.66666669  0.33333334  0.83333331
   0.33333334  0.66666669  0.16666667
Al4C3 R-3m - r2SCAN H(P) scan @ 30 GPa (
           1
     3.168673    0.000000    0.000000
    -1.584337    2.744152    0.000000
     0.000000    0.000000   23.689015
   Al   C 
    12     9
Direct configuration=     2
   0.00000000  0.00000000  0.62989103
  -0.00000000 -0.00000000  0.37010897
   0.66666669  0.33333334  0.96322434
   0.66666669  0.33333334  0.70344228
   0.33333334  0.66666669  0.29655769
   0.33333334  0.66666669  0.03677564
  -0.00000000 -0.00000000  0.20623992
  -0.00000000 -0.00000000  0.79376008
   0.66666669  0.33333334  0.53957324
   0.66666669  0.33333334  0.12709340
   0.33333334  0.66666669  0.87290661
   0.33333334  0.66666669  0.46042673
   0.00000000  0.00000000  0.71682023
   0.00000000 -0.00000000  0.28317977
   0.66666669  0.33333334  0.05015357
   0.66666669  0.33333334  0.61651308
   0.33333334  0.66666669  0.38348689
   0.33333334  0.66666669  0.94984645
  -0.00000000  0.00000000  0.50000000
   0.66666669  0.33333334  0.83333331
   0.33333334  0.66666669  0.16666667
Al4C3 R-3m - r2SCAN H(P) scan @ 30 GPa (
           1
     3.187115    0.000000    0.000000
    -1.593557    2.760122    0.000000
     0.000000    0.000000   23.826883
   Al   C 
    12     9
Direct configuration=     3
   0.00000000  0.00000000  0.62973799
  -0.00000000 -0.00000000  0.37026201
   0.66666669  0.33333334  0.96307131
   0.66666669  0.33333334  0.70359532
   0.33333334  0.66666669  0.29640465
   0.33333334  0.66666669  0.03692867
  -0.00000000 -0.00000000  0.20621562
  -0.00000000 -0.00000000  0.79378438
   0.66666669  0.33333334  0.53954894
   0.66666669  0.33333334  0.12711771
   0.33333334  0.66666669  0.87288231
   0.33333334  0.66666669  0.46045103
   0.00000000  0.00000000  0.71675730
   0.00000000 -0.00000000  0.28324270
   0.66666669  0.33333334  0.05009063
   0.66666669  0.33333334  0.61657601
   0.33333334  0.66666669  0.38342396
   0.33333334  0.66666669  0.94990939
  -0.00000000  0.00000000  0.50000000
   0.66666669  0.33333334  0.83333331
   0.33333334  0.66666669  0.16666667
Al4C3 R-3m - r2SCAN H(P) scan @ 30 GPa (
           1
     3.187148    0.000000    0.000000
    -1.593574    2.760151    0.000000
     0.000000    0.000000   23.827130
   Al   C 
    12     9
Direct configuration=     4
   0.00000000  0.00000000  0.62986230
  -0.00000000 -0.00000000  0.37013770
   0.66666669  0.33333334  0.96319562
   0.66666669  0.33333334  0.70347101
   0.33333334  0.66666669  0.29652896
   0.33333334  0.66666669  0.03680437
  -0.00000000 -0.00000000  0.20614049
  -0.00000000  0.00000000  0.79385951
   0.66666669  0.33333334  0.53947381
   0.66666669  0.33333334  0.12719283
   0.33333334  0.66666669  0.87280718
   0.33333334  0.66666669  0.46052616
   0.00000000  0.00000000  0.71673241
  -0.00000000 -0.00000000  0.28326759
   0.66666669  0.33333334  0.05006575
   0.66666669  0.33333334  0.61660090
   0.33333334  0.66666669  0.38339907
   0.33333334  0.66666669  0.94993427
   0.00000000  0.00000000  0.50000000
   0.66666669  0.33333334  0.83333331
   0.33333334  0.66666669  0.16666667
Al4C3 R-3m - r2SCAN H(P) scan @ 30 GPa (
           1
     3.187139    0.000000    0.000000
    -1.593570    2.760144    0.000000
     0.000000    0.000000   23.827066
   Al   C 
    12     9
Direct configuration=     5
   0.00000000  0.00000000  0.62982999
  -0.00000000 -0.00000000  0.37017001
   0.66666669  0.33333334  0.96316330
   0.66666669  0.33333334  0.70350333
   0.33333334  0.66666669  0.29649664
   0.33333334  0.66666669  0.03683668
  -0.00000000 -0.00000000  0.20616002
  -0.00000000  0.00000000  0.79383998
   0.66666669  0.33333334  0.53949334
   0.66666669  0.33333334  0.12717330
   0.33333334  0.66666669  0.87282671
   0.33333334  0.66666669  0.46050663
   0.00000000  0.00000000  0.71673888
  -0.00000000 -0.00000000  0.28326112
   0.66666669  0.33333334  0.05007222
   0.66666669  0.33333334  0.61659443
   0.33333334  0.66666669  0.38340554
   0.33333334  0.66666669  0.94992780
   0.00000000  0.00000000  0.50000000
   0.66666669  0.33333334  0.83333331
   0.33333334  0.66666669  0.16666667
Al4C3 R-3m - r2SCAN H(P) scan @ 30 GPa (
           1
     3.187553    0.000000    0.000000
    -1.593777    2.760502    0.000000
     0.000000    0.000000   23.830161
   Al   C 
    12     9
Direct configuration=     6
   0.00000000  0.00000000  0.62991366
  -0.00000000 -0.00000000  0.37008634
   0.66666669  0.33333334  0.96324698
   0.66666669  0.33333334  0.70341965
   0.33333334  0.66666669  0.29658032
   0.33333334  0.66666669  0.03675301
  -0.00000000 -0.00000000  0.20619015
  -0.00000000  0.00000000  0.79380985
   0.66666669  0.33333334  0.53952347
   0.66666669  0.33333334  0.12714318
   0.33333334  0.66666669  0.87285684
   0.33333334  0.66666669  0.46047650
   0.00000000  0.00000000  0.71677276
  -0.00000000 -0.00000000  0.28322724
   0.66666669  0.33333334  0.05010610
   0.66666669  0.33333334  0.61656055
   0.33333334  0.66666669  0.38343942
   0.33333334  0.66666669  0.94989392
   0.00000000 -0.00000000  0.50000000
   0.66666669  0.33333334  0.83333331
   0.33333334  0.66666669  0.16666667
Al4C3 R-3m - r2SCAN H(P) scan @ 30 GPa (
           1
     3.187388    0.000000    0.000000
    -1.593694    2.760359    0.000000
     0.000000    0.000000   23.828925
   Al   C 
    12     9
Direct configuration=     7
   0.00000000  0.00000000  0.62988026
  -0.00000000 -0.00000000  0.37011974
   0.66666669  0.33333334  0.96321357
   0.66666669  0.33333334  0.70345306
   0.33333334  0.66666669  0.29654691
   0.33333334  0.66666669  0.03678641
  -0.00000000 -0.00000000  0.20617812
  -0.00000000  0.00000000  0.79382188
   0.66666669  0.33333334  0.53951144
   0.66666669  0.33333334  0.12715520
   0.33333334  0.66666669  0.87284481
   0.33333334  0.66666669  0.46048853
   0.00000000  0.00000000  0.71675924
  -0.00000000 -0.00000000  0.28324076
   0.66666669  0.33333334  0.05009257
   0.66666669  0.33333334  0.61657408
   0.33333334  0.66666669  0.38342589
   0.33333334  0.66666669  0.94990745
   0.00000000  0.00000000  0.50000000
   0.66666669  0.33333334  0.83333331
   0.33333334  0.66666669  0.16666667
