  28  28   0   0
  0.7610158E+01  0.2699941E-09  0.8248342E-09  0.9568213E-09  0.5000000E-15
  1.000000000000000E-004
  CAR 
 Al4C3 anti-CaFe2O4 - H(P) scan @ 100 GPa
     23.02860151     -5.34209352  301     14.23959661      1.00000000
     -5.342  0.0000E+00  0.0000E+00
     -5.248  0.0000E+00  0.0000E+00
     -5.153  0.0000E+00  0.0000E+00
     -5.058  0.0000E+00  0.0000E+00
     -4.964  0.0000E+00  0.0000E+00
     -4.869  0.0000E+00  0.0000E+00
     -4.775  0.0000E+00  0.0000E+00
     -4.680  0.0000E+00  0.0000E+00
     -4.586  0.0000E+00  0.0000E+00
     -4.491  0.0000E+00  0.0000E+00
     -4.396  0.0000E+00  0.0000E+00
     -4.302  0.4864E-15  0.4600E-16
     -4.207  0.3314E-08  0.3134E-09
     -4.113  0.2444E-04  0.2312E-05
     -4.018  0.5175E-03  0.5125E-04
     -3.924  0.2272E-02  0.2661E-03
     -3.829  0.4446E-02  0.6866E-03
     -3.734  0.4815E-02  0.1142E-02
     -3.640  0.4033E-02  0.1523E-02
     -3.545  0.5266E-02  0.2021E-02
     -3.451  0.9092E-02  0.2881E-02
     -3.356  0.9998E-02  0.3827E-02
     -3.262  0.5857E-02  0.4381E-02
     -3.167  0.5803E-02  0.4929E-02
     -3.072  0.9967E-02  0.5872E-02
     -2.978  0.1162E-01  0.6971E-02
     -2.883  0.5472E-02  0.7489E-02
     -2.789  0.9928E-02  0.8427E-02
     -2.694  0.1369E-01  0.9722E-02
     -2.600  0.1388E-01  0.1103E-01
     -2.505  0.1026E-01  0.1201E-01
     -2.410  0.1188E-01  0.1313E-01
     -2.316  0.8827E-02  0.1396E-01
     -2.221  0.1030E-01  0.1494E-01
     -2.127  0.1561E-01  0.1641E-01
     -2.032  0.1545E-01  0.1787E-01
     -1.938  0.1163E-01  0.1897E-01
     -1.843  0.1218E-01  0.2013E-01
     -1.748  0.1560E-01  0.2160E-01
     -1.654  0.1860E-01  0.2336E-01
     -1.559  0.2124E-01  0.2537E-01
     -1.465  0.1365E-01  0.2666E-01
     -1.370  0.9183E-02  0.2753E-01
     -1.276  0.1588E-01  0.2903E-01
     -1.181  0.1619E-01  0.3056E-01
     -1.086  0.1362E-01  0.3185E-01
     -0.992  0.1769E-01  0.3352E-01
     -0.897  0.2530E-01  0.3591E-01
     -0.803  0.2122E-01  0.3792E-01
     -0.708  0.1915E-01  0.3973E-01
     -0.614  0.2142E-01  0.4176E-01
     -0.519  0.2119E-01  0.4376E-01
     -0.425  0.1904E-01  0.4556E-01
     -0.330  0.1952E-01  0.4741E-01
     -0.235  0.1679E-01  0.4900E-01
     -0.141  0.1307E-01  0.5023E-01
     -0.046  0.1984E-01  0.5211E-01
      0.048  0.3971E-01  0.5586E-01
      0.143  0.2849E-01  0.5856E-01
      0.237  0.2374E-01  0.6080E-01
      0.332  0.2492E-01  0.6316E-01
      0.427  0.2870E-01  0.6587E-01
      0.521  0.3370E-01  0.6906E-01
      0.616  0.2981E-01  0.7188E-01
      0.710  0.2426E-01  0.7418E-01
      0.805  0.3475E-01  0.7746E-01
      0.899  0.4189E-01  0.8142E-01
      0.994  0.3300E-01  0.8454E-01
      1.089  0.2906E-01  0.8729E-01
      1.183  0.3397E-01  0.9050E-01
      1.278  0.3660E-01  0.9396E-01
      1.372  0.3389E-01  0.9717E-01
      1.467  0.3545E-01  0.1005E+00
      1.561  0.1933E-01  0.1023E+00
      1.656  0.2140E-01  0.1044E+00
      1.751  0.1525E-01  0.1058E+00
      1.845  0.1661E-01  0.1074E+00
      1.940  0.1250E-01  0.1086E+00
      2.034  0.1538E-01  0.1100E+00
      2.129  0.6611E-02  0.1106E+00
      2.223  0.1977E-01  0.1125E+00
      2.318  0.1288E-01  0.1137E+00
      2.413  0.5246E-02  0.1142E+00
      2.507  0.1183E-01  0.1154E+00
      2.602  0.1069E-01  0.1164E+00
      2.696  0.8591E-02  0.1172E+00
      2.791  0.6701E-02  0.1178E+00
      2.885  0.6439E-02  0.1184E+00
      2.980  0.9209E-02  0.1193E+00
      3.075  0.4698E-02  0.1197E+00
      3.169  0.2937E-02  0.1200E+00
      3.264  0.1218E-02  0.1201E+00
      3.358  0.2843E-02  0.1204E+00
      3.453  0.3829E-02  0.1208E+00
      3.547  0.6305E-02  0.1214E+00
      3.642  0.5347E-02  0.1219E+00
      3.737  0.7662E-02  0.1226E+00
      3.831  0.8724E-02  0.1234E+00
      3.926  0.1089E-01  0.1244E+00
      4.020  0.1244E-01  0.1256E+00
      4.115  0.1354E-01  0.1269E+00
      4.209  0.1723E-01  0.1285E+00
      4.304  0.2755E-01  0.1311E+00
      4.399  0.3970E-01  0.1349E+00
      4.493  0.2740E-01  0.1375E+00
      4.588  0.2933E-01  0.1402E+00
      4.682  0.3104E-01  0.1432E+00
      4.777  0.2883E-01  0.1459E+00
      4.871  0.2900E-01  0.1487E+00
      4.966  0.4071E-01  0.1525E+00
      5.060  0.3145E-01  0.1555E+00
      5.155  0.3359E-01  0.1587E+00
      5.250  0.4064E-01  0.1625E+00
      5.344  0.4667E-01  0.1669E+00
      5.439  0.3204E-01  0.1699E+00
      5.533  0.2754E-01  0.1725E+00
      5.628  0.4183E-01  0.1765E+00
      5.722  0.3182E-01  0.1795E+00
      5.817  0.1987E-01  0.1814E+00
      5.912  0.3015E-01  0.1842E+00
      6.006  0.2750E-01  0.1868E+00
      6.101  0.3899E-01  0.1905E+00
      6.195  0.3357E-01  0.1937E+00
      6.290  0.2861E-01  0.1964E+00
      6.384  0.3210E-01  0.1994E+00
      6.479  0.2887E-01  0.2022E+00
      6.574  0.2678E-01  0.2047E+00
      6.668  0.4095E-01  0.2086E+00
      6.763  0.4485E-01  0.2128E+00
      6.857  0.3556E-01  0.2162E+00
      6.952  0.3429E-01  0.2194E+00
      7.046  0.3352E-01  0.2226E+00
      7.141  0.3253E-01  0.2257E+00
      7.236  0.3045E-01  0.2286E+00
      7.330  0.3845E-01  0.2322E+00
      7.425  0.2735E-01  0.2348E+00
      7.519  0.2917E-01  0.2375E+00
      7.614  0.4223E-01  0.2415E+00
      7.708  0.4526E-01  0.2458E+00
      7.803  0.3247E-01  0.2489E+00
      7.898  0.4106E-01  0.2528E+00
      7.992  0.3214E-01  0.2558E+00
      8.087  0.4901E-01  0.2604E+00
      8.181  0.3831E-01  0.2641E+00
      8.276  0.4030E-01  0.2679E+00
      8.370  0.4443E-01  0.2721E+00
      8.465  0.5336E-01  0.2771E+00
      8.560  0.3242E-01  0.2802E+00
      8.654  0.3798E-01  0.2838E+00
      8.749  0.3267E-01  0.2869E+00
      8.843  0.3902E-01  0.2906E+00
      8.938  0.3684E-01  0.2940E+00
      9.032  0.3408E-01  0.2973E+00
      9.127  0.4478E-01  0.3015E+00
      9.222  0.3880E-01  0.3052E+00
      9.316  0.2719E-01  0.3077E+00
      9.411  0.4405E-01  0.3119E+00
      9.505  0.2484E-01  0.3143E+00
      9.600  0.4148E-01  0.3182E+00
      9.694  0.4638E-01  0.3226E+00
      9.789  0.4792E-01  0.3271E+00
      9.884  0.5103E-01  0.3319E+00
      9.978  0.3091E-01  0.3348E+00
     10.073  0.4145E-01  0.3388E+00
     10.167  0.3586E-01  0.3422E+00
     10.262  0.5042E-01  0.3469E+00
     10.356  0.5675E-01  0.3523E+00
     10.451  0.4289E-01  0.3563E+00
     10.545  0.3451E-01  0.3596E+00
     10.640  0.3420E-01  0.3628E+00
     10.735  0.3397E-01  0.3661E+00
     10.829  0.3523E-01  0.3694E+00
     10.924  0.5409E-01  0.3745E+00
     11.018  0.6519E-01  0.3807E+00
     11.113  0.6239E-01  0.3866E+00
     11.207  0.5907E-01  0.3922E+00
     11.302  0.4187E-01  0.3961E+00
     11.397  0.5417E-01  0.4012E+00
     11.491  0.5365E-01  0.4063E+00
     11.586  0.5310E-01  0.4113E+00
     11.680  0.6966E-01  0.4179E+00
     11.775  0.7555E-01  0.4251E+00
     11.869  0.6142E-01  0.4309E+00
     11.964  0.6017E-01  0.4366E+00
     12.059  0.4577E-01  0.4409E+00
     12.153  0.4239E-01  0.4449E+00
     12.248  0.4468E-01  0.4491E+00
     12.342  0.3306E-01  0.4523E+00
     12.437  0.3394E-01  0.4555E+00
     12.531  0.3428E-01  0.4587E+00
     12.626  0.3460E-01  0.4620E+00
     12.721  0.1191E-01  0.4631E+00
     12.815  0.2289E-01  0.4653E+00
     12.910  0.1763E-01  0.4669E+00
     13.004  0.1584E-01  0.4684E+00
     13.099  0.2271E-01  0.4706E+00
     13.193  0.2244E-01  0.4727E+00
     13.288  0.2401E-01  0.4750E+00
     13.383  0.1420E-01  0.4763E+00
     13.477  0.4099E-02  0.4767E+00
     13.572  0.2589E-02  0.4769E+00
     13.666  0.5551E-02  0.4775E+00
     13.761  0.6045E-02  0.4780E+00
     13.855  0.1047E-01  0.4790E+00
     13.950  0.8204E-02  0.4798E+00
     14.045  0.1992E-02  0.4800E+00
     14.139  0.1264E-04  0.4800E+00
     14.234  0.3005E-09  0.4800E+00
     14.328  0.1763E-12  0.4800E+00
     14.423  0.2128E-06  0.4800E+00
     14.517  0.4105E-03  0.4800E+00
     14.612  0.4694E-02  0.4805E+00
     14.707  0.1002E-01  0.4814E+00
     14.801  0.1387E-01  0.4827E+00
     14.896  0.9846E-02  0.4837E+00
     14.990  0.1487E-01  0.4851E+00
     15.085  0.1567E-01  0.4866E+00
     15.179  0.1571E-01  0.4880E+00
     15.274  0.1968E-01  0.4899E+00
     15.369  0.2262E-01  0.4920E+00
     15.463  0.1231E-01  0.4932E+00
     15.558  0.9924E-02  0.4942E+00
     15.652  0.1246E-01  0.4953E+00
     15.747  0.1724E-01  0.4970E+00
     15.841  0.1635E-01  0.4985E+00
     15.936  0.2457E-01  0.5008E+00
     16.030  0.3692E-01  0.5043E+00
     16.125  0.3107E-01  0.5073E+00
     16.220  0.2261E-01  0.5094E+00
     16.314  0.2851E-01  0.5121E+00
     16.409  0.2399E-01  0.5144E+00
     16.503  0.1862E-01  0.5161E+00
     16.598  0.2778E-01  0.5187E+00
     16.692  0.3255E-01  0.5218E+00
     16.787  0.2451E-01  0.5241E+00
     16.882  0.2743E-01  0.5267E+00
     16.976  0.1452E-01  0.5281E+00
     17.071  0.1721E-01  0.5297E+00
     17.165  0.2348E-01  0.5320E+00
     17.260  0.3344E-01  0.5351E+00
     17.354  0.2684E-01  0.5377E+00
     17.449  0.2501E-01  0.5400E+00
     17.544  0.3264E-01  0.5431E+00
     17.638  0.3398E-01  0.5463E+00
     17.733  0.3327E-01  0.5495E+00
     17.827  0.3475E-01  0.5528E+00
     17.922  0.3125E-01  0.5557E+00
     18.016  0.4604E-01  0.5601E+00
     18.111  0.2758E-01  0.5627E+00
     18.206  0.2890E-01  0.5654E+00
     18.300  0.4164E-01  0.5693E+00
     18.395  0.4509E-01  0.5736E+00
     18.489  0.4215E-01  0.5776E+00
     18.584  0.3454E-01  0.5809E+00
     18.678  0.3428E-01  0.5841E+00
     18.773  0.3868E-01  0.5878E+00
     18.868  0.3076E-01  0.5907E+00
     18.962  0.3001E-01  0.5935E+00
     19.057  0.3050E-01  0.5964E+00
     19.151  0.2742E-01  0.5990E+00
     19.246  0.2459E-01  0.6013E+00
     19.340  0.3228E-01  0.6044E+00
     19.435  0.3918E-01  0.6081E+00
     19.530  0.3520E-01  0.6114E+00
     19.624  0.2423E-01  0.6137E+00
     19.719  0.2744E-01  0.6163E+00
     19.813  0.3616E-01  0.6197E+00
     19.908  0.3067E-01  0.6226E+00
     20.002  0.1355E-01  0.6239E+00
     20.097  0.2268E-01  0.6260E+00
     20.192  0.2674E-01  0.6286E+00
     20.286  0.3355E-01  0.6317E+00
     20.381  0.2697E-01  0.6343E+00
     20.475  0.2197E-01  0.6364E+00
     20.570  0.2409E-01  0.6386E+00
     20.664  0.2466E-01  0.6410E+00
     20.759  0.1868E-01  0.6427E+00
     20.854  0.2961E-01  0.6455E+00
     20.948  0.2400E-01  0.6478E+00
     21.043  0.1079E-01  0.6488E+00
     21.137  0.2145E-01  0.6509E+00
     21.232  0.1411E-01  0.6522E+00
     21.326  0.2118E-01  0.6542E+00
     21.421  0.1471E-01  0.6556E+00
     21.515  0.1975E-01  0.6575E+00
     21.610  0.1872E-01  0.6592E+00
     21.705  0.5859E-02  0.6598E+00
     21.799  0.2229E-02  0.6600E+00
     21.894  0.9852E-04  0.6600E+00
     21.988  0.1326E-07  0.6600E+00
     22.083  0.1946E-14  0.6600E+00
     22.177  0.0000E+00  0.6600E+00
     22.272  0.0000E+00  0.6600E+00
     22.367  0.0000E+00  0.6600E+00
     22.461  0.0000E+00  0.6600E+00
     22.556  0.0000E+00  0.6600E+00
     22.650  0.0000E+00  0.6600E+00
     22.745  0.0000E+00  0.6600E+00
     22.839  0.0000E+00  0.6600E+00
     22.934  0.0000E+00  0.6600E+00
     23.029  0.0000E+00  0.6600E+00
