       N       E                     dE             d eps       ncg     rms          rms(c)
DAV:   1    -0.149517289051E+03   -0.14952E+03   -0.65144E-05  8082   0.693E-02    0.120E-02
DAV:   2    -0.149517291764E+03   -0.27133E-05   -0.21093E-06  4326   0.667E-03
   1 F= -.16520515E+02 E0= -.16520515E+02  d E =-.165205E+02
       N       E                     dE             d eps       ncg     rms          rms(c)
DAV:   1    -0.140175344238E+03    0.93419E+01   -0.12035E+01  9270   0.150E+01    0.375E+00
DAV:   2    -0.139905453901E+03    0.26989E+00   -0.65843E-01  9720   0.273E+00    0.182E+00
DAV:   3    -0.139878062389E+03    0.27392E-01   -0.12430E-01  9450   0.109E+00    0.492E-01
DAV:   4    -0.139875150073E+03    0.29123E-02   -0.64649E-03  9840   0.269E-01    0.165E-01
DAV:   5    -0.139874718056E+03    0.43202E-03   -0.50755E-04  9690   0.848E-02    0.106E-01
DAV:   6    -0.139874672192E+03    0.45864E-04   -0.13945E-04  9486   0.413E-02    0.124E-02
DAV:   7    -0.139874669896E+03    0.22961E-05   -0.11020E-05  5400   0.183E-02
   2 F= -.15794641E+02 E0= -.15794641E+02  d E =0.725873E+00
       N       E                     dE             d eps       ncg     rms          rms(c)
DAV:   1    -0.147260023200E+03   -0.73854E+01   -0.60184E+00  9222   0.103E+01    0.270E+00
DAV:   2    -0.147117846109E+03    0.14218E+00   -0.34934E-01  9756   0.195E+00    0.129E+00
DAV:   3    -0.147103980158E+03    0.13866E-01   -0.63344E-02  9474   0.762E-01    0.357E-01
DAV:   4    -0.147102237112E+03    0.17430E-02   -0.37322E-03  9852   0.199E-01    0.116E-01
DAV:   5    -0.147101913467E+03    0.32364E-03   -0.34811E-04  9780   0.675E-02    0.728E-02
DAV:   6    -0.147101854422E+03    0.59045E-04   -0.85775E-05  9222   0.315E-02    0.101E-02
DAV:   7    -0.147101849216E+03    0.52061E-05   -0.63994E-06  5124   0.139E-02
   3 F= -.16651849E+02 E0= -.16651849E+02  d E =-.131334E+00
       N       E                     dE             d eps       ncg     rms          rms(c)
DAV:   1    -0.147057765542E+03    0.44089E-01   -0.28937E-04  9228   0.712E-02    0.191E-02
DAV:   2    -0.147057761558E+03    0.39844E-05   -0.16041E-05  4956   0.135E-02
   4 F= -.16651892E+02 E0= -.16651892E+02  d E =-.131377E+00
       N       E                     dE             d eps       ncg     rms          rms(c)
DAV:   1    -0.147052316378E+03    0.54492E-02   -0.26290E-06  4668   0.617E-03    0.502E-03
DAV:   2    -0.147052317087E+03   -0.70953E-06   -0.44495E-07  4590   0.225E-03
   5 F= -.16651894E+02 E0= -.16651894E+02  d E =-.131379E+00
       N       E                     dE             d eps       ncg     rms          rms(c)
DAV:   1    -0.147054727903E+03   -0.24115E-02   -0.94697E-07  4536   0.423E-03    0.844E-04
DAV:   2    -0.147054727892E+03    0.10972E-07   -0.60683E-08  4458   0.995E-04
   6 F= -.16651895E+02 E0= -.16651895E+02  d E =-.131380E+00
       N       E                     dE             d eps       ncg     rms          rms(c)
DAV:   1    -0.147011247577E+03    0.43480E-01   -0.24655E-01  8346   0.204E+00    0.114E-01
DAV:   2    -0.147011122805E+03    0.12477E-03   -0.42010E-03  9990   0.255E-01    0.736E-02
DAV:   3    -0.147010973995E+03    0.14881E-03   -0.43183E-04  9822   0.856E-02    0.294E-02
DAV:   4    -0.147010970514E+03    0.34807E-05   -0.11150E-04  9606   0.387E-02    0.154E-02
DAV:   5    -0.147010969603E+03    0.91072E-06   -0.13199E-05  5514   0.137E-02
   7 F= -.16653891E+02 E0= -.16653891E+02  d E =-.199653E-02
       N       E                     dE             d eps       ncg     rms          rms(c)
DAV:   1    -0.147016735743E+03   -0.57652E-02   -0.37855E-03  8358   0.254E-01    0.138E-02
DAV:   2    -0.147016734625E+03    0.11180E-05   -0.65191E-05  9978   0.314E-02
   8 F= -.16653931E+02 E0= -.16653931E+02  d E =-.203629E-02
       N       E                     dE             d eps       ncg     rms          rms(c)
DAV:   1    -0.147004470905E+03    0.12265E-01   -0.22187E-01  8340   0.190E+00    0.102E-01
DAV:   2    -0.147004266177E+03    0.20473E-03   -0.41098E-03  9984   0.253E-01    0.589E-02
DAV:   3    -0.147004148494E+03    0.11768E-03   -0.31816E-04  9636   0.739E-02    0.234E-02
DAV:   4    -0.147004148136E+03    0.35813E-06   -0.10642E-04  9390   0.339E-02    0.105E-02
DAV:   5    -0.147004148223E+03   -0.86871E-07   -0.44402E-06  5046   0.812E-03
   9 F= -.16654916E+02 E0= -.16654916E+02  d E =-.984852E-03
       N       E                     dE             d eps       ncg     rms          rms(c)
DAV:   1    -0.147006687350E+03   -0.25392E-02   -0.73742E-03  8340   0.346E-01    0.184E-02
DAV:   2    -0.147006681071E+03    0.62789E-05   -0.13594E-04  9960   0.460E-02    0.108E-02
DAV:   3    -0.147006677246E+03    0.38254E-05   -0.97045E-06  5016   0.134E-02
  10 F= -.16654968E+02 E0= -.16654968E+02  d E =-.103628E-02
       N       E                     dE             d eps       ncg     rms          rms(c)
DAV:   1    -0.146982453109E+03    0.24228E-01   -0.68528E-02  8340   0.108E+00    0.525E-02
DAV:   2    -0.146982453187E+03   -0.77622E-07   -0.13512E-03 10014   0.144E-01    0.352E-02
DAV:   3    -0.146982425434E+03    0.27753E-04   -0.73928E-05  9798   0.358E-02    0.176E-02
DAV:   4    -0.146982421373E+03    0.40612E-05   -0.33365E-05  6498   0.207E-02
  11 F= -.16655482E+02 E0= -.16655482E+02  d E =-.514511E-03
       N       E                     dE             d eps       ncg     rms          rms(c)
DAV:   1    -0.146982952129E+03   -0.52669E-03   -0.34682E-05  7326   0.244E-02    0.330E-03
DAV:   2    -0.146982952051E+03    0.78468E-07   -0.11464E-06  4608   0.452E-03
  12 F= -.16655482E+02 E0= -.16655482E+02  d E =-.514655E-03
       N       E                     dE             d eps       ncg     rms          rms(c)
DAV:   1    -0.146994089211E+03   -0.11137E-01   -0.26556E-02  8340   0.666E-01    0.305E-02
DAV:   2    -0.146994085010E+03    0.42002E-05   -0.32716E-04  9870   0.724E-02    0.187E-02
DAV:   3    -0.146994072050E+03    0.12960E-04   -0.31563E-05  8262   0.240E-02    0.607E-03
DAV:   4    -0.146994072159E+03   -0.10920E-06   -0.96750E-06  4788   0.110E-02
  13 F= -.16655796E+02 E0= -.16655796E+02  d E =-.314124E-03
       N       E                     dE             d eps       ncg     rms          rms(c)
DAV:   1    -0.147004542065E+03   -0.10470E-01   -0.24385E-02  8340   0.639E-01    0.294E-02
DAV:   2    -0.147004538621E+03    0.34437E-05   -0.30388E-04  9876   0.698E-02    0.182E-02
DAV:   3    -0.147004526658E+03    0.11963E-04   -0.29107E-05  7878   0.232E-02    0.615E-03
DAV:   4    -0.147004526754E+03   -0.96301E-07   -0.94916E-06  4788   0.110E-02
  14 F= -.16655900E+02 E0= -.16655900E+02  d E =-.417812E-03
       N       E                     dE             d eps       ncg     rms          rms(c)
DAV:   1    -0.146939906936E+03    0.64620E-01   -0.30544E-02  8328   0.713E-01    0.423E-02
DAV:   2    -0.146939892518E+03    0.14418E-04   -0.42515E-04 10110   0.822E-02    0.231E-02
DAV:   3    -0.146939880713E+03    0.11804E-04   -0.46429E-05  9528   0.274E-02    0.760E-03
DAV:   4    -0.146939881735E+03   -0.10216E-05   -0.10056E-05  5298   0.112E-02
  15 F= -.16656065E+02 E0= -.16656065E+02  d E =-.164965E-03
       N       E                     dE             d eps       ncg     rms          rms(c)
DAV:   1    -0.146947568072E+03   -0.76874E-02   -0.43164E-04  8394   0.844E-02    0.536E-03
DAV:   2    -0.146947567398E+03    0.67416E-06   -0.58126E-06  4626   0.990E-03
  16 F= -.16656068E+02 E0= -.16656068E+02  d E =-.167765E-03
       N       E                     dE             d eps       ncg     rms          rms(c)
DAV:   1    -0.146996084702E+03   -0.48517E-01   -0.25319E-02  8328   0.653E-01    0.342E-02
DAV:   2    -0.146996066806E+03    0.17896E-04   -0.33501E-04 10056   0.750E-02    0.203E-02
DAV:   3    -0.146996055096E+03    0.11710E-04   -0.32249E-05  8550   0.228E-02    0.817E-03
DAV:   4    -0.146996054208E+03    0.88758E-06   -0.77951E-06  5082   0.950E-03
  17 F= -.16656184E+02 E0= -.16656184E+02  d E =-.116531E-03
       N       E                     dE             d eps       ncg     rms          rms(c)
DAV:   1    -0.146992036495E+03    0.40186E-02   -0.17617E-04  7686   0.542E-02    0.331E-03
DAV:   2    -0.146992036573E+03   -0.78277E-07   -0.25786E-06  4320   0.663E-03
  18 F= -.16656185E+02 E0= -.16656185E+02  d E =-.116981E-03
       N       E                     dE             d eps       ncg     rms          rms(c)
DAV:   1    -0.146975087177E+03    0.16949E-01   -0.95282E-03  8340   0.400E-01    0.232E-02
DAV:   2    -0.146975080197E+03    0.69792E-05   -0.15092E-04 10056   0.492E-02    0.131E-02
DAV:   3    -0.146975075122E+03    0.50754E-05   -0.19774E-05  6084   0.191E-02
  19 F= -.16656259E+02 E0= -.16656259E+02  d E =-.741613E-04
       N       E                     dE             d eps       ncg     rms          rms(c)
DAV:   1    -0.146974490478E+03    0.58972E-03   -0.17196E-05  4842   0.172E-02    0.273E-03
DAV:   2    -0.146974490618E+03   -0.13982E-06   -0.10205E-06  4434   0.463E-03
  20 F= -.16656260E+02 E0= -.16656260E+02  d E =-.751411E-04
       N       E                     dE             d eps       ncg     rms          rms(c)
DAV:   1    -0.146975273645E+03   -0.78317E-03   -0.19796E-03  8352   0.178E-01    0.114E-02
DAV:   2    -0.146975269726E+03    0.39190E-05   -0.58663E-05  9984   0.302E-02
  21 F= -.16656276E+02 E0= -.16656276E+02  d E =-.156943E-04
