Al4C3 R-3m polymorph (findsym-output, fr
   1.00000000000000     
     3.1199916585169487    0.0000000000000000    0.0000000000000000
    -1.5599958292584744    2.7019920359059175    0.0000000000000000
     0.0000000000000000    0.0000000000000000   23.3250700731016813
   Al   C 
    12     9
Direct
  0.0000000000000000  0.0000000000000000  0.6297055070900360
 -0.0000000000000000 -0.0000000000000000  0.3702944929099638
  0.6666666870000029  0.3333333429999996  0.9630388200900332
  0.6666666870000029  0.3333333429999996  0.7036278069099647
  0.3333333429999996  0.6666666870000029  0.2963721630900329
  0.3333333429999996  0.6666666870000029  0.0369611609099686
 -0.0000000000000000 -0.0000000000000000  0.2060631830537221
 -0.0000000000000000 -0.0000000000000000  0.7939368169462778
  0.6666666870000029  0.3333333429999996  0.5393964970537229
  0.6666666870000029  0.3333333429999996  0.1272701449462799
  0.3333333429999996  0.6666666870000029  0.8727298700537250
  0.3333333429999996  0.6666666870000029  0.4606034729462747
  0.0000000000000000  0.0000000000000000  0.7167496329007954
 -0.0000000000000000  0.0000000000000000  0.2832503670992045
  0.6666666870000029  0.3333333429999996  0.0500829649007977
  0.6666666870000029  0.3333333429999996  0.6165836800992017
  0.3333333429999996  0.6666666870000029  0.3834162899007959
  0.3333333429999996  0.6666666870000029  0.9499170540992004
  0.0000000000000000  0.0000000000000000  0.5000000000000000
  0.6666666870000029  0.3333333429999996  0.8333333129999971
  0.3333333429999996  0.6666666870000029  0.1666666719999981
 
  0.00000000E+00  0.00000000E+00  0.00000000E+00
  0.00000000E+00  0.00000000E+00  0.00000000E+00
  0.00000000E+00  0.00000000E+00  0.00000000E+00
  0.00000000E+00  0.00000000E+00  0.00000000E+00
  0.00000000E+00  0.00000000E+00  0.00000000E+00
  0.00000000E+00  0.00000000E+00  0.00000000E+00
  0.00000000E+00  0.00000000E+00  0.00000000E+00
  0.00000000E+00  0.00000000E+00  0.00000000E+00
  0.00000000E+00  0.00000000E+00  0.00000000E+00
  0.00000000E+00  0.00000000E+00  0.00000000E+00
  0.00000000E+00  0.00000000E+00  0.00000000E+00
  0.00000000E+00  0.00000000E+00  0.00000000E+00
  0.00000000E+00  0.00000000E+00  0.00000000E+00
  0.00000000E+00  0.00000000E+00  0.00000000E+00
  0.00000000E+00  0.00000000E+00  0.00000000E+00
  0.00000000E+00  0.00000000E+00  0.00000000E+00
  0.00000000E+00  0.00000000E+00  0.00000000E+00
  0.00000000E+00  0.00000000E+00  0.00000000E+00
  0.00000000E+00  0.00000000E+00  0.00000000E+00
  0.00000000E+00  0.00000000E+00  0.00000000E+00
  0.00000000E+00  0.00000000E+00  0.00000000E+00
