  21  21   0   0
  0.9447860E+01  0.3129326E-09  0.3129326E-09  0.2339486E-08  0.5000000E-15
  1.000000000000000E-004
  CAR 
 Al4C3 R-3m - r2SCAN H(P) scan @ 50 GPa (
     18.65847115     -7.64397325  301      9.72111973      1.00000000
     -7.644  0.0000E+00  0.0000E+00
     -7.556  0.0000E+00  0.0000E+00
     -7.469  0.0000E+00  0.0000E+00
     -7.381  0.0000E+00  0.0000E+00
     -7.293  0.0000E+00  0.0000E+00
     -7.206  0.0000E+00  0.0000E+00
     -7.118  0.0000E+00  0.0000E+00
     -7.030  0.0000E+00  0.0000E+00
     -6.943  0.0000E+00  0.0000E+00
     -6.855  0.0000E+00  0.0000E+00
     -6.767  0.0000E+00  0.0000E+00
     -6.680  0.1238E-13  0.1086E-14
     -6.592  0.9931E-08  0.8707E-09
     -6.504  0.2602E-04  0.2282E-05
     -6.417  0.6621E-03  0.6033E-04
     -6.329  0.2623E-02  0.2903E-03
     -6.241  0.6232E-02  0.8367E-03
     -6.154  0.5191E-02  0.1292E-02
     -6.066  0.5190E-02  0.1747E-02
     -5.978  0.6648E-02  0.2330E-02
     -5.890  0.1028E-01  0.3231E-02
     -5.803  0.6015E-02  0.3758E-02
     -5.715  0.2235E-02  0.3954E-02
     -5.627  0.2746E-02  0.4195E-02
     -5.540  0.1120E-01  0.5177E-02
     -5.452  0.1034E-01  0.6083E-02
     -5.364  0.8019E-02  0.6786E-02
     -5.277  0.7289E-02  0.7425E-02
     -5.189  0.6763E-02  0.8018E-02
     -5.101  0.4912E-02  0.8449E-02
     -5.014  0.6817E-02  0.9046E-02
     -4.926  0.1631E-01  0.1048E-01
     -4.838  0.2349E-01  0.1254E-01
     -4.751  0.1477E-01  0.1383E-01
     -4.663  0.6503E-02  0.1440E-01
     -4.575  0.1250E-01  0.1550E-01
     -4.488  0.1599E-01  0.1690E-01
     -4.400  0.1121E-01  0.1788E-01
     -4.312  0.6594E-02  0.1846E-01
     -4.225  0.2086E-01  0.2029E-01
     -4.137  0.1792E-01  0.2186E-01
     -4.049  0.2111E-01  0.2371E-01
     -3.962  0.2230E-01  0.2567E-01
     -3.874  0.1176E-01  0.2670E-01
     -3.786  0.8103E-02  0.2741E-01
     -3.699  0.1136E-01  0.2840E-01
     -3.611  0.1586E-01  0.2979E-01
     -3.523  0.1561E-01  0.3116E-01
     -3.436  0.2500E-01  0.3335E-01
     -3.348  0.2839E-01  0.3584E-01
     -3.260  0.3364E-01  0.3879E-01
     -3.173  0.2007E-01  0.4055E-01
     -3.085  0.1741E-01  0.4208E-01
     -2.997  0.1681E-01  0.4355E-01
     -2.910  0.2727E-01  0.4594E-01
     -2.822  0.3396E-01  0.4892E-01
     -2.734  0.1773E-01  0.5047E-01
     -2.647  0.1948E-01  0.5218E-01
     -2.559  0.3045E-01  0.5485E-01
     -2.471  0.3423E-01  0.5785E-01
     -2.383  0.2565E-01  0.6010E-01
     -2.296  0.2011E-01  0.6186E-01
     -2.208  0.1787E-01  0.6343E-01
     -2.120  0.2171E-01  0.6534E-01
     -2.033  0.3365E-01  0.6829E-01
     -1.945  0.1198E-01  0.6934E-01
     -1.857  0.1238E-01  0.7042E-01
     -1.770  0.2076E-01  0.7224E-01
     -1.682  0.4334E-01  0.7604E-01
     -1.594  0.3911E-01  0.7947E-01
     -1.507  0.7247E-01  0.8582E-01
     -1.419  0.3951E-01  0.8929E-01
     -1.331  0.7851E-02  0.8998E-01
     -1.244  0.2642E-03  0.9000E-01
     -1.156  0.1565E-06  0.9000E-01
     -1.068  0.3365E-12  0.9000E-01
     -0.981  0.0000E+00  0.9000E-01
     -0.893  0.0000E+00  0.9000E-01
     -0.805  0.0000E+00  0.9000E-01
     -0.718  0.0000E+00  0.9000E-01
     -0.630  0.0000E+00  0.9000E-01
     -0.542  0.0000E+00  0.9000E-01
     -0.455  0.0000E+00  0.9000E-01
     -0.367  0.0000E+00  0.9000E-01
     -0.279  0.0000E+00  0.9000E-01
     -0.192  0.0000E+00  0.9000E-01
     -0.104  0.0000E+00  0.9000E-01
     -0.016  0.0000E+00  0.9000E-01
      0.071  0.0000E+00  0.9000E-01
      0.159  0.0000E+00  0.9000E-01
      0.247  0.3957E-17  0.9000E-01
      0.334  0.6474E-10  0.9000E-01
      0.422  0.2757E-05  0.9000E-01
      0.510  0.4597E-03  0.9004E-01
      0.597  0.2140E-02  0.9023E-01
      0.685  0.1408E-02  0.9035E-01
      0.773  0.8073E-02  0.9106E-01
      0.860  0.8727E-02  0.9182E-01
      0.948  0.1138E-01  0.9282E-01
      1.036  0.1316E-01  0.9398E-01
      1.124  0.1016E-01  0.9487E-01
      1.211  0.5178E-02  0.9532E-01
      1.299  0.6117E-02  0.9586E-01
      1.387  0.1079E-01  0.9680E-01
      1.474  0.2253E-01  0.9878E-01
      1.562  0.2766E-01  0.1012E+00
      1.650  0.8831E-02  0.1020E+00
      1.737  0.1242E-01  0.1031E+00
      1.825  0.1319E-01  0.1042E+00
      1.913  0.1815E-01  0.1058E+00
      2.000  0.1695E-01  0.1073E+00
      2.088  0.3510E-02  0.1076E+00
      2.176  0.5253E-02  0.1081E+00
      2.263  0.1285E-01  0.1092E+00
      2.351  0.1313E-01  0.1103E+00
      2.439  0.2861E-01  0.1129E+00
      2.526  0.2208E-01  0.1148E+00
      2.614  0.2197E-01  0.1167E+00
      2.702  0.2292E-01  0.1187E+00
      2.789  0.3123E-01  0.1215E+00
      2.877  0.3280E-01  0.1243E+00
      2.965  0.4097E-01  0.1279E+00
      3.052  0.2374E-01  0.1300E+00
      3.140  0.2854E-01  0.1325E+00
      3.228  0.2805E-01  0.1350E+00
      3.315  0.4142E-01  0.1386E+00
      3.403  0.2423E-01  0.1407E+00
      3.491  0.1742E-01  0.1423E+00
      3.578  0.2468E-01  0.1444E+00
      3.666  0.2852E-01  0.1469E+00
      3.754  0.2849E-01  0.1494E+00
      3.841  0.4692E-01  0.1535E+00
      3.929  0.3535E-01  0.1566E+00
      4.017  0.4345E-01  0.1604E+00
      4.104  0.3354E-01  0.1634E+00
      4.192  0.2682E-01  0.1657E+00
      4.280  0.2275E-01  0.1677E+00
      4.367  0.3560E-01  0.1708E+00
      4.455  0.4996E-01  0.1752E+00
      4.543  0.4411E-01  0.1791E+00
      4.631  0.3633E-01  0.1823E+00
      4.718  0.3357E-01  0.1852E+00
      4.806  0.2534E-01  0.1874E+00
      4.894  0.2721E-01  0.1898E+00
      4.981  0.2348E-01  0.1919E+00
      5.069  0.1787E-01  0.1935E+00
      5.157  0.2549E-01  0.1957E+00
      5.244  0.2888E-01  0.1982E+00
      5.332  0.4867E-01  0.2025E+00
      5.420  0.3350E-01  0.2054E+00
      5.507  0.3784E-01  0.2087E+00
      5.595  0.3193E-01  0.2115E+00
      5.683  0.3642E-01  0.2147E+00
      5.770  0.3226E-01  0.2176E+00
      5.858  0.2437E-01  0.2197E+00
      5.946  0.2490E-01  0.2219E+00
      6.033  0.3941E-01  0.2253E+00
      6.121  0.4229E-01  0.2291E+00
      6.209  0.3724E-01  0.2323E+00
      6.296  0.4717E-01  0.2365E+00
      6.384  0.3487E-01  0.2395E+00
      6.472  0.4034E-01  0.2430E+00
      6.559  0.3487E-01  0.2461E+00
      6.647  0.2530E-01  0.2483E+00
      6.735  0.4155E-01  0.2520E+00
      6.822  0.3665E-01  0.2552E+00
      6.910  0.3012E-01  0.2578E+00
      6.998  0.3619E-01  0.2610E+00
      7.085  0.3238E-01  0.2638E+00
      7.173  0.6285E-01  0.2693E+00
      7.261  0.5933E-01  0.2745E+00
      7.348  0.4318E-01  0.2783E+00
      7.436  0.4270E-01  0.2821E+00
      7.524  0.4864E-01  0.2863E+00
      7.611  0.6124E-01  0.2917E+00
      7.699  0.5192E-01  0.2963E+00
      7.787  0.4084E-01  0.2998E+00
      7.874  0.5883E-01  0.3050E+00
      7.962  0.5595E-01  0.3099E+00
      8.050  0.3613E-01  0.3131E+00
      8.137  0.4631E-01  0.3171E+00
      8.225  0.4666E-01  0.3212E+00
      8.313  0.4375E-01  0.3251E+00
      8.401  0.4576E-01  0.3291E+00
      8.488  0.5342E-01  0.3338E+00
      8.576  0.4815E-01  0.3380E+00
      8.664  0.4059E-01  0.3415E+00
      8.751  0.3295E-01  0.3444E+00
      8.839  0.3642E-01  0.3476E+00
      8.927  0.2192E-01  0.3495E+00
      9.014  0.2842E-01  0.3520E+00
      9.102  0.2180E-01  0.3539E+00
      9.190  0.1811E-01  0.3555E+00
      9.277  0.1683E-01  0.3570E+00
      9.365  0.1267E-01  0.3581E+00
      9.453  0.1300E-01  0.3593E+00
      9.540  0.8293E-02  0.3600E+00
      9.628  0.2417E-03  0.3600E+00
      9.716  0.6806E-07  0.3600E+00
      9.803  0.8356E-13  0.3600E+00
      9.891  0.0000E+00  0.3600E+00
      9.979  0.0000E+00  0.3600E+00
     10.066  0.0000E+00  0.3600E+00
     10.154  0.0000E+00  0.3600E+00
     10.242  0.0000E+00  0.3600E+00
     10.329  0.0000E+00  0.3600E+00
     10.417  0.0000E+00  0.3600E+00
     10.505  0.0000E+00  0.3600E+00
     10.592  0.0000E+00  0.3600E+00
     10.680  0.0000E+00  0.3600E+00
     10.768  0.0000E+00  0.3600E+00
     10.855  0.7291E-15  0.3600E+00
     10.943  0.2253E-08  0.3600E+00
     11.031  0.1910E-04  0.3600E+00
     11.118  0.7779E-03  0.3601E+00
     11.206  0.1960E-02  0.3602E+00
     11.294  0.1603E-02  0.3604E+00
     11.381  0.5182E-02  0.3608E+00
     11.469  0.5066E-02  0.3613E+00
     11.557  0.5216E-02  0.3617E+00
     11.644  0.3027E-02  0.3620E+00
     11.732  0.8758E-02  0.3628E+00
     11.820  0.1121E-01  0.3638E+00
     11.908  0.6847E-02  0.3644E+00
     11.995  0.9268E-03  0.3644E+00
     12.083  0.7866E-02  0.3651E+00
     12.171  0.1670E-01  0.3666E+00
     12.258  0.1306E-01  0.3677E+00
     12.346  0.1808E-01  0.3693E+00
     12.434  0.1512E-01  0.3706E+00
     12.521  0.2287E-01  0.3727E+00
     12.609  0.1002E-01  0.3735E+00
     12.697  0.9249E-02  0.3743E+00
     12.784  0.1223E-01  0.3754E+00
     12.872  0.6091E-02  0.3759E+00
     12.960  0.1804E-01  0.3775E+00
     13.047  0.2500E-01  0.3797E+00
     13.135  0.2752E-01  0.3821E+00
     13.223  0.1289E-01  0.3833E+00
     13.310  0.1218E-01  0.3843E+00
     13.398  0.1267E-01  0.3854E+00
     13.486  0.1190E-01  0.3865E+00
     13.573  0.1473E-01  0.3878E+00
     13.661  0.1701E-01  0.3893E+00
     13.749  0.1591E-01  0.3907E+00
     13.836  0.1037E-01  0.3916E+00
     13.924  0.2412E-01  0.3937E+00
     14.012  0.3648E-01  0.3969E+00
     14.099  0.4553E-01  0.4009E+00
     14.187  0.3299E-01  0.4038E+00
     14.275  0.2183E-01  0.4057E+00
     14.362  0.1575E-01  0.4071E+00
     14.450  0.1417E-01  0.4083E+00
     14.538  0.1425E-01  0.4096E+00
     14.625  0.1138E-01  0.4106E+00
     14.713  0.9034E-02  0.4113E+00
     14.801  0.2188E-01  0.4133E+00
     14.888  0.1902E-01  0.4149E+00
     14.976  0.1616E-01  0.4163E+00
     15.064  0.3057E-01  0.4190E+00
     15.151  0.3499E-01  0.4221E+00
     15.239  0.2912E-01  0.4246E+00
     15.327  0.2510E-01  0.4269E+00
     15.415  0.2506E-01  0.4290E+00
     15.502  0.3040E-01  0.4317E+00
     15.590  0.3929E-01  0.4352E+00
     15.678  0.3019E-01  0.4378E+00
     15.765  0.3953E-01  0.4413E+00
     15.853  0.3738E-01  0.4445E+00
     15.941  0.6882E-01  0.4506E+00
     16.028  0.5629E-01  0.4555E+00
     16.116  0.4034E-01  0.4591E+00
     16.204  0.3517E-01  0.4621E+00
     16.291  0.2719E-01  0.4645E+00
     16.379  0.2196E-01  0.4664E+00
     16.467  0.2276E-01  0.4684E+00
     16.554  0.2325E-01  0.4705E+00
     16.642  0.1392E-01  0.4717E+00
     16.730  0.1463E-01  0.4730E+00
     16.817  0.2266E-01  0.4750E+00
     16.905  0.2190E-01  0.4769E+00
     16.993  0.1730E-01  0.4784E+00
     17.080  0.7296E-02  0.4790E+00
     17.168  0.2041E-02  0.4792E+00
     17.256  0.5300E-02  0.4797E+00
     17.343  0.1147E-02  0.4798E+00
     17.431  0.4381E-03  0.4798E+00
     17.519  0.1804E-02  0.4800E+00
     17.606  0.1360E-03  0.4800E+00
     17.694  0.5883E-07  0.4800E+00
     17.782  0.7422E-13  0.4800E+00
     17.869  0.0000E+00  0.4800E+00
     17.957  0.0000E+00  0.4800E+00
     18.045  0.0000E+00  0.4800E+00
     18.132  0.0000E+00  0.4800E+00
     18.220  0.0000E+00  0.4800E+00
     18.308  0.0000E+00  0.4800E+00
     18.395  0.0000E+00  0.4800E+00
     18.483  0.0000E+00  0.4800E+00
     18.571  0.0000E+00  0.4800E+00
     18.658  0.0000E+00  0.4800E+00
