Al4C3 R-3m - r2SCAN H(P) scan @ 50 GPa (
           1
     3.129326    0.000000    0.000000
    -1.564663    2.710076    0.000000
     0.000000    0.000000   23.394856
   Al   C 
    12     9
Direct configuration=     1
   0.00000000  0.00000000  0.62950503
   0.00000000  0.00000000  0.37049497
   0.66666669  0.33333334  0.96283834
   0.66666669  0.33333334  0.70382828
   0.33333334  0.66666669  0.29617169
   0.33333334  0.66666669  0.03716164
   0.00000000  0.00000000  0.20608266
   0.00000000  0.00000000  0.79391734
   0.66666669  0.33333334  0.53941597
   0.66666669  0.33333334  0.12725067
   0.33333334  0.66666669  0.87274934
   0.33333334  0.66666669  0.46058400
   0.00000000  0.00000000  0.71668628
   0.00000000  0.00000000  0.28331372
   0.66666669  0.33333334  0.05001961
   0.66666669  0.33333334  0.61664704
   0.33333334  0.66666669  0.38335293
   0.33333334  0.66666669  0.94998041
   0.00000000  0.00000000  0.50000000
   0.66666669  0.33333334  0.83333331
   0.33333334  0.66666669  0.16666667
Al4C3 R-3m - r2SCAN H(P) scan @ 50 GPa (
           1
     3.101761    0.000000    0.000000
    -1.550881    2.686204    0.000000
     0.000000    0.000000   23.188778
   Al   C 
    12     9
Direct configuration=     2
   0.00000000  0.00000000  0.62975581
   0.00000000  0.00000000  0.37024419
   0.66666669  0.33333334  0.96308912
   0.66666669  0.33333334  0.70357751
   0.33333334  0.66666669  0.29642246
   0.33333334  0.66666669  0.03691086
   0.00000000  0.00000000  0.20613045
   0.00000000  0.00000000  0.79386955
   0.66666669  0.33333334  0.53946376
   0.66666669  0.33333334  0.12720288
   0.33333334  0.66666669  0.87279713
   0.33333334  0.66666669  0.46053621
   0.00000000  0.00000000  0.71682256
  -0.00000000 -0.00000000  0.28317744
   0.66666669  0.33333334  0.05015590
   0.66666669  0.33333334  0.61651075
   0.33333334  0.66666669  0.38348922
   0.33333334  0.66666669  0.94984412
   0.00000000 -0.00000000  0.50000000
   0.66666669  0.33333334  0.83333331
   0.33333334  0.66666669  0.16666667
Al4C3 R-3m - r2SCAN H(P) scan @ 50 GPa (
           1
     3.119753    0.000000    0.000000
    -1.559877    2.701785    0.000000
     0.000000    0.000000   23.323287
   Al   C 
    12     9
Direct configuration=     3
   0.00000000  0.00000000  0.62959067
   0.00000000  0.00000000  0.37040933
   0.66666669  0.33333334  0.96292398
   0.66666669  0.33333334  0.70374265
   0.33333334  0.66666669  0.29625732
   0.33333334  0.66666669  0.03707600
   0.00000000  0.00000000  0.20609898
   0.00000000  0.00000000  0.79390102
   0.66666669  0.33333334  0.53943229
   0.66666669  0.33333334  0.12723435
   0.33333334  0.66666669  0.87276566
   0.33333334  0.66666669  0.46056768
   0.00000000  0.00000000  0.71673282
  -0.00000000 -0.00000000  0.28326718
   0.66666669  0.33333334  0.05006615
   0.66666669  0.33333334  0.61660049
   0.33333334  0.66666669  0.38339948
   0.33333334  0.66666669  0.94993387
   0.00000000 -0.00000000  0.50000000
   0.66666669  0.33333334  0.83333331
   0.33333334  0.66666669  0.16666667
Al4C3 R-3m - r2SCAN H(P) scan @ 50 GPa (
           1
     3.119816    0.000000    0.000000
    -1.559908    2.701840    0.000000
     0.000000    0.000000   23.323753
   Al   C 
    12     9
Direct configuration=     4
   0.00000000  0.00000000  0.62971098
  -0.00000000 -0.00000000  0.37028902
   0.66666669  0.33333334  0.96304429
   0.66666669  0.33333334  0.70362234
   0.33333334  0.66666669  0.29637763
   0.33333334  0.66666669  0.03695569
  -0.00000000 -0.00000000  0.20602609
  -0.00000000 -0.00000000  0.79397391
   0.66666669  0.33333334  0.53935940
   0.66666669  0.33333334  0.12730724
   0.33333334  0.66666669  0.87269278
   0.33333334  0.66666669  0.46064057
   0.00000000 -0.00000000  0.71672612
  -0.00000000  0.00000000  0.28327388
   0.66666669  0.33333334  0.05005945
   0.66666669  0.33333334  0.61660720
   0.33333334  0.66666669  0.38339277
   0.33333334  0.66666669  0.94994057
   0.00000000  0.00000000  0.50000000
   0.66666669  0.33333334  0.83333331
   0.33333334  0.66666669  0.16666667
Al4C3 R-3m - r2SCAN H(P) scan @ 50 GPa (
           1
     3.119795    0.000000    0.000000
    -1.559898    2.701822    0.000000
     0.000000    0.000000   23.323602
   Al   C 
    12     9
Direct configuration=     5
   0.00000000  0.00000000  0.62967191
  -0.00000000  0.00000000  0.37032809
   0.66666669  0.33333334  0.96300522
   0.66666669  0.33333334  0.70366141
   0.33333334  0.66666669  0.29633856
   0.33333334  0.66666669  0.03699476
  -0.00000000 -0.00000000  0.20604976
  -0.00000000 -0.00000000  0.79395024
   0.66666669  0.33333334  0.53938307
   0.66666669  0.33333334  0.12728357
   0.33333334  0.66666669  0.87271645
   0.33333334  0.66666669  0.46061690
   0.00000000  0.00000000  0.71672829
  -0.00000000 -0.00000000  0.28327171
   0.66666669  0.33333334  0.05006162
   0.66666669  0.33333334  0.61660502
   0.33333334  0.66666669  0.38339495
   0.33333334  0.66666669  0.94993839
   0.00000000  0.00000000  0.50000000
   0.66666669  0.33333334  0.83333331
   0.33333334  0.66666669  0.16666667
Al4C3 R-3m - r2SCAN H(P) scan @ 50 GPa (
           1
     3.120177    0.000000    0.000000
    -1.560088    2.702153    0.000000
     0.000000    0.000000   23.326456
   Al   C 
    12     9
Direct configuration=     6
   0.00000000  0.00000000  0.62973721
  -0.00000000 -0.00000000  0.37026279
   0.66666669  0.33333334  0.96307052
   0.66666669  0.33333334  0.70359611
   0.33333334  0.66666669  0.29640386
   0.33333334  0.66666669  0.03692946
  -0.00000000 -0.00000000  0.20607585
  -0.00000000 -0.00000000  0.79392415
   0.66666669  0.33333334  0.53940916
   0.66666669  0.33333334  0.12725748
   0.33333334  0.66666669  0.87274253
   0.33333334  0.66666669  0.46059081
   0.00000000  0.00000000  0.71676977
  -0.00000000  0.00000000  0.28323023
   0.66666669  0.33333334  0.05010310
   0.66666669  0.33333334  0.61656355
   0.33333334  0.66666669  0.38343642
   0.33333334  0.66666669  0.94989692
   0.00000000  0.00000000  0.50000000
   0.66666669  0.33333334  0.83333331
   0.33333334  0.66666669  0.16666667
Al4C3 R-3m - r2SCAN H(P) scan @ 50 GPa (
           1
     3.119992    0.000000    0.000000
    -1.559996    2.701992    0.000000
     0.000000    0.000000   23.325070
   Al   C 
    12     9
Direct configuration=     7
   0.00000000  0.00000000  0.62970551
  -0.00000000 -0.00000000  0.37029449
   0.66666669  0.33333334  0.96303882
   0.66666669  0.33333334  0.70362781
   0.33333334  0.66666669  0.29637216
   0.33333334  0.66666669  0.03696116
  -0.00000000 -0.00000000  0.20606318
  -0.00000000 -0.00000000  0.79393682
   0.66666669  0.33333334  0.53939650
   0.66666669  0.33333334  0.12727014
   0.33333334  0.66666669  0.87272987
   0.33333334  0.66666669  0.46060347
   0.00000000  0.00000000  0.71674963
  -0.00000000  0.00000000  0.28325037
   0.66666669  0.33333334  0.05008296
   0.66666669  0.33333334  0.61658368
   0.33333334  0.66666669  0.38341629
   0.33333334  0.66666669  0.94991705
   0.00000000  0.00000000  0.50000000
   0.66666669  0.33333334  0.83333331
   0.33333334  0.66666669  0.16666667
