Al4C3 Fd-3m polymorph (findsym-output) -
   1.00000000000000     
     7.8027104670147276    0.0000000000000000    0.0000000000000000
     0.0000000000000000    7.8027104670147276    0.0000000000000000
     0.0000000000000000    0.0000000000000000    7.8027104670147276
   Al   C 
    32    24
Direct
  0.7599341542302844  0.7599341542302844  0.7599341542302844
  0.2400658457697155  0.2400658457697155  0.2400658457697155
  0.9900658457697156  0.4900658457697155  0.2599341542302845
  0.0099341542302845  0.5099341542302844  0.7400658457697156
  0.4900658457697155  0.2599341542302845  0.9900658457697156
  0.5099341542302844  0.7400658457697156  0.0099341542302845
  0.2599341542302845  0.9900658457697156  0.4900658457697155
  0.7400658457697156  0.0099341542302845  0.5099341542302844
  0.5099341542302844  0.0099341542302845  0.7400658457697156
  0.4900658457697155  0.9900658457697156  0.2599341542302845
  0.0099341542302845  0.7400658457697156  0.5099341542302844
  0.9900658457697156  0.2599341542302845  0.4900658457697155
  0.7400658457697156  0.5099341542302844  0.0099341542302845
  0.2599341542302845  0.4900658457697155  0.9900658457697156
  0.7599341542302844  0.2599341542302845  0.2599341542302845
  0.2400658457697155  0.7400658457697156  0.7400658457697156
  0.9900658457697156  0.9900658457697156  0.7599341542302844
  0.0099341542302845  0.0099341542302845  0.2400658457697155
  0.4900658457697155  0.7599341542302844  0.4900658457697155
  0.5099341542302844  0.2400658457697155  0.5099341542302844
  0.5099341542302844  0.5099341542302844  0.2400658457697155
  0.4900658457697155  0.4900658457697155  0.7599341542302844
  0.0099341542302845  0.2400658457697155  0.0099341542302845
  0.9900658457697156  0.7599341542302844  0.9900658457697156
  0.2599341542302845  0.7599341542302844  0.2599341542302845
  0.7400658457697156  0.2400658457697155  0.7400658457697156
  0.7599341542302844  0.9900658457697156  0.9900658457697156
  0.2400658457697155  0.0099341542302845  0.0099341542302845
  0.2400658457697155  0.5099341542302844  0.5099341542302844
  0.7599341542302844  0.4900658457697155  0.4900658457697155
  0.2599341542302845  0.2599341542302845  0.7599341542302844
  0.7400658457697156  0.7400658457697156  0.2400658457697155
 -0.0000000000000000 -0.0000000000000000  0.0000000000000000
  0.7500000000000000  0.2500000000000000  0.5000000000000000
  0.2500000000000000  0.7500000000000000  0.5000000000000000
  0.2500000000000000  0.5000000000000000  0.7500000000000000
  0.7500000000000000  0.5000000000000000  0.2500000000000000
  0.5000000000000000  0.7500000000000000  0.2500000000000000
  0.5000000000000000  0.2500000000000000  0.7500000000000000
 -0.0000000000000000  0.5000000000000000  0.5000000000000000
  0.7500000000000000  0.7500000000000000  0.0000000000000000
  0.2500000000000000  0.2500000000000000  0.0000000000000000
  0.2500000000000000 -0.0000000000000000  0.2500000000000000
  0.7500000000000000 -0.0000000000000000  0.7500000000000000
  0.5000000000000000 -0.0000000000000000  0.5000000000000000
 -0.0000000000000000  0.7500000000000000  0.7500000000000000
 -0.0000000000000000  0.2500000000000000  0.2500000000000000
  0.5000000000000000  0.5000000000000000  0.0000000000000000
  0.3750000000000000  0.3750000000000000  0.3750000000000000
  0.6250000000000000  0.6250000000000000  0.6250000000000000
  0.3750000000000000  0.8750000000000000  0.8750000000000000
  0.6250000000000000  0.1250000000000000  0.1250000000000000
  0.8750000000000000  0.8750000000000000  0.3750000000000000
  0.1250000000000000  0.1250000000000000  0.6250000000000000
  0.8750000000000000  0.3750000000000000  0.8750000000000000
  0.1250000000000000  0.6250000000000000  0.1250000000000000
 
  0.00000000E+00  0.00000000E+00  0.00000000E+00
  0.00000000E+00  0.00000000E+00  0.00000000E+00
  0.00000000E+00  0.00000000E+00  0.00000000E+00
  0.00000000E+00  0.00000000E+00  0.00000000E+00
  0.00000000E+00  0.00000000E+00  0.00000000E+00
  0.00000000E+00  0.00000000E+00  0.00000000E+00
  0.00000000E+00  0.00000000E+00  0.00000000E+00
  0.00000000E+00  0.00000000E+00  0.00000000E+00
  0.00000000E+00  0.00000000E+00  0.00000000E+00
  0.00000000E+00  0.00000000E+00  0.00000000E+00
  0.00000000E+00  0.00000000E+00  0.00000000E+00
  0.00000000E+00  0.00000000E+00  0.00000000E+00
  0.00000000E+00  0.00000000E+00  0.00000000E+00
  0.00000000E+00  0.00000000E+00  0.00000000E+00
  0.00000000E+00  0.00000000E+00  0.00000000E+00
  0.00000000E+00  0.00000000E+00  0.00000000E+00
  0.00000000E+00  0.00000000E+00  0.00000000E+00
  0.00000000E+00  0.00000000E+00  0.00000000E+00
  0.00000000E+00  0.00000000E+00  0.00000000E+00
  0.00000000E+00  0.00000000E+00  0.00000000E+00
  0.00000000E+00  0.00000000E+00  0.00000000E+00
  0.00000000E+00  0.00000000E+00  0.00000000E+00
  0.00000000E+00  0.00000000E+00  0.00000000E+00
  0.00000000E+00  0.00000000E+00  0.00000000E+00
  0.00000000E+00  0.00000000E+00  0.00000000E+00
  0.00000000E+00  0.00000000E+00  0.00000000E+00
  0.00000000E+00  0.00000000E+00  0.00000000E+00
  0.00000000E+00  0.00000000E+00  0.00000000E+00
  0.00000000E+00  0.00000000E+00  0.00000000E+00
  0.00000000E+00  0.00000000E+00  0.00000000E+00
  0.00000000E+00  0.00000000E+00  0.00000000E+00
  0.00000000E+00  0.00000000E+00  0.00000000E+00
  0.00000000E+00  0.00000000E+00  0.00000000E+00
  0.00000000E+00  0.00000000E+00  0.00000000E+00
  0.00000000E+00  0.00000000E+00  0.00000000E+00
  0.00000000E+00  0.00000000E+00  0.00000000E+00
  0.00000000E+00  0.00000000E+00  0.00000000E+00
  0.00000000E+00  0.00000000E+00  0.00000000E+00
  0.00000000E+00  0.00000000E+00  0.00000000E+00
  0.00000000E+00  0.00000000E+00  0.00000000E+00
  0.00000000E+00  0.00000000E+00  0.00000000E+00
  0.00000000E+00  0.00000000E+00  0.00000000E+00
  0.00000000E+00  0.00000000E+00  0.00000000E+00
  0.00000000E+00  0.00000000E+00  0.00000000E+00
  0.00000000E+00  0.00000000E+00  0.00000000E+00
  0.00000000E+00  0.00000000E+00  0.00000000E+00
  0.00000000E+00  0.00000000E+00  0.00000000E+00
  0.00000000E+00  0.00000000E+00  0.00000000E+00
  0.00000000E+00  0.00000000E+00  0.00000000E+00
  0.00000000E+00  0.00000000E+00  0.00000000E+00
  0.00000000E+00  0.00000000E+00  0.00000000E+00
  0.00000000E+00  0.00000000E+00  0.00000000E+00
  0.00000000E+00  0.00000000E+00  0.00000000E+00
  0.00000000E+00  0.00000000E+00  0.00000000E+00
  0.00000000E+00  0.00000000E+00  0.00000000E+00
  0.00000000E+00  0.00000000E+00  0.00000000E+00
