Al4C3 Fd-3m - r2SCAN H(P) scan @ 90 GPa 
           1
     7.802710    0.000000    0.000000
     0.000000    7.802710    0.000000
     0.000000    0.000000    7.802710
   Al   C 
    32    24
Direct configuration=     1
   0.75993415  0.75993415  0.75993415
   0.24006585  0.24006585  0.24006585
   0.99006585  0.49006585  0.25993415
   0.00993415  0.50993415  0.74006585
   0.49006585  0.25993415  0.99006585
   0.50993415  0.74006585  0.00993415
   0.25993415  0.99006585  0.49006585
   0.74006585  0.00993415  0.50993415
   0.50993415  0.00993415  0.74006585
   0.49006585  0.99006585  0.25993415
   0.00993415  0.74006585  0.50993415
   0.99006585  0.25993415  0.49006585
   0.74006585  0.50993415  0.00993415
   0.25993415  0.49006585  0.99006585
   0.75993415  0.25993415  0.25993415
   0.24006585  0.74006585  0.74006585
   0.99006585  0.99006585  0.75993415
   0.00993415  0.00993415  0.24006585
   0.49006585  0.75993415  0.49006585
   0.50993415  0.24006585  0.50993415
   0.50993415  0.50993415  0.24006585
   0.49006585  0.49006585  0.75993415
   0.00993415  0.24006585  0.00993415
   0.99006585  0.75993415  0.99006585
   0.25993415  0.75993415  0.25993415
   0.74006585  0.24006585  0.74006585
   0.75993415  0.99006585  0.99006585
   0.24006585  0.00993415  0.00993415
   0.24006585  0.50993415  0.50993415
   0.75993415  0.49006585  0.49006585
   0.25993415  0.25993415  0.75993415
   0.74006585  0.74006585  0.24006585
   0.00000000  0.00000000  0.00000000
   0.75000000  0.25000000  0.50000000
   0.25000000  0.75000000  0.50000000
   0.25000000  0.50000000  0.75000000
   0.75000000  0.50000000  0.25000000
   0.50000000  0.75000000  0.25000000
   0.50000000  0.25000000  0.75000000
   0.00000000  0.50000000  0.50000000
   0.75000000  0.75000000  0.00000000
   0.25000000  0.25000000  0.00000000
   0.25000000  0.00000000  0.25000000
   0.75000000  0.00000000  0.75000000
   0.50000000  0.00000000  0.50000000
   0.00000000  0.75000000  0.75000000
   0.00000000  0.25000000  0.25000000
   0.50000000  0.50000000  0.00000000
   0.37500000  0.37500000  0.37500000
   0.62500000  0.62500000  0.62500000
   0.37500000  0.87500000  0.87500000
   0.62500000  0.12500000  0.12500000
   0.87500000  0.87500000  0.37500000
   0.12500000  0.12500000  0.62500000
   0.87500000  0.37500000  0.87500000
   0.12500000  0.62500000  0.12500000
Al4C3 Fd-3m - r2SCAN H(P) scan @ 90 GPa 
           1
     7.603536    0.000000    0.000000
     0.000000    7.603536    0.000000
     0.000000    0.000000    7.603536
   Al   C 
    32    24
Direct configuration=     2
   0.75993444  0.75993444  0.75993444
   0.24006556  0.24006556  0.24006556
   0.99006556  0.49006556  0.25993444
   0.00993444  0.50993444  0.74006556
   0.49006556  0.25993444  0.99006556
   0.50993444  0.74006556  0.00993444
   0.25993444  0.99006556  0.49006556
   0.74006556  0.00993444  0.50993444
   0.50993444  0.00993444  0.74006556
   0.49006556  0.99006556  0.25993444
   0.00993444  0.74006556  0.50993444
   0.99006556  0.25993444  0.49006556
   0.74006556  0.50993444  0.00993444
   0.25993444  0.49006556  0.99006556
   0.75993444  0.25993444  0.25993444
   0.24006556  0.74006556  0.74006556
   0.99006556  0.99006556  0.75993444
   0.00993444  0.00993444  0.24006556
   0.49006556  0.75993444  0.49006556
   0.50993444  0.24006556  0.50993444
   0.50993444  0.50993444  0.24006556
   0.49006556  0.49006556  0.75993444
   0.00993444  0.24006556  0.00993444
   0.99006556  0.75993444  0.99006556
   0.25993444  0.75993444  0.25993444
   0.74006556  0.24006556  0.74006556
   0.75993444  0.99006556  0.99006556
   0.24006556  0.00993444  0.00993444
   0.24006556  0.50993444  0.50993444
   0.75993444  0.49006556  0.49006556
   0.25993444  0.25993444  0.75993444
   0.74006556  0.74006556  0.24006556
  -0.00000000 -0.00000000  0.00000000
   0.75000000  0.25000000  0.50000000
   0.25000000  0.75000000  0.50000000
   0.25000000  0.50000000  0.75000000
   0.75000000  0.50000000  0.25000000
   0.50000000  0.75000000  0.25000000
   0.50000000  0.25000000  0.75000000
  -0.00000000  0.50000000  0.50000000
   0.75000000  0.75000000  0.00000000
   0.25000000  0.25000000  0.00000000
   0.25000000 -0.00000000  0.25000000
   0.75000000 -0.00000000  0.75000000
   0.50000000 -0.00000000  0.50000000
  -0.00000000  0.75000000  0.75000000
  -0.00000000  0.25000000  0.25000000
   0.50000000  0.50000000  0.00000000
   0.37500000  0.37500000  0.37500000
   0.62500000  0.62500000  0.62500000
   0.37500000  0.87500000  0.87500000
   0.62500000  0.12500000  0.12500000
   0.87500000  0.87500000  0.37500000
   0.12500000  0.12500000  0.62500000
   0.87500000  0.37500000  0.87500000
   0.12500000  0.62500000  0.12500000
Al4C3 Fd-3m - r2SCAN H(P) scan @ 90 GPa 
           1
     7.747291    0.000000    0.000000
     0.000000    7.747291    0.000000
     0.000000    0.000000    7.747291
   Al   C 
    32    24
Direct configuration=     3
   0.75993423  0.75993423  0.75993423
   0.24006577  0.24006577  0.24006577
   0.99006577  0.49006577  0.25993423
   0.00993423  0.50993423  0.74006577
   0.49006577  0.25993423  0.99006577
   0.50993423  0.74006577  0.00993423
   0.25993423  0.99006577  0.49006577
   0.74006577  0.00993423  0.50993423
   0.50993423  0.00993423  0.74006577
   0.49006577  0.99006577  0.25993423
   0.00993423  0.74006577  0.50993423
   0.99006577  0.25993423  0.49006577
   0.74006577  0.50993423  0.00993423
   0.25993423  0.49006577  0.99006577
   0.75993423  0.25993423  0.25993423
   0.24006577  0.74006577  0.74006577
   0.99006577  0.99006577  0.75993423
   0.00993423  0.00993423  0.24006577
   0.49006577  0.75993423  0.49006577
   0.50993423  0.24006577  0.50993423
   0.50993423  0.50993423  0.24006577
   0.49006577  0.49006577  0.75993423
   0.00993423  0.24006577  0.00993423
   0.99006577  0.75993423  0.99006577
   0.25993423  0.75993423  0.25993423
   0.74006577  0.24006577  0.74006577
   0.75993423  0.99006577  0.99006577
   0.24006577  0.00993423  0.00993423
   0.24006577  0.50993423  0.50993423
   0.75993423  0.49006577  0.49006577
   0.25993423  0.25993423  0.75993423
   0.74006577  0.74006577  0.24006577
  -0.00000000 -0.00000000  0.00000000
   0.75000000  0.25000000  0.50000000
   0.25000000  0.75000000  0.50000000
   0.25000000  0.50000000  0.75000000
   0.75000000  0.50000000  0.25000000
   0.50000000  0.75000000  0.25000000
   0.50000000  0.25000000  0.75000000
  -0.00000000  0.50000000  0.50000000
   0.75000000  0.75000000  0.00000000
   0.25000000  0.25000000  0.00000000
   0.25000000 -0.00000000  0.25000000
   0.75000000 -0.00000000  0.75000000
   0.50000000 -0.00000000  0.50000000
  -0.00000000  0.75000000  0.75000000
  -0.00000000  0.25000000  0.25000000
   0.50000000  0.50000000  0.00000000
   0.37500000  0.37500000  0.37500000
   0.62500000  0.62500000  0.62500000
   0.37500000  0.87500000  0.87500000
   0.62500000  0.12500000  0.12500000
   0.87500000  0.87500000  0.37500000
   0.12500000  0.12500000  0.62500000
   0.87500000  0.37500000  0.87500000
   0.12500000  0.62500000  0.12500000
Al4C3 Fd-3m - r2SCAN H(P) scan @ 90 GPa 
           1
     7.746720    0.000000    0.000000
     0.000000    7.746720    0.000000
     0.000000    0.000000    7.746720
   Al   C 
    32    24
Direct configuration=     4
   0.75993423  0.75993423  0.75993423
   0.24006577  0.24006577  0.24006577
   0.99006577  0.49006577  0.25993423
   0.00993423  0.50993423  0.74006577
   0.49006577  0.25993423  0.99006577
   0.50993423  0.74006577  0.00993423
   0.25993423  0.99006577  0.49006577
   0.74006577  0.00993423  0.50993423
   0.50993423  0.00993423  0.74006577
   0.49006577  0.99006577  0.25993423
   0.00993423  0.74006577  0.50993423
   0.99006577  0.25993423  0.49006577
   0.74006577  0.50993423  0.00993423
   0.25993423  0.49006577  0.99006577
   0.75993423  0.25993423  0.25993423
   0.24006577  0.74006577  0.74006577
   0.99006577  0.99006577  0.75993423
   0.00993423  0.00993423  0.24006577
   0.49006577  0.75993423  0.49006577
   0.50993423  0.24006577  0.50993423
   0.50993423  0.50993423  0.24006577
   0.49006577  0.49006577  0.75993423
   0.00993423  0.24006577  0.00993423
   0.99006577  0.75993423  0.99006577
   0.25993423  0.75993423  0.25993423
   0.74006577  0.24006577  0.74006577
   0.75993423  0.99006577  0.99006577
   0.24006577  0.00993423  0.00993423
   0.24006577  0.50993423  0.50993423
   0.75993423  0.49006577  0.49006577
   0.25993423  0.25993423  0.75993423
   0.74006577  0.74006577  0.24006577
  -0.00000000 -0.00000000  0.00000000
   0.75000000  0.25000000  0.50000000
   0.25000000  0.75000000  0.50000000
   0.25000000  0.50000000  0.75000000
   0.75000000  0.50000000  0.25000000
   0.50000000  0.75000000  0.25000000
   0.50000000  0.25000000  0.75000000
  -0.00000000  0.50000000  0.50000000
   0.75000000  0.75000000  0.00000000
   0.25000000  0.25000000  0.00000000
   0.25000000 -0.00000000  0.25000000
   0.75000000 -0.00000000  0.75000000
   0.50000000 -0.00000000  0.50000000
  -0.00000000  0.75000000  0.75000000
  -0.00000000  0.25000000  0.25000000
   0.50000000  0.50000000  0.00000000
   0.37500000  0.37500000  0.37500000
   0.62500000  0.62500000  0.62500000
   0.37500000  0.87500000  0.87500000
   0.62500000  0.12500000  0.12500000
   0.87500000  0.87500000  0.37500000
   0.12500000  0.12500000  0.62500000
   0.87500000  0.37500000  0.87500000
   0.12500000  0.62500000  0.12500000
Al4C3 Fd-3m - r2SCAN H(P) scan @ 90 GPa 
           1
     7.745482    0.000000    0.000000
     0.000000    7.745482    0.000000
     0.000000    0.000000    7.745482
   Al   C 
    32    24
Direct configuration=     5
   0.75961521  0.75961521  0.75961521
   0.24038479  0.24038479  0.24038479
   0.99038479  0.49038479  0.25961521
   0.00961521  0.50961521  0.74038479
   0.49038479  0.25961521  0.99038479
   0.50961521  0.74038479  0.00961521
   0.25961521  0.99038479  0.49038479
   0.74038479  0.00961521  0.50961521
   0.50961521  0.00961521  0.74038479
   0.49038479  0.99038479  0.25961521
   0.00961521  0.74038479  0.50961521
   0.99038479  0.25961521  0.49038479
   0.74038479  0.50961521  0.00961521
   0.25961521  0.49038479  0.99038479
   0.75961521  0.25961521  0.25961521
   0.24038479  0.74038479  0.74038479
   0.99038479  0.99038479  0.75961521
   0.00961521  0.00961521  0.24038479
   0.49038479  0.75961521  0.49038479
   0.50961521  0.24038479  0.50961521
   0.50961521  0.50961521  0.24038479
   0.49038479  0.49038479  0.75961521
   0.00961521  0.24038479  0.00961521
   0.99038479  0.75961521  0.99038479
   0.25961521  0.75961521  0.25961521
   0.74038479  0.24038479  0.74038479
   0.75961521  0.99038479  0.99038479
   0.24038479  0.00961521  0.00961521
   0.24038479  0.50961521  0.50961521
   0.75961521  0.49038479  0.49038479
   0.25961521  0.25961521  0.75961521
   0.74038479  0.74038479  0.24038479
   0.00000000 -0.00000000  0.00000000
   0.75000000  0.25000000  0.50000000
   0.25000000  0.75000000  0.50000000
   0.25000000  0.50000000  0.75000000
   0.75000000  0.50000000  0.25000000
   0.50000000  0.75000000  0.25000000
   0.50000000  0.25000000  0.75000000
   0.00000000  0.50000000  0.50000000
   0.75000000  0.75000000  0.00000000
   0.25000000  0.25000000  0.00000000
   0.25000000 -0.00000000  0.25000000
   0.75000000 -0.00000000  0.75000000
   0.50000000 -0.00000000  0.50000000
   0.00000000  0.75000000  0.75000000
   0.00000000  0.25000000  0.25000000
   0.50000000  0.50000000  0.00000000
   0.37500000  0.37500000  0.37500000
   0.62500000  0.62500000  0.62500000
   0.37500000  0.87500000  0.87500000
   0.62500000  0.12500000  0.12500000
   0.87500000  0.87500000  0.37500000
   0.12500000  0.12500000  0.62500000
   0.87500000  0.37500000  0.87500000
   0.12500000  0.62500000  0.12500000
Al4C3 Fd-3m - r2SCAN H(P) scan @ 90 GPa 
           1
     7.746249    0.000000    0.000000
     0.000000    7.746249    0.000000
     0.000000    0.000000    7.746249
   Al   C 
    32    24
Direct configuration=     6
   0.75981296  0.75981296  0.75981296
   0.24018704  0.24018704  0.24018704
   0.99018704  0.49018704  0.25981296
   0.00981296  0.50981296  0.74018704
   0.49018704  0.25981296  0.99018704
   0.50981296  0.74018704  0.00981296
   0.25981296  0.99018704  0.49018704
   0.74018704  0.00981296  0.50981296
   0.50981296  0.00981296  0.74018704
   0.49018704  0.99018704  0.25981296
   0.00981296  0.74018704  0.50981296
   0.99018704  0.25981296  0.49018704
   0.74018704  0.50981296  0.00981296
   0.25981296  0.49018704  0.99018704
   0.75981296  0.25981296  0.25981296
   0.24018704  0.74018704  0.74018704
   0.99018704  0.99018704  0.75981296
   0.00981296  0.00981296  0.24018704
   0.49018704  0.75981296  0.49018704
   0.50981296  0.24018704  0.50981296
   0.50981296  0.50981296  0.24018704
   0.49018704  0.49018704  0.75981296
   0.00981296  0.24018704  0.00981296
   0.99018704  0.75981296  0.99018704
   0.25981296  0.75981296  0.25981296
   0.74018704  0.24018704  0.74018704
   0.75981296  0.99018704  0.99018704
   0.24018704  0.00981296  0.00981296
   0.24018704  0.50981296  0.50981296
   0.75981296  0.49018704  0.49018704
   0.25981296  0.25981296  0.75981296
   0.74018704  0.74018704  0.24018704
   0.00000000 -0.00000000  0.00000000
   0.75000000  0.25000000  0.50000000
   0.25000000  0.75000000  0.50000000
   0.25000000  0.50000000  0.75000000
   0.75000000  0.50000000  0.25000000
   0.50000000  0.75000000  0.25000000
   0.50000000  0.25000000  0.75000000
   0.00000000  0.50000000  0.50000000
   0.75000000  0.75000000  0.00000000
   0.25000000  0.25000000  0.00000000
   0.25000000 -0.00000000  0.25000000
   0.75000000 -0.00000000  0.75000000
   0.50000000 -0.00000000  0.50000000
   0.00000000  0.75000000  0.75000000
   0.00000000  0.25000000  0.25000000
   0.50000000  0.50000000  0.00000000
   0.37500000  0.37500000  0.37500000
   0.62500000  0.62500000  0.62500000
   0.37500000  0.87500000  0.87500000
   0.62500000  0.12500000  0.12500000
   0.87500000  0.87500000  0.37500000
   0.12500000  0.12500000  0.62500000
   0.87500000  0.37500000  0.87500000
   0.12500000  0.62500000  0.12500000
