  56  56   0   0
  0.9750158E+01  0.8173346E-09  0.8173346E-09  0.8173346E-09  0.5000000E-15
  1.000000000000000E-004
  CAR 
 Al4C3 Fd-3m - r2SCAN H(P) scan @ 40 GPa 
     17.80460719     -7.59824315  301      9.85033968      1.00000000
     -7.598  0.0000E+00  0.0000E+00
     -7.514  0.0000E+00  0.0000E+00
     -7.429  0.0000E+00  0.0000E+00
     -7.344  0.0000E+00  0.0000E+00
     -7.260  0.0000E+00  0.0000E+00
     -7.175  0.0000E+00  0.0000E+00
     -7.090  0.0000E+00  0.0000E+00
     -7.006  0.0000E+00  0.0000E+00
     -6.921  0.0000E+00  0.0000E+00
     -6.836  0.0000E+00  0.0000E+00
     -6.751  0.0000E+00  0.0000E+00
     -6.667  0.2507E-12  0.2123E-13
     -6.582  0.8200E-07  0.6944E-08
     -6.497  0.1176E-03  0.9961E-05
     -6.413  0.1495E-02  0.1365E-03
     -6.328  0.6250E-02  0.6657E-03
     -6.243  0.1107E-01  0.1603E-02
     -6.159  0.1701E-01  0.3044E-02
     -6.074  0.1239E-01  0.4093E-02
     -5.989  0.8917E-02  0.4848E-02
     -5.905  0.2444E-01  0.6918E-02
     -5.820  0.3982E-01  0.1029E-01
     -5.735  0.2714E-01  0.1259E-01
     -5.651  0.4296E-02  0.1295E-01
     -5.566  0.3595E-01  0.1600E-01
     -5.481  0.3660E-01  0.1909E-01
     -5.397  0.3488E-01  0.2205E-01
     -5.312  0.6455E-01  0.2751E-01
     -5.227  0.4628E-01  0.3143E-01
     -5.143  0.3625E-01  0.3450E-01
     -5.058  0.4073E-02  0.3485E-01
     -4.973  0.6406E-02  0.3539E-01
     -4.889  0.1506E-01  0.3666E-01
     -4.804  0.1305E-01  0.3777E-01
     -4.719  0.5364E-01  0.4231E-01
     -4.635  0.1217E-01  0.4334E-01
     -4.550  0.1529E-01  0.4464E-01
     -4.465  0.1019E-01  0.4550E-01
     -4.381  0.3352E-01  0.4834E-01
     -4.296  0.5315E-01  0.5284E-01
     -4.211  0.7530E-01  0.5922E-01
     -4.127  0.3172E-01  0.6190E-01
     -4.042  0.3482E-01  0.6485E-01
     -3.957  0.9001E-02  0.6561E-01
     -3.872  0.2135E-01  0.6742E-01
     -3.788  0.3748E-01  0.7059E-01
     -3.703  0.5898E-02  0.7109E-01
     -3.618  0.1727E-04  0.7109E-01
     -3.534  0.5096E-02  0.7153E-01
     -3.449  0.3719E-01  0.7467E-01
     -3.364  0.5551E-01  0.7937E-01
     -3.280  0.3539E-01  0.8237E-01
     -3.195  0.4913E-01  0.8653E-01
     -3.110  0.7842E-01  0.9317E-01
     -3.026  0.5809E-01  0.9809E-01
     -2.941  0.4724E-01  0.1021E+00
     -2.856  0.4919E-01  0.1063E+00
     -2.772  0.7338E-01  0.1125E+00
     -2.687  0.7948E-01  0.1192E+00
     -2.602  0.7121E-01  0.1252E+00
     -2.518  0.1063E+00  0.1342E+00
     -2.433  0.8197E-01  0.1412E+00
     -2.348  0.1487E+00  0.1538E+00
     -2.264  0.8383E-01  0.1609E+00
     -2.179  0.5062E-01  0.1651E+00
     -2.094  0.6653E-01  0.1708E+00
     -2.010  0.3457E-01  0.1737E+00
     -1.925  0.1563E+00  0.1869E+00
     -1.840  0.1737E+00  0.2016E+00
     -1.756  0.1059E+00  0.2106E+00
     -1.671  0.1350E+00  0.2221E+00
     -1.586  0.1462E+00  0.2344E+00
     -1.502  0.4171E-01  0.2380E+00
     -1.417  0.2336E-01  0.2399E+00
     -1.332  0.6984E-03  0.2400E+00
     -1.248  0.2871E-06  0.2400E+00
     -1.163  0.7833E-12  0.2400E+00
     -1.078  0.0000E+00  0.2400E+00
     -0.994  0.0000E+00  0.2400E+00
     -0.909  0.0000E+00  0.2400E+00
     -0.824  0.0000E+00  0.2400E+00
     -0.739  0.0000E+00  0.2400E+00
     -0.655  0.0000E+00  0.2400E+00
     -0.570  0.0000E+00  0.2400E+00
     -0.485  0.0000E+00  0.2400E+00
     -0.401  0.0000E+00  0.2400E+00
     -0.316  0.0000E+00  0.2400E+00
     -0.231  0.0000E+00  0.2400E+00
     -0.147  0.0000E+00  0.2400E+00
     -0.062  0.0000E+00  0.2400E+00
      0.023  0.0000E+00  0.2400E+00
      0.107  0.0000E+00  0.2400E+00
      0.192  0.0000E+00  0.2400E+00
      0.277  0.0000E+00  0.2400E+00
      0.361  0.4211E-15  0.2400E+00
      0.446  0.1182E-08  0.2400E+00
      0.531  0.1326E-04  0.2400E+00
      0.615  0.8706E-03  0.2401E+00
      0.700  0.9437E-03  0.2402E+00
      0.785  0.1769E-04  0.2402E+00
      0.869  0.7041E-04  0.2402E+00
      0.954  0.5041E-02  0.2406E+00
      1.039  0.7157E-02  0.2412E+00
      1.123  0.1648E-01  0.2426E+00
      1.208  0.6132E-02  0.2431E+00
      1.293  0.1136E-01  0.2441E+00
      1.377  0.1729E-02  0.2442E+00
      1.462  0.3584E-04  0.2442E+00
      1.547  0.9639E-02  0.2450E+00
      1.631  0.3909E-01  0.2483E+00
      1.716  0.5129E-01  0.2527E+00
      1.801  0.3371E-01  0.2555E+00
      1.885  0.3252E-01  0.2583E+00
      1.970  0.2889E-01  0.2607E+00
      2.055  0.7794E-01  0.2673E+00
      2.140  0.7592E-01  0.2738E+00
      2.224  0.9869E-01  0.2821E+00
      2.309  0.8171E-01  0.2890E+00
      2.394  0.9950E-01  0.2975E+00
      2.478  0.7076E-01  0.3035E+00
      2.563  0.3658E-01  0.3066E+00
      2.648  0.1332E+00  0.3178E+00
      2.732  0.1281E+00  0.3287E+00
      2.817  0.5664E-01  0.3335E+00
      2.902  0.1198E+00  0.3436E+00
      2.986  0.1267E+00  0.3544E+00
      3.071  0.1009E+00  0.3629E+00
      3.156  0.9409E-01  0.3709E+00
      3.240  0.8742E-01  0.3783E+00
      3.325  0.4603E-01  0.3822E+00
      3.410  0.3824E-01  0.3854E+00
      3.494  0.7237E-01  0.3915E+00
      3.579  0.9982E-01  0.4000E+00
      3.664  0.1144E+00  0.4097E+00
      3.748  0.6038E-01  0.4148E+00
      3.833  0.6219E-01  0.4201E+00
      3.918  0.6361E-01  0.4254E+00
      4.002  0.3500E-01  0.4284E+00
      4.087  0.8974E-01  0.4360E+00
      4.172  0.6020E-01  0.4411E+00
      4.256  0.7808E-01  0.4477E+00
      4.341  0.5651E-01  0.4525E+00
      4.426  0.7219E-01  0.4586E+00
      4.510  0.7925E-01  0.4653E+00
      4.595  0.2152E-01  0.4671E+00
      4.680  0.3925E-01  0.4705E+00
      4.764  0.1408E+00  0.4824E+00
      4.849  0.8733E-01  0.4898E+00
      4.934  0.4928E-01  0.4940E+00
      5.019  0.1105E+00  0.5033E+00
      5.103  0.4295E-01  0.5070E+00
      5.188  0.8416E-01  0.5141E+00
      5.273  0.8269E-01  0.5211E+00
      5.357  0.3042E-01  0.5237E+00
      5.442  0.3632E-01  0.5267E+00
      5.527  0.2526E-01  0.5289E+00
      5.611  0.3471E-01  0.5318E+00
      5.696  0.1109E+00  0.5412E+00
      5.781  0.1028E+00  0.5499E+00
      5.865  0.1194E+00  0.5600E+00
      5.950  0.1121E+00  0.5695E+00
      6.035  0.1675E+00  0.5837E+00
      6.119  0.1185E+00  0.5937E+00
      6.204  0.3334E-01  0.5966E+00
      6.289  0.8192E-01  0.6035E+00
      6.373  0.6525E-01  0.6090E+00
      6.458  0.1032E+00  0.6178E+00
      6.543  0.1172E+00  0.6277E+00
      6.627  0.6503E-01  0.6332E+00
      6.712  0.1336E+00  0.6445E+00
      6.797  0.1291E+00  0.6554E+00
      6.881  0.1522E+00  0.6683E+00
      6.966  0.1475E+00  0.6808E+00
      7.051  0.1433E+00  0.6929E+00
      7.135  0.1789E+00  0.7081E+00
      7.220  0.1949E+00  0.7246E+00
      7.305  0.1079E+00  0.7337E+00
      7.389  0.1523E+00  0.7466E+00
      7.474  0.2009E+00  0.7636E+00
      7.559  0.1796E+00  0.7788E+00
      7.643  0.1461E+00  0.7912E+00
      7.728  0.1730E+00  0.8059E+00
      7.813  0.2195E+00  0.8244E+00
      7.897  0.1842E+00  0.8400E+00
      7.982  0.2081E+00  0.8577E+00
      8.067  0.1053E+00  0.8666E+00
      8.152  0.1428E+00  0.8787E+00
      8.236  0.3441E-01  0.8816E+00
      8.321  0.3254E-01  0.8843E+00
      8.406  0.5645E-01  0.8891E+00
      8.490  0.6829E-01  0.8949E+00
      8.575  0.4626E-01  0.8988E+00
      8.660  0.1102E+00  0.9082E+00
      8.744  0.9559E-01  0.9162E+00
      8.829  0.7666E-01  0.9227E+00
      8.914  0.5227E-01  0.9272E+00
      8.998  0.8925E-01  0.9347E+00
      9.083  0.1059E+00  0.9437E+00
      9.168  0.6516E-01  0.9492E+00
      9.252  0.2486E-01  0.9513E+00
      9.337  0.1654E-01  0.9527E+00
      9.422  0.4088E-01  0.9562E+00
      9.506  0.2793E-01  0.9585E+00
      9.591  0.1235E-01  0.9596E+00
      9.676  0.4416E-02  0.9600E+00
      9.760  0.5053E-03  0.9600E+00
      9.845  0.5356E-06  0.9600E+00
      9.930  0.2552E-11  0.9600E+00
     10.014  0.0000E+00  0.9600E+00
     10.099  0.0000E+00  0.9600E+00
     10.184  0.0000E+00  0.9600E+00
     10.268  0.0000E+00  0.9600E+00
     10.353  0.0000E+00  0.9600E+00
     10.438  0.0000E+00  0.9600E+00
     10.522  0.0000E+00  0.9600E+00
     10.607  0.0000E+00  0.9600E+00
     10.692  0.0000E+00  0.9600E+00
     10.776  0.0000E+00  0.9600E+00
     10.861  0.0000E+00  0.9600E+00
     10.946  0.0000E+00  0.9600E+00
     11.031  0.7013E-13  0.9600E+00
     11.115  0.3599E-07  0.9600E+00
     11.200  0.7907E-04  0.9600E+00
     11.285  0.1306E-02  0.9601E+00
     11.369  0.4580E-03  0.9602E+00
     11.454  0.1964E-05  0.9602E+00
     11.539  0.4230E-10  0.9602E+00
     11.623  0.1083E-08  0.9602E+00
     11.708  0.2755E-04  0.9602E+00
     11.793  0.3733E-02  0.9605E+00
     11.877  0.7048E-02  0.9611E+00
     11.962  0.2631E-03  0.9611E+00
     12.047  0.6735E-07  0.9611E+00
     12.131  0.2579E-04  0.9611E+00
     12.216  0.5687E-02  0.9616E+00
     12.301  0.1652E-01  0.9630E+00
     12.385  0.9379E-02  0.9638E+00
     12.470  0.4500E-02  0.9642E+00
     12.555  0.1152E-01  0.9651E+00
     12.639  0.4848E-01  0.9692E+00
     12.724  0.4601E-01  0.9731E+00
     12.809  0.9527E-01  0.9812E+00
     12.893  0.9619E-01  0.9893E+00
     12.978  0.4766E-01  0.9934E+00
     13.063  0.4117E-01  0.9969E+00
     13.147  0.6874E-01  0.1003E+01
     13.232  0.1785E-01  0.1004E+01
     13.317  0.2657E-01  0.1006E+01
     13.401  0.1150E+00  0.1016E+01
     13.486  0.1148E+00  0.1026E+01
     13.571  0.4074E-01  0.1029E+01
     13.655  0.3186E-01  0.1032E+01
     13.740  0.1822E+00  0.1047E+01
     13.825  0.1066E+00  0.1057E+01
     13.910  0.3900E-01  0.1060E+01
     13.994  0.1357E+00  0.1071E+01
     14.079  0.1945E+00  0.1088E+01
     14.164  0.1473E+00  0.1100E+01
     14.248  0.3856E-01  0.1104E+01
     14.333  0.1962E-01  0.1105E+01
     14.418  0.2859E-01  0.1108E+01
     14.502  0.5725E-01  0.1112E+01
     14.587  0.5732E-01  0.1117E+01
     14.672  0.3137E-01  0.1120E+01
     14.756  0.7053E-01  0.1126E+01
     14.841  0.4875E-01  0.1130E+01
     14.926  0.9462E-01  0.1138E+01
     15.010  0.5352E-01  0.1143E+01
     15.095  0.6756E-01  0.1148E+01
     15.180  0.1402E+00  0.1160E+01
     15.264  0.5631E-01  0.1165E+01
     15.349  0.1241E+00  0.1175E+01
     15.434  0.1204E+00  0.1186E+01
     15.518  0.1782E+00  0.1201E+01
     15.603  0.1503E+00  0.1213E+01
     15.688  0.7937E-01  0.1220E+01
     15.772  0.8176E-01  0.1227E+01
     15.857  0.9749E-01  0.1235E+01
     15.942  0.9117E-01  0.1243E+01
     16.026  0.9852E-01  0.1251E+01
     16.111  0.2225E-01  0.1253E+01
     16.196  0.2488E-01  0.1255E+01
     16.280  0.2747E-01  0.1258E+01
     16.365  0.1012E-01  0.1259E+01
     16.450  0.1246E-01  0.1260E+01
     16.534  0.3085E-03  0.1260E+01
     16.619  0.7063E-03  0.1260E+01
     16.704  0.2747E-02  0.1260E+01
     16.788  0.2351E-03  0.1260E+01
     16.873  0.1640E-06  0.1260E+01
     16.958  0.5014E-12  0.1260E+01
     17.043  0.0000E+00  0.1260E+01
     17.127  0.0000E+00  0.1260E+01
     17.212  0.0000E+00  0.1260E+01
     17.297  0.0000E+00  0.1260E+01
     17.381  0.0000E+00  0.1260E+01
     17.466  0.0000E+00  0.1260E+01
     17.551  0.0000E+00  0.1260E+01
     17.635  0.0000E+00  0.1260E+01
     17.720  0.0000E+00  0.1260E+01
     17.805  0.0000E+00  0.1260E+01
