Al4C3 Fd-3m polymorph (findsym-output) -
   1.00000000000000     
     8.1733462127421834    0.0000000000000000    0.0000000000000000
     0.0000000000000000    8.1733462127421834    0.0000000000000000
     0.0000000000000000    0.0000000000000000    8.1733462127421834
   Al   C 
    32    24
Direct
  0.7607385560785405  0.7607385560785405  0.7607385560785405
  0.2392614439214595  0.2392614439214595  0.2392614439214595
  0.9892614439214595  0.4892614439214596  0.2607385560785404
  0.0107385560785405  0.5107385560785405  0.7392614439214595
  0.4892614439214596  0.2607385560785404  0.9892614439214595
  0.5107385560785405  0.7392614439214595  0.0107385560785405
  0.2607385560785404  0.9892614439214595  0.4892614439214596
  0.7392614439214595  0.0107385560785405  0.5107385560785405
  0.5107385560785405  0.0107385560785405  0.7392614439214595
  0.4892614439214596  0.9892614439214595  0.2607385560785404
  0.0107385560785405  0.7392614439214595  0.5107385560785405
  0.9892614439214595  0.2607385560785404  0.4892614439214596
  0.7392614439214595  0.5107385560785405  0.0107385560785405
  0.2607385560785404  0.4892614439214596  0.9892614439214595
  0.7607385560785405  0.2607385560785404  0.2607385560785404
  0.2392614439214595  0.7392614439214595  0.7392614439214595
  0.9892614439214595  0.9892614439214595  0.7607385560785405
  0.0107385560785405  0.0107385560785405  0.2392614439214595
  0.4892614439214596  0.7607385560785405  0.4892614439214596
  0.5107385560785405  0.2392614439214595  0.5107385560785405
  0.5107385560785405  0.5107385560785405  0.2392614439214595
  0.4892614439214596  0.4892614439214596  0.7607385560785405
  0.0107385560785405  0.2392614439214595  0.0107385560785405
  0.9892614439214595  0.7607385560785405  0.9892614439214595
  0.2607385560785404  0.7607385560785405  0.2607385560785404
  0.7392614439214595  0.2392614439214595  0.7392614439214595
  0.7607385560785405  0.9892614439214595  0.9892614439214595
  0.2392614439214595  0.0107385560785405  0.0107385560785405
  0.2392614439214595  0.5107385560785405  0.5107385560785405
  0.7607385560785405  0.4892614439214596  0.4892614439214596
  0.2607385560785404  0.2607385560785404  0.7607385560785405
  0.7392614439214595  0.7392614439214595  0.2392614439214595
  0.0000000000000000  0.0000000000000000 -0.0000000000000000
  0.7500000000000000  0.2500000000000000  0.5000000000000000
  0.2500000000000000  0.7500000000000000  0.5000000000000000
  0.2500000000000000  0.5000000000000000  0.7500000000000000
  0.7500000000000000  0.5000000000000000  0.2500000000000000
  0.5000000000000000  0.7500000000000000  0.2500000000000000
  0.5000000000000000  0.2500000000000000  0.7500000000000000
  0.0000000000000000  0.5000000000000000  0.5000000000000000
  0.7500000000000000  0.7500000000000000 -0.0000000000000000
  0.2500000000000000  0.2500000000000000 -0.0000000000000000
  0.2500000000000000  0.0000000000000000  0.2500000000000000
  0.7500000000000000  0.0000000000000000  0.7500000000000000
  0.5000000000000000  0.0000000000000000  0.5000000000000000
  0.0000000000000000  0.7500000000000000  0.7500000000000000
  0.0000000000000000  0.2500000000000000  0.2500000000000000
  0.5000000000000000  0.5000000000000000 -0.0000000000000000
  0.3750000000000000  0.3750000000000000  0.3750000000000000
  0.6250000000000000  0.6250000000000000  0.6250000000000000
  0.3750000000000000  0.8750000000000000  0.8750000000000000
  0.6250000000000000  0.1250000000000000  0.1250000000000000
  0.8750000000000000  0.8750000000000000  0.3750000000000000
  0.1250000000000000  0.1250000000000000  0.6250000000000000
  0.8750000000000000  0.3750000000000000  0.8750000000000000
  0.1250000000000000  0.6250000000000000  0.1250000000000000
 
  0.00000000E+00  0.00000000E+00  0.00000000E+00
  0.00000000E+00  0.00000000E+00  0.00000000E+00
  0.00000000E+00  0.00000000E+00  0.00000000E+00
  0.00000000E+00  0.00000000E+00  0.00000000E+00
  0.00000000E+00  0.00000000E+00  0.00000000E+00
  0.00000000E+00  0.00000000E+00  0.00000000E+00
  0.00000000E+00  0.00000000E+00  0.00000000E+00
  0.00000000E+00  0.00000000E+00  0.00000000E+00
  0.00000000E+00  0.00000000E+00  0.00000000E+00
  0.00000000E+00  0.00000000E+00  0.00000000E+00
  0.00000000E+00  0.00000000E+00  0.00000000E+00
  0.00000000E+00  0.00000000E+00  0.00000000E+00
  0.00000000E+00  0.00000000E+00  0.00000000E+00
  0.00000000E+00  0.00000000E+00  0.00000000E+00
  0.00000000E+00  0.00000000E+00  0.00000000E+00
  0.00000000E+00  0.00000000E+00  0.00000000E+00
  0.00000000E+00  0.00000000E+00  0.00000000E+00
  0.00000000E+00  0.00000000E+00  0.00000000E+00
  0.00000000E+00  0.00000000E+00  0.00000000E+00
  0.00000000E+00  0.00000000E+00  0.00000000E+00
  0.00000000E+00  0.00000000E+00  0.00000000E+00
  0.00000000E+00  0.00000000E+00  0.00000000E+00
  0.00000000E+00  0.00000000E+00  0.00000000E+00
  0.00000000E+00  0.00000000E+00  0.00000000E+00
  0.00000000E+00  0.00000000E+00  0.00000000E+00
  0.00000000E+00  0.00000000E+00  0.00000000E+00
  0.00000000E+00  0.00000000E+00  0.00000000E+00
  0.00000000E+00  0.00000000E+00  0.00000000E+00
  0.00000000E+00  0.00000000E+00  0.00000000E+00
  0.00000000E+00  0.00000000E+00  0.00000000E+00
  0.00000000E+00  0.00000000E+00  0.00000000E+00
  0.00000000E+00  0.00000000E+00  0.00000000E+00
  0.00000000E+00  0.00000000E+00  0.00000000E+00
  0.00000000E+00  0.00000000E+00  0.00000000E+00
  0.00000000E+00  0.00000000E+00  0.00000000E+00
  0.00000000E+00  0.00000000E+00  0.00000000E+00
  0.00000000E+00  0.00000000E+00  0.00000000E+00
  0.00000000E+00  0.00000000E+00  0.00000000E+00
  0.00000000E+00  0.00000000E+00  0.00000000E+00
  0.00000000E+00  0.00000000E+00  0.00000000E+00
  0.00000000E+00  0.00000000E+00  0.00000000E+00
  0.00000000E+00  0.00000000E+00  0.00000000E+00
  0.00000000E+00  0.00000000E+00  0.00000000E+00
  0.00000000E+00  0.00000000E+00  0.00000000E+00
  0.00000000E+00  0.00000000E+00  0.00000000E+00
  0.00000000E+00  0.00000000E+00  0.00000000E+00
  0.00000000E+00  0.00000000E+00  0.00000000E+00
  0.00000000E+00  0.00000000E+00  0.00000000E+00
  0.00000000E+00  0.00000000E+00  0.00000000E+00
  0.00000000E+00  0.00000000E+00  0.00000000E+00
  0.00000000E+00  0.00000000E+00  0.00000000E+00
  0.00000000E+00  0.00000000E+00  0.00000000E+00
  0.00000000E+00  0.00000000E+00  0.00000000E+00
  0.00000000E+00  0.00000000E+00  0.00000000E+00
  0.00000000E+00  0.00000000E+00  0.00000000E+00
  0.00000000E+00  0.00000000E+00  0.00000000E+00
