Al4C3 Pnma (CIF findsym, P21/n21/m21/a) 
   1.00000000000000     
     9.0882188023023840    0.0000000000000000    0.0000000000000000
     0.0000000000000000    3.1225926717460717    0.0000000000000000
     0.0000000000000000    0.0000000000000000    9.5806516372054524
   Al   C 
    16    12
Direct
  0.2676653340336117  0.2500000000000000  0.2665281559434468
  0.7676653340336119  0.2500000000000000  0.2334718440565532
  0.7323346659663881  0.7500000000000000  0.7334718440565533
  0.2323346659663881  0.7500000000000000  0.7665281559434467
  0.4662996095097547  0.2500000000000000  0.8915910250542554
  0.9662996095097547  0.2500000000000000  0.6084089749457446
  0.5337003904902453  0.7500000000000000  0.1084089749457448
  0.0337003904902452  0.7500000000000000  0.3915910250542552
  0.5061911411003923  0.2500000000000000  0.6044411256955552
  0.0061911411003925  0.2500000000000000  0.8955588743044448
  0.4938088588996076  0.7500000000000000  0.3955588743044447
  0.9938088588996077  0.7500000000000000  0.1044411256955553
  0.2375347406293764  0.2500000000000000  0.5582119186174668
  0.7375347406293762  0.2500000000000000  0.9417880813825332
  0.7624652593706238  0.7500000000000000  0.4417880813825332
  0.2624652593706236  0.7500000000000000  0.0582119186174668
  0.3847377079572686  0.2500000000000000  0.4250053704596988
  0.8847377079572687  0.2500000000000000  0.0749946295403012
  0.6152622920427313  0.7500000000000000  0.5749946295403012
  0.1152622920427313  0.7500000000000000  0.9250053704596988
  0.3937016089167357  0.2500000000000000  0.0870220118455314
  0.8937016089167359  0.2500000000000000  0.4129779881544686
  0.6062983910832641  0.7500000000000000  0.9129779881544688
  0.1062983910832643  0.7500000000000000  0.5870220118455312
  0.3474988193166728  0.2500000000000000  0.7342926432233682
  0.8474988193166728  0.2500000000000000  0.7657073567766318
  0.6525011806833272  0.7500000000000000  0.2657073567766317
  0.1525011806833271  0.7500000000000000  0.2342926432233683
 
  0.00000000E+00  0.00000000E+00  0.00000000E+00
  0.00000000E+00  0.00000000E+00  0.00000000E+00
  0.00000000E+00  0.00000000E+00  0.00000000E+00
  0.00000000E+00  0.00000000E+00  0.00000000E+00
  0.00000000E+00  0.00000000E+00  0.00000000E+00
  0.00000000E+00  0.00000000E+00  0.00000000E+00
  0.00000000E+00  0.00000000E+00  0.00000000E+00
  0.00000000E+00  0.00000000E+00  0.00000000E+00
  0.00000000E+00  0.00000000E+00  0.00000000E+00
  0.00000000E+00  0.00000000E+00  0.00000000E+00
  0.00000000E+00  0.00000000E+00  0.00000000E+00
  0.00000000E+00  0.00000000E+00  0.00000000E+00
  0.00000000E+00  0.00000000E+00  0.00000000E+00
  0.00000000E+00  0.00000000E+00  0.00000000E+00
  0.00000000E+00  0.00000000E+00  0.00000000E+00
  0.00000000E+00  0.00000000E+00  0.00000000E+00
  0.00000000E+00  0.00000000E+00  0.00000000E+00
  0.00000000E+00  0.00000000E+00  0.00000000E+00
  0.00000000E+00  0.00000000E+00  0.00000000E+00
  0.00000000E+00  0.00000000E+00  0.00000000E+00
  0.00000000E+00  0.00000000E+00  0.00000000E+00
  0.00000000E+00  0.00000000E+00  0.00000000E+00
  0.00000000E+00  0.00000000E+00  0.00000000E+00
  0.00000000E+00  0.00000000E+00  0.00000000E+00
  0.00000000E+00  0.00000000E+00  0.00000000E+00
  0.00000000E+00  0.00000000E+00  0.00000000E+00
  0.00000000E+00  0.00000000E+00  0.00000000E+00
  0.00000000E+00  0.00000000E+00  0.00000000E+00
