  28  28   0   0
  0.9406355E+01  0.8992398E-09  0.3089670E-09  0.9479639E-09  0.5000000E-15
  1.000000000000000E-004
  CAR 
 Al4C3 Pnma-VII - H(P) scan @ 40 GPa (ISI
     17.88782457     -6.77325295  301      9.42599235      1.00000000
     -6.773  0.0000E+00  0.0000E+00
     -6.691  0.0000E+00  0.0000E+00
     -6.609  0.0000E+00  0.0000E+00
     -6.527  0.0000E+00  0.0000E+00
     -6.444  0.0000E+00  0.0000E+00
     -6.362  0.0000E+00  0.0000E+00
     -6.280  0.0000E+00  0.0000E+00
     -6.198  0.0000E+00  0.0000E+00
     -6.116  0.0000E+00  0.0000E+00
     -6.033  0.0000E+00  0.0000E+00
     -5.951  0.0000E+00  0.0000E+00
     -5.869  0.3042E-12  0.2501E-13
     -5.787  0.4908E-07  0.4034E-08
     -5.705  0.4828E-04  0.3973E-05
     -5.622  0.7484E-03  0.6550E-04
     -5.540  0.3327E-02  0.3390E-03
     -5.458  0.6549E-02  0.8774E-03
     -5.376  0.6628E-02  0.1422E-02
     -5.294  0.6046E-02  0.1919E-02
     -5.211  0.1067E-01  0.2796E-02
     -5.129  0.1569E-01  0.4086E-02
     -5.047  0.1089E-01  0.4982E-02
     -4.965  0.7964E-02  0.5636E-02
     -4.883  0.1477E-01  0.6851E-02
     -4.800  0.1094E-01  0.7750E-02
     -4.718  0.6101E-02  0.8252E-02
     -4.636  0.1249E-01  0.9279E-02
     -4.554  0.1673E-01  0.1065E-01
     -4.472  0.1475E-01  0.1187E-01
     -4.389  0.1798E-01  0.1334E-01
     -4.307  0.1518E-01  0.1459E-01
     -4.225  0.1221E-01  0.1560E-01
     -4.143  0.2252E-01  0.1745E-01
     -4.061  0.2329E-01  0.1936E-01
     -3.978  0.1270E-01  0.2040E-01
     -3.896  0.1408E-01  0.2156E-01
     -3.814  0.1418E-01  0.2273E-01
     -3.732  0.2507E-01  0.2479E-01
     -3.650  0.2549E-01  0.2688E-01
     -3.567  0.1404E-01  0.2804E-01
     -3.485  0.1677E-01  0.2942E-01
     -3.403  0.2440E-01  0.3142E-01
     -3.321  0.2308E-01  0.3332E-01
     -3.238  0.2374E-01  0.3527E-01
     -3.156  0.2337E-01  0.3719E-01
     -3.074  0.2574E-01  0.3931E-01
     -2.992  0.2693E-01  0.4152E-01
     -2.910  0.2996E-01  0.4398E-01
     -2.827  0.2360E-01  0.4592E-01
     -2.745  0.2782E-01  0.4821E-01
     -2.663  0.3098E-01  0.5076E-01
     -2.581  0.2869E-01  0.5312E-01
     -2.499  0.2563E-01  0.5522E-01
     -2.416  0.2206E-01  0.5704E-01
     -2.334  0.4525E-01  0.6076E-01
     -2.252  0.5254E-01  0.6508E-01
     -2.170  0.4251E-01  0.6857E-01
     -2.088  0.4281E-01  0.7209E-01
     -2.005  0.3807E-01  0.7522E-01
     -1.923  0.4582E-01  0.7899E-01
     -1.841  0.5224E-01  0.8328E-01
     -1.759  0.3312E-01  0.8600E-01
     -1.677  0.3149E-01  0.8859E-01
     -1.594  0.3260E-01  0.9127E-01
     -1.512  0.3711E-01  0.9432E-01
     -1.430  0.4168E-01  0.9775E-01
     -1.348  0.5471E-01  0.1022E+00
     -1.266  0.4807E-01  0.1062E+00
     -1.183  0.4870E-01  0.1102E+00
     -1.101  0.5858E-01  0.1150E+00
     -1.019  0.5129E-01  0.1192E+00
     -0.937  0.9285E-02  0.1200E+00
     -0.855  0.6506E-04  0.1200E+00
     -0.772  0.4623E-08  0.1200E+00
     -0.690  0.2023E-14  0.1200E+00
     -0.608  0.0000E+00  0.1200E+00
     -0.526  0.0000E+00  0.1200E+00
     -0.444  0.0000E+00  0.1200E+00
     -0.361  0.0000E+00  0.1200E+00
     -0.279  0.0000E+00  0.1200E+00
     -0.197  0.0000E+00  0.1200E+00
     -0.115  0.0000E+00  0.1200E+00
     -0.033  0.0000E+00  0.1200E+00
      0.050  0.0000E+00  0.1200E+00
      0.132  0.0000E+00  0.1200E+00
      0.214  0.0000E+00  0.1200E+00
      0.296  0.0000E+00  0.1200E+00
      0.378  0.0000E+00  0.1200E+00
      0.461  0.0000E+00  0.1200E+00
      0.543  0.0000E+00  0.1200E+00
      0.625  0.0000E+00  0.1200E+00
      0.707  0.1810E-15  0.1200E+00
      0.789  0.4226E-09  0.1200E+00
      0.872  0.5400E-05  0.1200E+00
      0.954  0.6096E-03  0.1201E+00
      1.036  0.4194E-02  0.1204E+00
      1.118  0.8198E-02  0.1211E+00
      1.200  0.7687E-02  0.1217E+00
      1.283  0.6741E-02  0.1223E+00
      1.365  0.1336E-01  0.1234E+00
      1.447  0.1916E-01  0.1249E+00
      1.529  0.1888E-01  0.1265E+00
      1.612  0.2090E-01  0.1282E+00
      1.694  0.2831E-01  0.1305E+00
      1.776  0.2967E-01  0.1330E+00
      1.858  0.2504E-01  0.1350E+00
      1.940  0.1981E-01  0.1367E+00
      2.023  0.1589E-01  0.1380E+00
      2.105  0.1638E-01  0.1393E+00
      2.187  0.2504E-01  0.1414E+00
      2.269  0.3763E-01  0.1445E+00
      2.351  0.3217E-01  0.1471E+00
      2.434  0.2646E-01  0.1493E+00
      2.516  0.2792E-01  0.1516E+00
      2.598  0.2518E-01  0.1536E+00
      2.680  0.2363E-01  0.1556E+00
      2.762  0.2778E-01  0.1579E+00
      2.845  0.4714E-01  0.1617E+00
      2.927  0.5574E-01  0.1663E+00
      3.009  0.5826E-01  0.1711E+00
      3.091  0.6051E-01  0.1761E+00
      3.173  0.5376E-01  0.1805E+00
      3.256  0.3604E-01  0.1835E+00
      3.338  0.4658E-01  0.1873E+00
      3.420  0.5841E-01  0.1921E+00
      3.502  0.4348E-01  0.1957E+00
      3.584  0.4497E-01  0.1994E+00
      3.667  0.3788E-01  0.2025E+00
      3.749  0.4347E-01  0.2061E+00
      3.831  0.3438E-01  0.2089E+00
      3.913  0.3909E-01  0.2121E+00
      3.995  0.3321E-01  0.2148E+00
      4.078  0.3893E-01  0.2180E+00
      4.160  0.3682E-01  0.2211E+00
      4.242  0.3658E-01  0.2241E+00
      4.324  0.3350E-01  0.2268E+00
      4.406  0.4502E-01  0.2305E+00
      4.489  0.4482E-01  0.2342E+00
      4.571  0.3530E-01  0.2371E+00
      4.653  0.3668E-01  0.2401E+00
      4.735  0.3614E-01  0.2431E+00
      4.817  0.4144E-01  0.2465E+00
      4.900  0.5388E-01  0.2509E+00
      4.982  0.5182E-01  0.2552E+00
      5.064  0.4462E-01  0.2589E+00
      5.146  0.4043E-01  0.2622E+00
      5.228  0.4792E-01  0.2661E+00
      5.311  0.5727E-01  0.2708E+00
      5.393  0.4664E-01  0.2747E+00
      5.475  0.4294E-01  0.2782E+00
      5.557  0.5144E-01  0.2824E+00
      5.639  0.3652E-01  0.2854E+00
      5.722  0.5083E-01  0.2896E+00
      5.804  0.4862E-01  0.2936E+00
      5.886  0.4389E-01  0.2972E+00
      5.968  0.5390E-01  0.3016E+00
      6.051  0.6351E-01  0.3069E+00
      6.133  0.5585E-01  0.3114E+00
      6.215  0.5883E-01  0.3163E+00
      6.297  0.5626E-01  0.3209E+00
      6.379  0.6334E-01  0.3261E+00
      6.462  0.5742E-01  0.3308E+00
      6.544  0.7114E-01  0.3367E+00
      6.626  0.7792E-01  0.3431E+00
      6.708  0.5638E-01  0.3477E+00
      6.790  0.5482E-01  0.3522E+00
      6.873  0.6748E-01  0.3578E+00
      6.955  0.5987E-01  0.3627E+00
      7.037  0.6867E-01  0.3683E+00
      7.119  0.9350E-01  0.3760E+00
      7.201  0.7112E-01  0.3819E+00
      7.284  0.6516E-01  0.3872E+00
      7.366  0.7548E-01  0.3934E+00
      7.448  0.7647E-01  0.3997E+00
      7.530  0.5241E-01  0.4040E+00
      7.612  0.5277E-01  0.4084E+00
      7.695  0.6364E-01  0.4136E+00
      7.777  0.7238E-01  0.4195E+00
      7.859  0.8248E-01  0.4263E+00
      7.941  0.7315E-01  0.4323E+00
      8.023  0.7267E-01  0.4383E+00
      8.106  0.5164E-01  0.4426E+00
      8.188  0.4772E-01  0.4465E+00
      8.270  0.5304E-01  0.4508E+00
      8.352  0.6642E-01  0.4563E+00
      8.434  0.6241E-01  0.4614E+00
      8.517  0.4600E-01  0.4652E+00
      8.599  0.3312E-01  0.4679E+00
      8.681  0.3285E-01  0.4706E+00
      8.763  0.3424E-01  0.4734E+00
      8.845  0.3714E-01  0.4765E+00
      8.928  0.1915E-01  0.4781E+00
      9.010  0.1596E-02  0.4782E+00
      9.092  0.8231E-02  0.4789E+00
      9.174  0.1135E-01  0.4798E+00
      9.256  0.2222E-02  0.4800E+00
      9.339  0.1420E-04  0.4800E+00
      9.421  0.1055E-08  0.4800E+00
      9.503  0.3545E-07  0.4800E+00
      9.585  0.8880E-04  0.4800E+00
      9.667  0.2121E-02  0.4802E+00
      9.750  0.1334E-02  0.4803E+00
      9.832  0.2541E-02  0.4805E+00
      9.914  0.1502E-02  0.4806E+00
      9.996  0.1954E-03  0.4806E+00
     10.078  0.5022E-02  0.4811E+00
     10.161  0.5716E-02  0.4815E+00
     10.243  0.7182E-02  0.4821E+00
     10.325  0.9809E-02  0.4829E+00
     10.407  0.5836E-02  0.4834E+00
     10.490  0.1432E-02  0.4835E+00
     10.572  0.3689E-02  0.4838E+00
     10.654  0.1091E-01  0.4847E+00
     10.736  0.1319E-01  0.4858E+00
     10.818  0.4817E-02  0.4862E+00
     10.901  0.9483E-02  0.4870E+00
     10.983  0.1423E-01  0.4881E+00
     11.065  0.1588E-01  0.4895E+00
     11.147  0.1576E-01  0.4907E+00
     11.229  0.1285E-01  0.4918E+00
     11.312  0.8159E-02  0.4925E+00
     11.394  0.1211E-01  0.4935E+00
     11.476  0.1642E-01  0.4948E+00
     11.558  0.1935E-01  0.4964E+00
     11.640  0.2016E-01  0.4981E+00
     11.723  0.1802E-01  0.4995E+00
     11.805  0.1931E-01  0.5011E+00
     11.887  0.1610E-01  0.5025E+00
     11.969  0.1580E-01  0.5038E+00
     12.051  0.1320E-01  0.5048E+00
     12.134  0.1875E-01  0.5064E+00
     12.216  0.2518E-01  0.5085E+00
     12.298  0.1909E-01  0.5100E+00
     12.380  0.2815E-01  0.5123E+00
     12.462  0.3288E-01  0.5150E+00
     12.545  0.2830E-01  0.5174E+00
     12.627  0.2568E-01  0.5195E+00
     12.709  0.3502E-01  0.5224E+00
     12.791  0.3630E-01  0.5253E+00
     12.873  0.2689E-01  0.5276E+00
     12.956  0.2865E-01  0.5299E+00
     13.038  0.3437E-01  0.5327E+00
     13.120  0.2775E-01  0.5350E+00
     13.202  0.2313E-01  0.5369E+00
     13.284  0.3080E-01  0.5394E+00
     13.367  0.2890E-01  0.5418E+00
     13.449  0.2078E-01  0.5435E+00
     13.531  0.2766E-01  0.5458E+00
     13.613  0.4563E-01  0.5496E+00
     13.695  0.3895E-01  0.5528E+00
     13.778  0.3184E-01  0.5554E+00
     13.860  0.2817E-01  0.5577E+00
     13.942  0.3078E-01  0.5602E+00
     14.024  0.3668E-01  0.5632E+00
     14.106  0.2828E-01  0.5656E+00
     14.189  0.3103E-01  0.5681E+00
     14.271  0.1820E-01  0.5696E+00
     14.353  0.2333E-01  0.5715E+00
     14.435  0.3581E-01  0.5745E+00
     14.517  0.3828E-01  0.5776E+00
     14.600  0.4126E-01  0.5810E+00
     14.682  0.4946E-01  0.5851E+00
     14.764  0.5172E-01  0.5893E+00
     14.846  0.4380E-01  0.5929E+00
     14.928  0.3128E-01  0.5955E+00
     15.011  0.2908E-01  0.5979E+00
     15.093  0.3777E-01  0.6010E+00
     15.175  0.2920E-01  0.6034E+00
     15.257  0.4789E-01  0.6073E+00
     15.340  0.3971E-01  0.6106E+00
     15.422  0.4607E-01  0.6144E+00
     15.504  0.4007E-01  0.6177E+00
     15.586  0.3513E-01  0.6206E+00
     15.668  0.5366E-01  0.6250E+00
     15.751  0.4313E-01  0.6285E+00
     15.833  0.5379E-01  0.6329E+00
     15.915  0.4877E-01  0.6369E+00
     15.997  0.4816E-01  0.6409E+00
     16.079  0.3812E-01  0.6440E+00
     16.162  0.3018E-01  0.6465E+00
     16.244  0.3917E-01  0.6497E+00
     16.326  0.3710E-01  0.6528E+00
     16.408  0.2519E-01  0.6549E+00
     16.490  0.2205E-01  0.6567E+00
     16.573  0.2461E-01  0.6587E+00
     16.655  0.9553E-02  0.6595E+00
     16.737  0.3412E-02  0.6598E+00
     16.819  0.2732E-02  0.6600E+00
     16.901  0.1619E-03  0.6600E+00
     16.984  0.1212E-06  0.6600E+00
     17.066  0.6549E-12  0.6600E+00
     17.148  0.0000E+00  0.6600E+00
     17.230  0.0000E+00  0.6600E+00
     17.312  0.0000E+00  0.6600E+00
     17.395  0.0000E+00  0.6600E+00
     17.477  0.0000E+00  0.6600E+00
     17.559  0.0000E+00  0.6600E+00
     17.641  0.0000E+00  0.6600E+00
     17.723  0.0000E+00  0.6600E+00
     17.806  0.0000E+00  0.6600E+00
     17.888  0.0000E+00  0.6600E+00
