Al4C3 Pnma (CIF findsym, P21/n21/m21/a) 
   1.00000000000000     
     8.9923981068448793    0.0000000000000000    0.0000000000000000
     0.0000000000000000    3.0896699387060820    0.0000000000000000
     0.0000000000000000    0.0000000000000000    9.4796390270578463
   Al   C 
    16    12
Direct
  0.2681833644661538  0.2500000000000000  0.2664767518332596
  0.7681833644661538  0.2500000000000000  0.2335232481667404
  0.7318166355338462  0.7500000000000000  0.7335232481667404
  0.2318166355338462  0.7500000000000000  0.7664767518332596
  0.4656894866399242  0.2500000000000000  0.8916382141646366
  0.9656894866399242  0.2500000000000000  0.6083617858353634
  0.5343105133600758  0.7500000000000000  0.1083617858353634
  0.0343105133600758  0.7500000000000000  0.3916382141646366
  0.5060443207492540  0.2500000000000000  0.6048072554787396
  0.0060443207492540  0.2500000000000000  0.8951927445212604
  0.4939556792507460  0.7500000000000000  0.3951927445212604
  0.9939556792507460  0.7500000000000000  0.1048072554787396
  0.2367900995859671  0.2500000000000000  0.5579400534326382
  0.7367900995859671  0.2500000000000000  0.9420599465673618
  0.7632099004140329  0.7500000000000000  0.4420599465673618
  0.2632099004140329  0.7500000000000000  0.0579400534326382
  0.3846996388742596  0.2500000000000000  0.4253344150536265
  0.8846996388742596  0.2500000000000000  0.0746655849463735
  0.6153003611257404  0.7500000000000000  0.5746655849463735
  0.1153003611257404  0.7500000000000000  0.9253344150536265
  0.3944047199639513  0.2500000000000000  0.0877513538253609
  0.8944047199639513  0.2500000000000000  0.4122486461746391
  0.6055952800360487  0.7500000000000000  0.9122486461746391
  0.1055952800360487  0.7500000000000000  0.5877513538253609
  0.3471076641912347  0.2500000000000000  0.7342183592237674
  0.8471076641912347  0.2500000000000000  0.7657816407762326
  0.6528923358087653  0.7500000000000000  0.2657816407762326
  0.1528923358087653  0.7500000000000000  0.2342183592237674
 
  0.00000000E+00  0.00000000E+00  0.00000000E+00
  0.00000000E+00  0.00000000E+00  0.00000000E+00
  0.00000000E+00  0.00000000E+00  0.00000000E+00
  0.00000000E+00  0.00000000E+00  0.00000000E+00
  0.00000000E+00  0.00000000E+00  0.00000000E+00
  0.00000000E+00  0.00000000E+00  0.00000000E+00
  0.00000000E+00  0.00000000E+00  0.00000000E+00
  0.00000000E+00  0.00000000E+00  0.00000000E+00
  0.00000000E+00  0.00000000E+00  0.00000000E+00
  0.00000000E+00  0.00000000E+00  0.00000000E+00
  0.00000000E+00  0.00000000E+00  0.00000000E+00
  0.00000000E+00  0.00000000E+00  0.00000000E+00
  0.00000000E+00  0.00000000E+00  0.00000000E+00
  0.00000000E+00  0.00000000E+00  0.00000000E+00
  0.00000000E+00  0.00000000E+00  0.00000000E+00
  0.00000000E+00  0.00000000E+00  0.00000000E+00
  0.00000000E+00  0.00000000E+00  0.00000000E+00
  0.00000000E+00  0.00000000E+00  0.00000000E+00
  0.00000000E+00  0.00000000E+00  0.00000000E+00
  0.00000000E+00  0.00000000E+00  0.00000000E+00
  0.00000000E+00  0.00000000E+00  0.00000000E+00
  0.00000000E+00  0.00000000E+00  0.00000000E+00
  0.00000000E+00  0.00000000E+00  0.00000000E+00
  0.00000000E+00  0.00000000E+00  0.00000000E+00
  0.00000000E+00  0.00000000E+00  0.00000000E+00
  0.00000000E+00  0.00000000E+00  0.00000000E+00
  0.00000000E+00  0.00000000E+00  0.00000000E+00
  0.00000000E+00  0.00000000E+00  0.00000000E+00
