Al4C3 Pnma (POSCAR.IV, symmetrized via s
   1.00000000000000     
     8.3380161157795989    0.0000000000000000    0.0000000000000000
     0.0000000000000000    2.8764640342939827    0.0000000000000000
     0.0000000000000000    0.0000000000000000    9.9115532022607766
   Al   C 
    16    12
Direct
  0.2649318128636470  0.2500000000000000  0.2988468061321453
  0.2350681871363529  0.7500000000000000  0.7988468061321453
  0.7350681871363529  0.7500000000000000  0.7011531938678547
  0.7649318128636471  0.2500000000000000  0.2011531938678547
  0.3488785977948228  0.2500000000000000  0.0118409268747067
  0.1511214022051773  0.7500000000000000  0.5118409268747066
  0.6511214022051773  0.7500000000000000  0.9881590731252934
  0.8488785977948227  0.2500000000000000  0.4881590731252932
  0.5214918098240946  0.2500000000000000  0.7943587678060237
  0.9785081901759054  0.7500000000000000  0.2943587678060236
  0.4785081901759056  0.7500000000000000  0.2056412321939764
  0.0214918098240944  0.2500000000000000  0.7056412321939763
  0.0708603290504156  0.2500000000000000  0.0888865346569864
  0.4291396709495915  0.7500000000000000  0.5888865346569863
  0.9291396709495844  0.7500000000000000  0.9111134653430137
  0.5708603290504156  0.2500000000000000  0.4111134653430136
  0.2567263061025010  0.2500000000000000  0.6416359748207069
  0.2432736938974989  0.7500000000000000  0.1416359748207069
  0.7432736938974989  0.7500000000000000  0.3583640251792931
  0.7567263061025011  0.2500000000000000  0.8583640251792931
  0.6015830421924052  0.2500000000000000  0.6090168044151455
  0.8984169578075948  0.7500000000000000  0.1090168044151456
  0.3984169578076018  0.7500000000000000  0.3909831955848544
  0.1015830421924053  0.2500000000000000  0.8909831955848545
  0.0657140693212869  0.2500000000000000  0.3882569947782167
  0.4342859306787131  0.7500000000000000  0.8882569947782166
  0.9342859306787130  0.7500000000000000  0.6117430052217834
  0.5657140693212870  0.2500000000000000  0.1117430052217833
 
  0.00000000E+00  0.00000000E+00  0.00000000E+00
  0.00000000E+00  0.00000000E+00  0.00000000E+00
  0.00000000E+00  0.00000000E+00  0.00000000E+00
  0.00000000E+00  0.00000000E+00  0.00000000E+00
  0.00000000E+00  0.00000000E+00  0.00000000E+00
  0.00000000E+00  0.00000000E+00  0.00000000E+00
  0.00000000E+00  0.00000000E+00  0.00000000E+00
  0.00000000E+00  0.00000000E+00  0.00000000E+00
  0.00000000E+00  0.00000000E+00  0.00000000E+00
  0.00000000E+00  0.00000000E+00  0.00000000E+00
  0.00000000E+00  0.00000000E+00  0.00000000E+00
  0.00000000E+00  0.00000000E+00  0.00000000E+00
  0.00000000E+00  0.00000000E+00  0.00000000E+00
  0.00000000E+00  0.00000000E+00  0.00000000E+00
  0.00000000E+00  0.00000000E+00  0.00000000E+00
  0.00000000E+00  0.00000000E+00  0.00000000E+00
  0.00000000E+00  0.00000000E+00  0.00000000E+00
  0.00000000E+00  0.00000000E+00  0.00000000E+00
  0.00000000E+00  0.00000000E+00  0.00000000E+00
  0.00000000E+00  0.00000000E+00  0.00000000E+00
  0.00000000E+00  0.00000000E+00  0.00000000E+00
  0.00000000E+00  0.00000000E+00  0.00000000E+00
  0.00000000E+00  0.00000000E+00  0.00000000E+00
  0.00000000E+00  0.00000000E+00  0.00000000E+00
  0.00000000E+00  0.00000000E+00  0.00000000E+00
  0.00000000E+00  0.00000000E+00  0.00000000E+00
  0.00000000E+00  0.00000000E+00  0.00000000E+00
  0.00000000E+00  0.00000000E+00  0.00000000E+00
