  28  28   0   0
  0.8594180E+01  0.8371998E-09  0.2888187E-09  0.9951948E-09  0.5000000E-15
  1.000000000000000E-004
  CAR 
 Al4C3 Pnma - r2SCAN H(P) scan @ 40 GPa (
     20.74328019     -6.85141202  301     12.01070988      1.00000000
     -6.851  0.0000E+00  0.0000E+00
     -6.759  0.0000E+00  0.0000E+00
     -6.667  0.0000E+00  0.0000E+00
     -6.575  0.0000E+00  0.0000E+00
     -6.483  0.0000E+00  0.0000E+00
     -6.392  0.0000E+00  0.0000E+00
     -6.300  0.0000E+00  0.0000E+00
     -6.208  0.0000E+00  0.0000E+00
     -6.116  0.0000E+00  0.0000E+00
     -6.024  0.0000E+00  0.0000E+00
     -5.932  0.0000E+00  0.0000E+00
     -5.840  0.2143E-14  0.1971E-15
     -5.748  0.6392E-08  0.5879E-09
     -5.656  0.3024E-04  0.2782E-05
     -5.564  0.5914E-03  0.5718E-04
     -5.472  0.2370E-02  0.2752E-03
     -5.380  0.4688E-02  0.7065E-03
     -5.288  0.5483E-02  0.1211E-02
     -5.196  0.5013E-02  0.1672E-02
     -5.104  0.5438E-02  0.2172E-02
     -5.012  0.8466E-02  0.2951E-02
     -4.920  0.1125E-01  0.3986E-02
     -4.828  0.8724E-02  0.4788E-02
     -4.736  0.7255E-02  0.5455E-02
     -4.644  0.8767E-02  0.6262E-02
     -4.552  0.1126E-01  0.7298E-02
     -4.460  0.7549E-02  0.7992E-02
     -4.368  0.7991E-02  0.8727E-02
     -4.276  0.1503E-01  0.1011E-01
     -4.184  0.1844E-01  0.1181E-01
     -4.092  0.1089E-01  0.1281E-01
     -4.000  0.8793E-02  0.1362E-01
     -3.908  0.1275E-01  0.1479E-01
     -3.816  0.1685E-01  0.1634E-01
     -3.724  0.1429E-01  0.1765E-01
     -3.632  0.1504E-01  0.1904E-01
     -3.540  0.8194E-02  0.1979E-01
     -3.448  0.1405E-01  0.2108E-01
     -3.356  0.1695E-01  0.2264E-01
     -3.264  0.2233E-01  0.2470E-01
     -3.172  0.1910E-01  0.2645E-01
     -3.080  0.2150E-01  0.2843E-01
     -2.988  0.1538E-01  0.2985E-01
     -2.896  0.1355E-01  0.3109E-01
     -2.804  0.1365E-01  0.3235E-01
     -2.712  0.2081E-01  0.3426E-01
     -2.620  0.2338E-01  0.3641E-01
     -2.528  0.1833E-01  0.3810E-01
     -2.436  0.1539E-01  0.3952E-01
     -2.344  0.2755E-01  0.4205E-01
     -2.252  0.3248E-01  0.4504E-01
     -2.160  0.2223E-01  0.4708E-01
     -2.068  0.2606E-01  0.4948E-01
     -1.976  0.1910E-01  0.5124E-01
     -1.884  0.2030E-01  0.5310E-01
     -1.792  0.2108E-01  0.5504E-01
     -1.700  0.3460E-01  0.5822E-01
     -1.608  0.3249E-01  0.6121E-01
     -1.516  0.2915E-01  0.6389E-01
     -1.424  0.3676E-01  0.6728E-01
     -1.332  0.3659E-01  0.7064E-01
     -1.240  0.3582E-01  0.7394E-01
     -1.149  0.3771E-01  0.7740E-01
     -1.057  0.4571E-01  0.8161E-01
     -0.965  0.6713E-01  0.8778E-01
     -0.873  0.4197E-01  0.9164E-01
     -0.781  0.2668E-01  0.9410E-01
     -0.689  0.2425E-01  0.9633E-01
     -0.597  0.3300E-01  0.9936E-01
     -0.505  0.2858E-01  0.1020E+00
     -0.413  0.1285E-01  0.1032E+00
     -0.321  0.1734E-01  0.1048E+00
     -0.229  0.8330E-02  0.1055E+00
     -0.137  0.1478E-01  0.1069E+00
     -0.045  0.1974E-01  0.1087E+00
      0.047  0.1566E-01  0.1102E+00
      0.139  0.1668E-01  0.1117E+00
      0.231  0.1521E-01  0.1131E+00
      0.323  0.1161E-01  0.1142E+00
      0.415  0.9253E-02  0.1150E+00
      0.507  0.8172E-02  0.1158E+00
      0.599  0.1465E-01  0.1171E+00
      0.691  0.7237E-02  0.1178E+00
      0.783  0.9084E-02  0.1186E+00
      0.875  0.9646E-02  0.1195E+00
      0.967  0.4765E-02  0.1199E+00
      1.059  0.7398E-03  0.1200E+00
      1.151  0.1189E-05  0.1200E+00
      1.243  0.3908E-11  0.1200E+00
      1.335  0.0000E+00  0.1200E+00
      1.427  0.0000E+00  0.1200E+00
      1.519  0.0000E+00  0.1200E+00
      1.611  0.0000E+00  0.1200E+00
      1.703  0.3591E-14  0.1200E+00
      1.795  0.8881E-08  0.1200E+00
      1.887  0.3522E-04  0.1200E+00
      1.979  0.6972E-03  0.1201E+00
      2.071  0.2648E-02  0.1203E+00
      2.163  0.3626E-02  0.1206E+00
      2.255  0.4204E-02  0.1210E+00
      2.347  0.4517E-02  0.1214E+00
      2.439  0.8794E-02  0.1223E+00
      2.531  0.2114E-01  0.1242E+00
      2.623  0.2800E-01  0.1268E+00
      2.715  0.2172E-01  0.1288E+00
      2.807  0.2288E-01  0.1309E+00
      2.899  0.3660E-01  0.1342E+00
      2.991  0.2415E-01  0.1365E+00
      3.083  0.3779E-01  0.1399E+00
      3.175  0.3894E-01  0.1435E+00
      3.267  0.3867E-01  0.1471E+00
      3.359  0.2653E-01  0.1495E+00
      3.451  0.3906E-01  0.1531E+00
      3.543  0.4209E-01  0.1570E+00
      3.635  0.3738E-01  0.1604E+00
      3.727  0.3427E-01  0.1636E+00
      3.819  0.3531E-01  0.1668E+00
      3.911  0.3315E-01  0.1699E+00
      4.003  0.3387E-01  0.1730E+00
      4.094  0.4123E-01  0.1768E+00
      4.186  0.5530E-01  0.1819E+00
      4.278  0.2519E-01  0.1842E+00
      4.370  0.2408E-01  0.1864E+00
      4.462  0.3679E-01  0.1898E+00
      4.554  0.2661E-01  0.1922E+00
      4.646  0.2711E-01  0.1947E+00
      4.738  0.3211E-01  0.1977E+00
      4.830  0.3536E-01  0.2009E+00
      4.922  0.3784E-01  0.2044E+00
      5.014  0.3429E-01  0.2076E+00
      5.106  0.3375E-01  0.2107E+00
      5.198  0.4579E-01  0.2149E+00
      5.290  0.4044E-01  0.2186E+00
      5.382  0.3066E-01  0.2214E+00
      5.474  0.3523E-01  0.2247E+00
      5.566  0.3389E-01  0.2278E+00
      5.658  0.2613E-01  0.2302E+00
      5.750  0.3710E-01  0.2336E+00
      5.842  0.3072E-01  0.2364E+00
      5.934  0.2260E-01  0.2385E+00
      6.026  0.3780E-01  0.2420E+00
      6.118  0.5037E-01  0.2466E+00
      6.210  0.4934E-01  0.2511E+00
      6.302  0.3942E-01  0.2548E+00
      6.394  0.5020E-01  0.2594E+00
      6.486  0.4135E-01  0.2632E+00
      6.578  0.5054E-01  0.2678E+00
      6.670  0.3665E-01  0.2712E+00
      6.762  0.3100E-01  0.2741E+00
      6.854  0.4458E-01  0.2782E+00
      6.946  0.3936E-01  0.2818E+00
      7.038  0.4969E-01  0.2864E+00
      7.130  0.3730E-01  0.2898E+00
      7.222  0.3853E-01  0.2933E+00
      7.314  0.3026E-01  0.2961E+00
      7.406  0.4095E-01  0.2999E+00
      7.498  0.3873E-01  0.3034E+00
      7.590  0.4489E-01  0.3076E+00
      7.682  0.5132E-01  0.3123E+00
      7.774  0.3593E-01  0.3156E+00
      7.866  0.3729E-01  0.3190E+00
      7.958  0.3799E-01  0.3225E+00
      8.050  0.4345E-01  0.3265E+00
      8.142  0.4326E-01  0.3305E+00
      8.234  0.5095E-01  0.3352E+00
      8.326  0.5948E-01  0.3407E+00
      8.418  0.3746E-01  0.3441E+00
      8.510  0.3468E-01  0.3473E+00
      8.602  0.3583E-01  0.3506E+00
      8.694  0.5850E-01  0.3560E+00
      8.786  0.4009E-01  0.3597E+00
      8.878  0.3569E-01  0.3629E+00
      8.970  0.4294E-01  0.3669E+00
      9.062  0.3913E-01  0.3705E+00
      9.154  0.4646E-01  0.3748E+00
      9.245  0.5890E-01  0.3802E+00
      9.337  0.5343E-01  0.3851E+00
      9.429  0.6678E-01  0.3912E+00
      9.521  0.5844E-01  0.3966E+00
      9.613  0.5032E-01  0.4012E+00
      9.705  0.4995E-01  0.4058E+00
      9.797  0.5067E-01  0.4105E+00
      9.889  0.6024E-01  0.4160E+00
      9.981  0.6072E-01  0.4216E+00
     10.073  0.7523E-01  0.4285E+00
     10.165  0.7862E-01  0.4358E+00
     10.257  0.4841E-01  0.4402E+00
     10.349  0.5774E-01  0.4455E+00
     10.441  0.5945E-01  0.4510E+00
     10.533  0.4835E-01  0.4555E+00
     10.625  0.3962E-01  0.4591E+00
     10.717  0.4713E-01  0.4634E+00
     10.809  0.4065E-01  0.4672E+00
     10.901  0.2647E-01  0.4696E+00
     10.993  0.2856E-01  0.4722E+00
     11.085  0.2044E-01  0.4741E+00
     11.177  0.1409E-01  0.4754E+00
     11.269  0.1077E-01  0.4764E+00
     11.361  0.1291E-01  0.4776E+00
     11.453  0.9903E-02  0.4785E+00
     11.545  0.5839E-02  0.4790E+00
     11.637  0.5583E-02  0.4795E+00
     11.729  0.4097E-02  0.4799E+00
     11.821  0.8381E-03  0.4800E+00
     11.913  0.6446E-05  0.4800E+00
     12.005  0.2386E-09  0.4800E+00
     12.097  0.1399E-16  0.4800E+00
     12.189  0.0000E+00  0.4800E+00
     12.281  0.0000E+00  0.4800E+00
     12.373  0.0000E+00  0.4800E+00
     12.465  0.0000E+00  0.4800E+00
     12.557  0.0000E+00  0.4800E+00
     12.649  0.2304E-16  0.4800E+00
     12.741  0.5233E-09  0.4800E+00
     12.833  0.1734E-04  0.4800E+00
     12.925  0.1364E-02  0.4801E+00
     13.017  0.2072E-02  0.4803E+00
     13.109  0.9146E-02  0.4812E+00
     13.201  0.6074E-02  0.4817E+00
     13.293  0.7115E-02  0.4824E+00
     13.385  0.2332E-01  0.4845E+00
     13.477  0.2712E-01  0.4870E+00
     13.569  0.2153E-01  0.4890E+00
     13.661  0.1095E-01  0.4900E+00
     13.753  0.9275E-02  0.4909E+00
     13.845  0.6440E-02  0.4914E+00
     13.937  0.1335E-01  0.4927E+00
     14.029  0.1524E-01  0.4941E+00
     14.121  0.2875E-01  0.4967E+00
     14.213  0.3791E-01  0.5002E+00
     14.305  0.3044E-01  0.5030E+00
     14.397  0.2545E-01  0.5053E+00
     14.488  0.1991E-01  0.5072E+00
     14.580  0.2358E-01  0.5093E+00
     14.672  0.2367E-01  0.5115E+00
     14.764  0.3885E-01  0.5151E+00
     14.856  0.3286E-01  0.5181E+00
     14.948  0.2606E-01  0.5205E+00
     15.040  0.2246E-01  0.5226E+00
     15.132  0.1390E-01  0.5239E+00
     15.224  0.1630E-01  0.5254E+00
     15.316  0.1536E-01  0.5268E+00
     15.408  0.1382E-01  0.5280E+00
     15.500  0.2888E-01  0.5307E+00
     15.592  0.2127E-01  0.5327E+00
     15.684  0.2200E-01  0.5347E+00
     15.776  0.3239E-01  0.5377E+00
     15.868  0.2596E-01  0.5400E+00
     15.960  0.5252E-01  0.5449E+00
     16.052  0.5072E-01  0.5495E+00
     16.144  0.4369E-01  0.5536E+00
     16.236  0.3186E-01  0.5565E+00
     16.328  0.3475E-01  0.5597E+00
     16.420  0.2463E-01  0.5620E+00
     16.512  0.3624E-01  0.5653E+00
     16.604  0.4613E-01  0.5695E+00
     16.696  0.5254E-01  0.5744E+00
     16.788  0.2273E-01  0.5765E+00
     16.880  0.2953E-01  0.5792E+00
     16.972  0.3755E-01  0.5826E+00
     17.064  0.4218E-01  0.5865E+00
     17.156  0.3023E-01  0.5893E+00
     17.248  0.3080E-01  0.5921E+00
     17.340  0.4220E-01  0.5960E+00
     17.432  0.4520E-01  0.6002E+00
     17.524  0.3010E-01  0.6029E+00
     17.616  0.3464E-01  0.6061E+00
     17.708  0.3899E-01  0.6097E+00
     17.800  0.3063E-01  0.6125E+00
     17.892  0.2615E-01  0.6149E+00
     17.984  0.3831E-01  0.6184E+00
     18.076  0.3208E-01  0.6214E+00
     18.168  0.3404E-01  0.6245E+00
     18.260  0.3527E-01  0.6278E+00
     18.352  0.4039E-01  0.6315E+00
     18.444  0.2757E-01  0.6340E+00
     18.536  0.2257E-01  0.6361E+00
     18.628  0.4017E-01  0.6398E+00
     18.720  0.3824E-01  0.6433E+00
     18.812  0.2942E-01  0.6460E+00
     18.904  0.2623E-01  0.6484E+00
     18.996  0.1994E-01  0.6503E+00
     19.088  0.1974E-01  0.6521E+00
     19.180  0.3628E-01  0.6554E+00
     19.272  0.2700E-01  0.6579E+00
     19.364  0.1598E-01  0.6594E+00
     19.456  0.5695E-02  0.6599E+00
     19.548  0.1085E-02  0.6600E+00
     19.639  0.6042E-04  0.6600E+00
     19.731  0.1278E-07  0.6600E+00
     19.823  0.4286E-14  0.6600E+00
     19.915  0.0000E+00  0.6600E+00
     20.007  0.0000E+00  0.6600E+00
     20.099  0.0000E+00  0.6600E+00
     20.191  0.0000E+00  0.6600E+00
     20.283  0.0000E+00  0.6600E+00
     20.375  0.0000E+00  0.6600E+00
     20.467  0.0000E+00  0.6600E+00
     20.559  0.0000E+00  0.6600E+00
     20.651  0.0000E+00  0.6600E+00
     20.743  0.0000E+00  0.6600E+00
