       N       E                     dE             d eps       ncg     rms          rms(c)
DAV:   1    -0.236780028481E+03   -0.23678E+03   -0.48884E+00  7128   0.107E+01    0.799E+00
DAV:   2    -0.221599103267E+03    0.15181E+02   -0.12637E+00  8004   0.603E+00    0.578E+00
DAV:   3    -0.221941860914E+03   -0.34276E+00   -0.19791E-01  8280   0.199E+00    0.466E+00
DAV:   4    -0.221977114054E+03   -0.35253E-01   -0.97805E-02  8316   0.110E+00    0.945E-01
DAV:   5    -0.221977963416E+03   -0.84936E-03   -0.61084E-03  8520   0.267E-01    0.369E-01
DAV:   6    -0.221978105576E+03   -0.14216E-03   -0.96657E-04  8382   0.117E-01    0.121E-01
DAV:   7    -0.221978131584E+03   -0.26008E-04   -0.37404E-05  6708   0.279E-02    0.765E-02
DAV:   8    -0.221978142168E+03   -0.10584E-04   -0.10247E-04  8268   0.426E-02    0.178E-02
DAV:   9    -0.221978130247E+03    0.11921E-04   -0.41649E-06  4452   0.863E-03    0.550E-03
DAV:  10    -0.221978129502E+03    0.74504E-06   -0.11129E-06  4344   0.404E-03
   1 F= -.16190063E+03 E0= -.16190063E+03  d E =-.161901E+03
       N       E                     dE             d eps       ncg     rms          rms(c)
DAV:   1    -0.219962879728E+03    0.20153E+01   -0.33328E+00  7992   0.773E+00    0.173E+00
DAV:   2    -0.219931684879E+03    0.31195E-01   -0.17616E-01  8532   0.144E+00    0.971E-01
DAV:   3    -0.219930877271E+03    0.80761E-03   -0.25873E-02  8208   0.496E-01    0.383E-01
DAV:   4    -0.219931224578E+03   -0.34731E-03   -0.70153E-04  8592   0.116E-01    0.183E-01
DAV:   5    -0.219931210168E+03    0.14410E-04   -0.23454E-04  8292   0.593E-02    0.122E-01
DAV:   6    -0.219931196865E+03    0.13303E-04   -0.62240E-05  8004   0.432E-02    0.334E-02
DAV:   7    -0.219931207361E+03   -0.10496E-04   -0.90357E-06  4434   0.116E-02    0.133E-02
DAV:   8    -0.219931211787E+03   -0.44265E-05   -0.14240E-06  4290   0.498E-03
   2 F= -.16182502E+03 E0= -.16182502E+03  d E =0.756100E-01
       N       E                     dE             d eps       ncg     rms          rms(c)
DAV:   1    -0.221287419340E+03   -0.13562E+01   -0.12875E+00  7986   0.473E+00    0.109E+00
DAV:   2    -0.221277924915E+03    0.94944E-02   -0.70804E-02  8538   0.905E-01    0.604E-01
DAV:   3    -0.221278120812E+03   -0.19590E-03   -0.10205E-02  8226   0.310E-01    0.239E-01
DAV:   4    -0.221278391157E+03   -0.27034E-03   -0.28281E-04  8568   0.735E-02    0.115E-01
DAV:   5    -0.221278412091E+03   -0.20934E-04   -0.95361E-05  8148   0.378E-02    0.760E-02
DAV:   6    -0.221278431414E+03   -0.19323E-04   -0.23626E-05  5160   0.274E-02    0.172E-02
DAV:   7    -0.221278426068E+03    0.53457E-05   -0.50346E-06  4344   0.920E-03
   3 F= -.16194216E+03 E0= -.16194216E+03  d E =-.415316E-01
       N       E                     dE             d eps       ncg     rms          rms(c)
DAV:   1    -0.221267594262E+03    0.10837E-01   -0.93336E-05  7878   0.407E-02    0.140E-02
DAV:   2    -0.221267588000E+03    0.62623E-05   -0.51920E-06  4188   0.816E-03
   4 F= -.16194216E+03 E0= -.16194216E+03  d E =-.415316E-01
       N       E                     dE             d eps       ncg     rms          rms(c)
DAV:   1    -0.221269283804E+03   -0.16895E-02   -0.71133E-02  7152   0.109E+00    0.553E-02
DAV:   2    -0.221269348991E+03   -0.65188E-04   -0.19898E-03  8682   0.175E-01    0.431E-02
DAV:   3    -0.221269325914E+03    0.23077E-04   -0.91403E-05  8430   0.414E-02    0.276E-02
DAV:   4    -0.221269317460E+03    0.84535E-05   -0.60177E-05  7986   0.300E-02
   5 F= -.16194308E+03 E0= -.16194308E+03  d E =-.923349E-03
       N       E                     dE             d eps       ncg     rms          rms(c)
DAV:   1    -0.221269362879E+03   -0.36965E-04   -0.22357E-04  7686   0.628E-02    0.809E-03
DAV:   2    -0.221269362482E+03    0.39711E-06   -0.80762E-06  4344   0.114E-02
   6 F= -.16194308E+03 E0= -.16194308E+03  d E =-.925868E-03
       N       E                     dE             d eps       ncg     rms          rms(c)
DAV:   1    -0.221280876200E+03   -0.11513E-01   -0.86636E-02  7128   0.121E+00    0.518E-02
DAV:   2    -0.221280884417E+03   -0.82164E-05   -0.11583E-03  8826   0.136E-01    0.352E-02
DAV:   3    -0.221280864508E+03    0.19908E-04   -0.66804E-05  8562   0.330E-02    0.232E-02
DAV:   4    -0.221280853340E+03    0.11168E-04   -0.56536E-05  8052   0.292E-02    0.614E-03
DAV:   5    -0.221280855663E+03   -0.23231E-05   -0.13845E-05  4986   0.118E-02
   7 F= -.16194345E+03 E0= -.16194345E+03  d E =-.368045E-03
       N       E                     dE             d eps       ncg     rms          rms(c)
DAV:   1    -0.221279437944E+03    0.14154E-02   -0.14142E-03  7176   0.154E-01    0.684E-03
DAV:   2    -0.221279436505E+03    0.14389E-05   -0.17235E-05  6288   0.171E-02
   8 F= -.16194346E+03 E0= -.16194346E+03  d E =-.374428E-03
       N       E                     dE             d eps       ncg     rms          rms(c)
DAV:   1    -0.221280233457E+03   -0.79551E-03   -0.25147E-02  7128   0.645E-01    0.255E-02
DAV:   2    -0.221280245019E+03   -0.11561E-04   -0.38279E-04  8490   0.765E-02    0.188E-02
DAV:   3    -0.221280236624E+03    0.83946E-05   -0.11227E-05  5370   0.155E-02
   9 F= -.16194365E+03 E0= -.16194365E+03  d E =-.190464E-03
       N       E                     dE             d eps       ncg     rms          rms(c)
DAV:   1    -0.221280647977E+03   -0.40296E-03   -0.99846E-03  7140   0.408E-01    0.182E-02
DAV:   2    -0.221280647954E+03    0.23101E-07   -0.12563E-04  8670   0.444E-02    0.123E-02
DAV:   3    -0.221280643975E+03    0.39783E-05   -0.46838E-06  4512   0.974E-03
  10 F= -.16194366E+03 E0= -.16194366E+03  d E =-.206186E-03
       N       E                     dE             d eps       ncg     rms          rms(c)
DAV:   1    -0.221283612939E+03   -0.29650E-02   -0.18811E-02  7128   0.570E-01    0.240E-02
DAV:   2    -0.221283630330E+03   -0.17391E-04   -0.27350E-04  8772   0.631E-02    0.165E-02
DAV:   3    -0.221283628624E+03    0.17068E-05   -0.72546E-06  4986   0.120E-02
  11 F= -.16194383E+03 E0= -.16194383E+03  d E =-.165322E-03
       N       E                     dE             d eps       ncg     rms          rms(c)
DAV:   1    -0.221286360547E+03   -0.27302E-02   -0.17109E-02  7128   0.544E-01    0.243E-02
DAV:   2    -0.221286373908E+03   -0.13362E-04   -0.23334E-04  8760   0.588E-02    0.170E-02
DAV:   3    -0.221286372891E+03    0.10176E-05   -0.75452E-06  4908   0.119E-02
  12 F= -.16194388E+03 E0= -.16194388E+03  d E =-.219037E-03
       N       E                     dE             d eps       ncg     rms          rms(c)
DAV:   1    -0.221292917759E+03   -0.65439E-02   -0.25115E-02  7164   0.646E-01    0.313E-02
DAV:   2    -0.221292921659E+03   -0.38996E-05   -0.35185E-04  8730   0.744E-02    0.193E-02
DAV:   3    -0.221292914808E+03    0.68512E-05   -0.15524E-05  5856   0.173E-02
  13 F= -.16194400E+03 E0= -.16194400E+03  d E =-.113297E-03
