  14  14   0   0
  0.1047935E+02  0.9056642E-09  0.5229384E-09  0.3097737E-09  0.5000000E-15
  1.000000000000000E-004
  CAR 
 Al4C3 Pbam - r2SCAN H(P) scan @ 0 GPa (I
     18.28274160     -7.56371212  301      9.32635948      1.00000000
     -7.564  0.0000E+00  0.0000E+00
     -7.478  0.0000E+00  0.0000E+00
     -7.391  0.0000E+00  0.0000E+00
     -7.305  0.0000E+00  0.0000E+00
     -7.219  0.0000E+00  0.0000E+00
     -7.133  0.0000E+00  0.0000E+00
     -7.047  0.0000E+00  0.0000E+00
     -6.961  0.0000E+00  0.0000E+00
     -6.874  0.0000E+00  0.0000E+00
     -6.788  0.0000E+00  0.0000E+00
     -6.702  0.0000E+00  0.0000E+00
     -6.616  0.2495E-13  0.2150E-14
     -6.530  0.1258E-07  0.1084E-08
     -6.444  0.2280E-04  0.1965E-05
     -6.358  0.3427E-03  0.3149E-04
     -6.271  0.1570E-02  0.1667E-03
     -6.185  0.3018E-02  0.4267E-03
     -6.099  0.3254E-02  0.7071E-03
     -6.013  0.2660E-02  0.9363E-03
     -5.927  0.3265E-02  0.1218E-02
     -5.841  0.6966E-02  0.1818E-02
     -5.754  0.7474E-02  0.2462E-02
     -5.668  0.2474E-02  0.2675E-02
     -5.582  0.3024E-02  0.2935E-02
     -5.496  0.8747E-02  0.3689E-02
     -5.410  0.9671E-02  0.4522E-02
     -5.324  0.6536E-02  0.5085E-02
     -5.238  0.6609E-02  0.5655E-02
     -5.151  0.9739E-02  0.6494E-02
     -5.065  0.1007E-01  0.7361E-02
     -4.979  0.1188E-01  0.8385E-02
     -4.893  0.8761E-02  0.9140E-02
     -4.807  0.5863E-02  0.9645E-02
     -4.721  0.3437E-02  0.9941E-02
     -4.634  0.8714E-02  0.1069E-01
     -4.548  0.9125E-02  0.1148E-01
     -4.462  0.8305E-02  0.1219E-01
     -4.376  0.5285E-02  0.1265E-01
     -4.290  0.1110E-01  0.1361E-01
     -4.204  0.1355E-01  0.1477E-01
     -4.118  0.7181E-02  0.1539E-01
     -4.031  0.9128E-02  0.1618E-01
     -3.945  0.1831E-01  0.1776E-01
     -3.859  0.1175E-01  0.1877E-01
     -3.773  0.6664E-02  0.1934E-01
     -3.687  0.1787E-01  0.2088E-01
     -3.601  0.1643E-01  0.2230E-01
     -3.514  0.1453E-01  0.2355E-01
     -3.428  0.1555E-01  0.2489E-01
     -3.342  0.7953E-02  0.2557E-01
     -3.256  0.1718E-01  0.2705E-01
     -3.170  0.2166E-01  0.2892E-01
     -3.084  0.1927E-01  0.3058E-01
     -2.998  0.1965E-01  0.3227E-01
     -2.911  0.1920E-01  0.3393E-01
     -2.825  0.2632E-01  0.3620E-01
     -2.739  0.3444E-01  0.3916E-01
     -2.653  0.2057E-01  0.4093E-01
     -2.567  0.3043E-01  0.4356E-01
     -2.481  0.2841E-01  0.4600E-01
     -2.394  0.1576E-01  0.4736E-01
     -2.308  0.1183E-01  0.4838E-01
     -2.222  0.1239E-01  0.4945E-01
     -2.136  0.1345E-01  0.5061E-01
     -2.050  0.9725E-02  0.5144E-01
     -1.964  0.6842E-02  0.5203E-01
     -1.877  0.1416E-01  0.5325E-01
     -1.791  0.1620E-01  0.5465E-01
     -1.705  0.9670E-02  0.5548E-01
     -1.619  0.4122E-02  0.5584E-01
     -1.533  0.8871E-02  0.5660E-01
     -1.447  0.8797E-02  0.5736E-01
     -1.361  0.6510E-02  0.5792E-01
     -1.274  0.1227E-02  0.5803E-01
     -1.188  0.2538E-02  0.5825E-01
     -1.102  0.6782E-02  0.5883E-01
     -1.016  0.3898E-02  0.5917E-01
     -0.930  0.2098E-02  0.5935E-01
     -0.844  0.1294E-02  0.5946E-01
     -0.757  0.2473E-02  0.5967E-01
     -0.671  0.1989E-02  0.5984E-01
     -0.585  0.1113E-02  0.5994E-01
     -0.499  0.5762E-03  0.5999E-01
     -0.413  0.1382E-03  0.6000E-01
     -0.327  0.3182E-06  0.6000E-01
     -0.241  0.2905E-11  0.6000E-01
     -0.154  0.8368E-19  0.6000E-01
     -0.068  0.0000E+00  0.6000E-01
      0.018  0.0000E+00  0.6000E-01
      0.104  0.0000E+00  0.6000E-01
      0.190  0.0000E+00  0.6000E-01
      0.276  0.0000E+00  0.6000E-01
      0.363  0.2092E-19  0.6000E-01
      0.449  0.9368E-12  0.6000E-01
      0.535  0.1218E-06  0.6000E-01
      0.621  0.6212E-04  0.6001E-01
      0.707  0.3961E-03  0.6004E-01
      0.793  0.1188E-02  0.6014E-01
      0.879  0.1994E-02  0.6031E-01
      0.966  0.2438E-02  0.6052E-01
      1.052  0.5883E-02  0.6103E-01
      1.138  0.7945E-02  0.6171E-01
      1.224  0.1308E-01  0.6284E-01
      1.310  0.1536E-01  0.6417E-01
      1.396  0.1305E-01  0.6529E-01
      1.483  0.1061E-01  0.6620E-01
      1.569  0.2445E-01  0.6831E-01
      1.655  0.3073E-01  0.7096E-01
      1.741  0.1970E-01  0.7266E-01
      1.827  0.2446E-01  0.7476E-01
      1.913  0.2267E-01  0.7672E-01
      1.999  0.1904E-01  0.7836E-01
      2.086  0.2254E-01  0.8030E-01
      2.172  0.1711E-01  0.8177E-01
      2.258  0.1730E-01  0.8326E-01
      2.344  0.2210E-01  0.8517E-01
      2.430  0.1468E-01  0.8643E-01
      2.516  0.2192E-01  0.8832E-01
      2.603  0.2491E-01  0.9047E-01
      2.689  0.2099E-01  0.9227E-01
      2.775  0.2444E-01  0.9438E-01
      2.861  0.1706E-01  0.9585E-01
      2.947  0.1094E-01  0.9679E-01
      3.033  0.2278E-01  0.9875E-01
      3.119  0.2114E-01  0.1006E+00
      3.206  0.2163E-01  0.1024E+00
      3.292  0.1686E-01  0.1039E+00
      3.378  0.1542E-01  0.1052E+00
      3.464  0.1325E-01  0.1064E+00
      3.550  0.1517E-01  0.1077E+00
      3.636  0.1673E-01  0.1091E+00
      3.723  0.1926E-01  0.1108E+00
      3.809  0.2780E-01  0.1132E+00
      3.895  0.3199E-01  0.1159E+00
      3.981  0.2240E-01  0.1179E+00
      4.067  0.1675E-01  0.1193E+00
      4.153  0.2002E-01  0.1210E+00
      4.240  0.1597E-01  0.1224E+00
      4.326  0.1449E-01  0.1236E+00
      4.412  0.2161E-01  0.1255E+00
      4.498  0.2012E-01  0.1272E+00
      4.584  0.2430E-01  0.1293E+00
      4.670  0.2979E-01  0.1319E+00
      4.756  0.2603E-01  0.1341E+00
      4.843  0.2450E-01  0.1363E+00
      4.929  0.2421E-01  0.1383E+00
      5.015  0.1652E-01  0.1398E+00
      5.101  0.2963E-01  0.1423E+00
      5.187  0.2508E-01  0.1445E+00
      5.273  0.2411E-01  0.1466E+00
      5.360  0.2683E-01  0.1489E+00
      5.446  0.2268E-01  0.1508E+00
      5.532  0.1823E-01  0.1524E+00
      5.618  0.1610E-01  0.1538E+00
      5.704  0.2437E-01  0.1559E+00
      5.790  0.2751E-01  0.1582E+00
      5.876  0.2122E-01  0.1601E+00
      5.963  0.1986E-01  0.1618E+00
      6.049  0.3678E-01  0.1650E+00
      6.135  0.3921E-01  0.1683E+00
      6.221  0.2068E-01  0.1701E+00
      6.307  0.1792E-01  0.1717E+00
      6.393  0.2086E-01  0.1735E+00
      6.480  0.3302E-01  0.1763E+00
      6.566  0.2613E-01  0.1786E+00
      6.652  0.3132E-01  0.1813E+00
      6.738  0.1980E-01  0.1830E+00
      6.824  0.2676E-01  0.1853E+00
      6.910  0.3101E-01  0.1879E+00
      6.996  0.2982E-01  0.1905E+00
      7.083  0.3130E-01  0.1932E+00
      7.169  0.3060E-01  0.1958E+00
      7.255  0.2547E-01  0.1980E+00
      7.341  0.2608E-01  0.2003E+00
      7.427  0.2546E-01  0.2025E+00
      7.513  0.3822E-01  0.2058E+00
      7.600  0.3358E-01  0.2087E+00
      7.686  0.2183E-01  0.2105E+00
      7.772  0.1879E-01  0.2122E+00
      7.858  0.2277E-01  0.2141E+00
      7.944  0.2015E-01  0.2159E+00
      8.030  0.4028E-01  0.2193E+00
      8.116  0.2971E-01  0.2219E+00
      8.203  0.3349E-01  0.2248E+00
      8.289  0.3167E-01  0.2275E+00
      8.375  0.2778E-01  0.2299E+00
      8.461  0.2828E-01  0.2323E+00
      8.547  0.1853E-01  0.2339E+00
      8.633  0.2057E-01  0.2357E+00
      8.720  0.1278E-01  0.2368E+00
      8.806  0.9211E-02  0.2376E+00
      8.892  0.3820E-02  0.2379E+00
      8.978  0.6748E-02  0.2385E+00
      9.064  0.6290E-02  0.2390E+00
      9.150  0.3264E-02  0.2393E+00
      9.236  0.3442E-02  0.2396E+00
      9.323  0.4270E-02  0.2400E+00
      9.409  0.2404E-02  0.2402E+00
      9.495  0.1356E-02  0.2403E+00
      9.581  0.9837E-03  0.2404E+00
      9.667  0.2107E-02  0.2406E+00
      9.753  0.1065E-02  0.2407E+00
      9.840  0.1023E-02  0.2408E+00
      9.926  0.2385E-03  0.2408E+00
     10.012  0.1511E-03  0.2408E+00
     10.098  0.3563E-02  0.2411E+00
     10.184  0.3750E-02  0.2414E+00
     10.270  0.1592E-02  0.2416E+00
     10.356  0.3758E-02  0.2419E+00
     10.443  0.2539E-02  0.2421E+00
     10.529  0.1569E-02  0.2422E+00
     10.615  0.5713E-03  0.2423E+00
     10.701  0.4960E-02  0.2427E+00
     10.787  0.7339E-02  0.2433E+00
     10.873  0.4235E-02  0.2437E+00
     10.960  0.2609E-02  0.2439E+00
     11.046  0.9024E-03  0.2440E+00
     11.132  0.3612E-02  0.2443E+00
     11.218  0.3515E-02  0.2446E+00
     11.304  0.1032E-01  0.2455E+00
     11.390  0.1133E-01  0.2465E+00
     11.477  0.5973E-02  0.2470E+00
     11.563  0.4298E-02  0.2474E+00
     11.649  0.7431E-02  0.2480E+00
     11.735  0.1018E-01  0.2489E+00
     11.821  0.1307E-01  0.2500E+00
     11.907  0.1508E-01  0.2513E+00
     11.993  0.1269E-01  0.2524E+00
     12.080  0.1151E-01  0.2534E+00
     12.166  0.1270E-01  0.2545E+00
     12.252  0.2297E-01  0.2565E+00
     12.338  0.1375E-01  0.2577E+00
     12.424  0.1518E-01  0.2590E+00
     12.510  0.1342E-01  0.2601E+00
     12.597  0.1617E-01  0.2615E+00
     12.683  0.2366E-01  0.2636E+00
     12.769  0.1373E-01  0.2647E+00
     12.855  0.1765E-01  0.2663E+00
     12.941  0.1867E-01  0.2679E+00
     13.027  0.1981E-01  0.2696E+00
     13.113  0.1969E-01  0.2713E+00
     13.200  0.2323E-01  0.2733E+00
     13.286  0.1472E-01  0.2745E+00
     13.372  0.1950E-01  0.2762E+00
     13.458  0.2662E-01  0.2785E+00
     13.544  0.2080E-01  0.2803E+00
     13.630  0.2164E-01  0.2822E+00
     13.717  0.1616E-01  0.2836E+00
     13.803  0.2623E-01  0.2858E+00
     13.889  0.2449E-01  0.2879E+00
     13.975  0.2635E-01  0.2902E+00
     14.061  0.2156E-01  0.2921E+00
     14.147  0.2686E-01  0.2944E+00
     14.233  0.2790E-01  0.2968E+00
     14.320  0.2644E-01  0.2991E+00
     14.406  0.3185E-01  0.3018E+00
     14.492  0.2399E-01  0.3039E+00
     14.578  0.2438E-01  0.3060E+00
     14.664  0.3316E-01  0.3088E+00
     14.750  0.2915E-01  0.3113E+00
     14.837  0.2589E-01  0.3136E+00
     14.923  0.2607E-01  0.3158E+00
     15.009  0.3240E-01  0.3186E+00
     15.095  0.3625E-01  0.3217E+00
     15.181  0.3117E-01  0.3244E+00
     15.267  0.3525E-01  0.3275E+00
     15.353  0.2074E-01  0.3292E+00
     15.440  0.2045E-01  0.3310E+00
     15.526  0.2564E-01  0.3332E+00
     15.612  0.2897E-01  0.3357E+00
     15.698  0.2787E-01  0.3381E+00
     15.784  0.2274E-01  0.3401E+00
     15.870  0.1876E-01  0.3417E+00
     15.957  0.2752E-01  0.3441E+00
     16.043  0.2810E-01  0.3465E+00
     16.129  0.2144E-01  0.3483E+00
     16.215  0.2254E-01  0.3503E+00
     16.301  0.2581E-01  0.3525E+00
     16.387  0.2089E-01  0.3543E+00
     16.473  0.1642E-01  0.3557E+00
     16.560  0.1556E-01  0.3570E+00
     16.646  0.1081E-01  0.3580E+00
     16.732  0.9561E-02  0.3588E+00
     16.818  0.7113E-02  0.3594E+00
     16.904  0.1824E-02  0.3596E+00
     16.990  0.2665E-02  0.3598E+00
     17.077  0.1132E-02  0.3599E+00
     17.163  0.1141E-02  0.3600E+00
     17.249  0.9113E-04  0.3600E+00
     17.335  0.5032E-07  0.3600E+00
     17.421  0.9981E-13  0.3600E+00
     17.507  0.0000E+00  0.3600E+00
     17.594  0.0000E+00  0.3600E+00
     17.680  0.0000E+00  0.3600E+00
     17.766  0.0000E+00  0.3600E+00
     17.852  0.0000E+00  0.3600E+00
     17.938  0.0000E+00  0.3600E+00
     18.024  0.0000E+00  0.3600E+00
     18.110  0.0000E+00  0.3600E+00
     18.197  0.0000E+00  0.3600E+00
     18.283  0.0000E+00  0.3600E+00
