       N       E                     dE             d eps       ncg     rms          rms(c)
DAV:   1    -0.131765281799E+03   -0.13177E+03   -0.42798E+01  6468   0.234E+01    0.187E+01
DAV:   2    -0.113601775124E+03    0.18164E+02   -0.28457E+01  6240   0.195E+01    0.690E+00
DAV:   3    -0.114040641779E+03   -0.43887E+00   -0.25443E+00  6504   0.679E+00    0.521E+00
DAV:   4    -0.114203093019E+03   -0.16245E+00   -0.12707E-01  6684   0.175E+00    0.340E+00
DAV:   5    -0.114261552999E+03   -0.58460E-01   -0.82250E-02  6204   0.166E+00    0.311E-01
DAV:   6    -0.114264903164E+03   -0.33502E-02   -0.37134E-03  6648   0.360E-01    0.210E-01
DAV:   7    -0.114265285864E+03   -0.38270E-03   -0.75853E-04  6528   0.138E-01    0.141E-01
DAV:   8    -0.114265679011E+03   -0.39315E-03   -0.37664E-04  6324   0.115E-01    0.484E-02
DAV:   9    -0.114265756714E+03   -0.77703E-04   -0.12898E-04  6528   0.701E-02    0.129E-02
DAV:  10    -0.114265758928E+03   -0.22142E-05   -0.38044E-06  3804   0.115E-02
   1 F= -.11426576E+03 E0= -.11426550E+03  d E =-.114266E+03
       N       E                     dE             d eps       ncg     rms          rms(c)
DAV:   1    -0.114301983366E+03   -0.36227E-01   -0.17899E+00  6168   0.717E+00    0.131E+00
DAV:   2    -0.114277038996E+03    0.24944E-01   -0.11573E-01  6468   0.148E+00    0.695E-01
DAV:   3    -0.114277525833E+03   -0.48684E-03   -0.14598E-02  6504   0.503E-01    0.292E-01
DAV:   4    -0.114277775642E+03   -0.24981E-03   -0.67543E-04  6444   0.145E-01    0.126E-01
DAV:   5    -0.114277843535E+03   -0.67893E-04   -0.12171E-04  6504   0.686E-02    0.666E-02
DAV:   6    -0.114277854246E+03   -0.10711E-04   -0.50853E-05  6216   0.363E-02    0.274E-02
DAV:   7    -0.114277850021E+03    0.42255E-05   -0.57327E-06  3492   0.110E-02
   2 F= -.11427785E+03 E0= -.11427748E+03  d E =-.120911E-01
       N       E                     dE             d eps       ncg     rms          rms(c)
DAV:   1    -0.114306104164E+03   -0.28250E-01   -0.34678E-01  6144   0.311E+00    0.592E-01
DAV:   2    -0.114301364886E+03    0.47393E-02   -0.24096E-02  6420   0.667E-01    0.309E-01
DAV:   3    -0.114301521346E+03   -0.15646E-03   -0.25066E-03  6444   0.216E-01    0.136E-01
DAV:   4    -0.114301515237E+03    0.61088E-05   -0.15102E-04  6360   0.697E-02    0.556E-02
DAV:   5    -0.114301536645E+03   -0.21408E-04   -0.19127E-05  4680   0.302E-02    0.274E-02
DAV:   6    -0.114301530839E+03    0.58056E-05   -0.68260E-06  3288   0.175E-02
   3 F= -.11430153E+03 E0= -.11430121E+03  d E =-.357719E-01
       N       E                     dE             d eps       ncg     rms          rms(c)
DAV:   1    -0.114301532768E+03    0.38773E-05   -0.34367E-06  3120   0.105E-02    0.392E-03
DAV:   2    -0.114301532918E+03   -0.14986E-06   -0.43419E-07  2880   0.377E-03
   4 F= -.11430153E+03 E0= -.11430121E+03  d E =-.357740E-01
       N       E                     dE             d eps       ncg     rms          rms(c)
DAV:   1    -0.114301533117E+03   -0.34909E-06   -0.15014E-06  2772   0.683E-03    0.303E-03
DAV:   2    -0.114301533020E+03    0.96467E-07   -0.14025E-07  2760   0.214E-03
   5 F= -.11430153E+03 E0= -.11430121E+03  d E =-.357741E-01
       N       E                     dE             d eps       ncg     rms          rms(c)
DAV:   1    -0.114301839595E+03   -0.30648E-03   -0.91139E-03  5208   0.483E-01    0.182E-02
DAV:   2    -0.114301847490E+03   -0.78953E-05   -0.17655E-04  6852   0.664E-02    0.133E-02
DAV:   3    -0.114301841930E+03    0.55599E-05   -0.10390E-05  4260   0.185E-02
   6 F= -.11430184E+03 E0= -.11430151E+03  d E =-.308910E-03
       N       E                     dE             d eps       ncg     rms          rms(c)
DAV:   1    -0.114301988799E+03   -0.14131E-03   -0.17368E-02  5208   0.668E-01    0.255E-02
DAV:   2    -0.114302005433E+03   -0.16635E-04   -0.32255E-04  6864   0.900E-02    0.187E-02
DAV:   3    -0.114301995879E+03    0.95537E-05   -0.20957E-05  4836   0.261E-02
   7 F= -.11430200E+03 E0= -.11430166E+03  d E =-.462859E-03
       N       E                     dE             d eps       ncg     rms          rms(c)
DAV:   1    -0.114302139311E+03   -0.13388E-03   -0.86407E-03  5184   0.489E-01    0.155E-02
DAV:   2    -0.114302151168E+03   -0.11857E-04   -0.17320E-04  6852   0.646E-02    0.120E-02
DAV:   3    -0.114302147941E+03    0.32271E-05   -0.48268E-06  3576   0.151E-02
   8 F= -.11430215E+03 E0= -.11430180E+03  d E =-.152061E-03
       N       E                     dE             d eps       ncg     rms          rms(c)
DAV:   1    -0.114302213520E+03   -0.62352E-04   -0.26048E-02  5184   0.850E-01    0.276E-02
DAV:   2    -0.114302247175E+03   -0.33655E-04   -0.44842E-04  6876   0.105E-01    0.202E-02
DAV:   3    -0.114302239172E+03    0.80027E-05   -0.16937E-05  4692   0.278E-02
   9 F= -.11430224E+03 E0= -.11430187E+03  d E =-.243292E-03
       N       E                     dE             d eps       ncg     rms          rms(c)
DAV:   1    -0.114302322116E+03   -0.74942E-04   -0.72194E-03  5184   0.456E-01    0.138E-02
DAV:   2    -0.114302328884E+03   -0.67678E-05   -0.80697E-05  6948   0.450E-02
  10 F= -.11430233E+03 E0= -.11430195E+03  d E =-.897120E-04
