Al4C3 Pbam polymorph (findsym-output) - 
   1.00000000000000     
     9.0566422846240506    0.0000000000000000    0.0000000000000000
     0.0000000000000000    5.2293835261696859    0.0000000000000000
     0.0000000000000000    0.0000000000000000    3.0977367561939881
   Al   C 
     8     6
Direct
  0.7846720435396047  0.1531142601818623 -0.0000000000000000
  0.2153279564603954  0.8468857398181378  0.0000000000000000
  0.7153279564603953  0.6531142601818622 -0.0000000000000000
  0.2846720435396045  0.3468857398181377  0.0000000000000000
  0.0250541557709346  0.2542515312388905  0.5000000000000000
  0.9749458682290674  0.7457484687611025  0.5000000000000000
  0.4749458382290650  0.7542515312388975  0.5000000000000000
  0.5250541317709326  0.2457484687611024  0.5000000000000000
  0.0000000000000000 -0.0000000000000000  0.0000000000000000
  0.5000000000000000  0.5000000000000000  0.0000000000000000
  0.8272803098748985  0.4538044740481856  0.5000000000000000
  0.1727196901251014  0.5461955259518143  0.5000000000000000
  0.6727196901251015  0.9538044740481857  0.5000000000000000
  0.3272803098748985  0.0461955259518144  0.5000000000000000
 
  0.00000000E+00  0.00000000E+00  0.00000000E+00
  0.00000000E+00  0.00000000E+00  0.00000000E+00
  0.00000000E+00  0.00000000E+00  0.00000000E+00
  0.00000000E+00  0.00000000E+00  0.00000000E+00
  0.00000000E+00  0.00000000E+00  0.00000000E+00
  0.00000000E+00  0.00000000E+00  0.00000000E+00
  0.00000000E+00  0.00000000E+00  0.00000000E+00
  0.00000000E+00  0.00000000E+00  0.00000000E+00
  0.00000000E+00  0.00000000E+00  0.00000000E+00
  0.00000000E+00  0.00000000E+00  0.00000000E+00
  0.00000000E+00  0.00000000E+00  0.00000000E+00
  0.00000000E+00  0.00000000E+00  0.00000000E+00
  0.00000000E+00  0.00000000E+00  0.00000000E+00
  0.00000000E+00  0.00000000E+00  0.00000000E+00
