       N       E                     dE             d eps       ncg     rms          rms(c)
DAV:   1    -0.149946585050E+03   -0.14995E+03   -0.60037E-05  2496   0.681E-02    0.115E-02
DAV:   2    -0.149946588478E+03   -0.34285E-05   -0.38104E-07  1404   0.512E-03
   1 F= -.42985031E+02 E0= -.42985031E+02  d E =-.429850E+02
       N       E                     dE             d eps       ncg     rms          rms(c)
DAV:   1    -0.142482808464E+03    0.74638E+01   -0.12348E+01  2892   0.150E+01    0.373E+00
DAV:   2    -0.142218740339E+03    0.26407E+00   -0.68209E-01  3072   0.274E+00    0.177E+00
DAV:   3    -0.142196414493E+03    0.22326E-01   -0.87202E-02  3072   0.913E-01    0.531E-01
DAV:   4    -0.142193024047E+03    0.33904E-02   -0.51994E-03  3060   0.221E-01    0.171E-01
DAV:   5    -0.142192571150E+03    0.45290E-03   -0.75760E-04  3036   0.892E-02    0.114E-01
DAV:   6    -0.142192539248E+03    0.31902E-04   -0.84863E-05  2880   0.287E-02    0.127E-02
DAV:   7    -0.142192535825E+03    0.34232E-05   -0.13546E-05  1572   0.120E-02
   2 F= -.42434093E+02 E0= -.42434093E+02  d E =0.550939E+00
       N       E                     dE             d eps       ncg     rms          rms(c)
DAV:   1    -0.147920945320E+03   -0.57284E+01   -0.55914E+00  2904   0.977E+00    0.256E+00
DAV:   2    -0.147795085332E+03    0.12586E+00   -0.32950E-01  3084   0.187E+00    0.119E+00
DAV:   3    -0.147785059779E+03    0.10026E-01   -0.39502E-02  3048   0.605E-01    0.363E-01
DAV:   4    -0.147783267683E+03    0.17921E-02   -0.26575E-03  3060   0.154E-01    0.114E-01
DAV:   5    -0.147782962296E+03    0.30539E-03   -0.47830E-04  3030   0.683E-02    0.748E-02
DAV:   6    -0.147782929276E+03    0.33020E-04   -0.57815E-05  2862   0.232E-02    0.109E-02
DAV:   7    -0.147782930030E+03   -0.75360E-06   -0.82997E-06  1566   0.931E-03
   3 F= -.43133902E+02 E0= -.43133902E+02  d E =-.148871E+00
       N       E                     dE             d eps       ncg     rms          rms(c)
DAV:   1    -0.147748662485E+03    0.34267E-01   -0.25845E-04  2844   0.664E-02    0.160E-02
DAV:   2    -0.147748659889E+03    0.25956E-05   -0.11877E-05  1542   0.117E-02
   4 F= -.43133939E+02 E0= -.43133939E+02  d E =-.148908E+00
       N       E                     dE             d eps       ncg     rms          rms(c)
DAV:   1    -0.147744143536E+03    0.45189E-02   -0.20329E-06  1434   0.583E-03    0.443E-03
DAV:   2    -0.147744144107E+03   -0.57124E-06   -0.30297E-07  1446   0.169E-03
   5 F= -.43133940E+02 E0= -.43133940E+02  d E =-.148909E+00
       N       E                     dE             d eps       ncg     rms          rms(c)
DAV:   1    -0.147745994627E+03   -0.18511E-02   -0.92713E-07  1416   0.413E-03    0.856E-04
DAV:   2    -0.147745994618E+03    0.94478E-08   -0.48261E-08  1362   0.895E-04
   6 F= -.43133941E+02 E0= -.43133941E+02  d E =-.148910E+00
       N       E                     dE             d eps       ncg     rms          rms(c)
DAV:   1    -0.147722642906E+03    0.23352E-01   -0.20252E-02  2664   0.548E-01    0.600E-02
DAV:   2    -0.147722567802E+03    0.75104E-04   -0.49217E-04  3210   0.822E-02    0.269E-02
DAV:   3    -0.147722558158E+03    0.96439E-05   -0.43929E-05  2970   0.221E-02
   7 F= -.43136318E+02 E0= -.43136318E+02  d E =-.237685E-02
       N       E                     dE             d eps       ncg     rms          rms(c)
DAV:   1    -0.147702500984E+03    0.20067E-01   -0.13058E-02  2688   0.439E-01    0.505E-02
DAV:   2    -0.147702447461E+03    0.53523E-04   -0.32077E-04  3246   0.661E-02    0.235E-02
DAV:   3    -0.147702440541E+03    0.69200E-05   -0.28656E-05  2154   0.185E-02
   8 F= -.43136903E+02 E0= -.43136903E+02  d E =-.296199E-02
