Al4C3 anti-CaFe2O4-type, volume pre-scal
   1.00000000000000     
     2.9849569738690840    0.0000000000000000    0.0000000000000000
     0.0000000000000000    9.1190686149289704    0.0000000000000000
     0.0000000000000000    0.0000000000000000   10.5782706373208946
   Al   C 
    16    12
Direct
  0.2500000000000000  0.4143757205900865  0.5808811000660039
  0.7500000000000000  0.5856242794099134  0.4191188999339962
  0.2500000000000000  0.9143757205900866  0.9191188999339961
  0.7500000000000000  0.0856242794099135  0.0808811000660038
  0.2500000000000000  0.4889073168417404  0.2054849618166267
  0.7500000000000000  0.5110926831582596  0.7945150381833734
  0.2500000000000000  0.9889073168417404  0.2945150381833733
  0.7500000000000000  0.0110926831582595  0.7054849618166266
  0.2500000000000000  0.1351826616683415  0.5211982753998029
  0.7500000000000000  0.8648173383316513  0.4788017246001971
  0.2500000000000000  0.6351826616683487  0.9788017246001971
  0.7500000000000000  0.3648173383316585  0.0211982753998029
  0.7500000000000000  0.2771309903725866  0.3070272164600012
  0.2500000000000000  0.7228690096274133  0.6929727835399988
  0.2500000000000000  0.2228690096274134  0.8070272164600012
  0.7500000000000000  0.7771309903725867  0.1929727835399988
  0.7500000000000000  0.7411534118017529  0.8617352402199344
  0.2500000000000000  0.2588465881982471  0.1382647597800656
  0.7500000000000000  0.2411534118017528  0.6382647597800656
  0.2500000000000000  0.7588465881982471  0.3617352402199344
  0.2500000000000000  0.9220718763994931  0.6119685723389470
  0.7500000000000000  0.5779281236005069  0.1119685723389469
  0.2500000000000000  0.4220718763994930  0.8880314276610530
  0.7500000000000000  0.0779281236005070  0.3880314276610531
  0.7500000000000000  0.0804743219351053  0.8841015250021529
  0.2500000000000000  0.9195256780648946  0.1158984749978471
  0.7500000000000000  0.5804743219351054  0.6158984749978471
  0.2500000000000000  0.4195256780648947  0.3841015250021529
 
  0.00000000E+00  0.00000000E+00  0.00000000E+00
  0.00000000E+00  0.00000000E+00  0.00000000E+00
  0.00000000E+00  0.00000000E+00  0.00000000E+00
  0.00000000E+00  0.00000000E+00  0.00000000E+00
  0.00000000E+00  0.00000000E+00  0.00000000E+00
  0.00000000E+00  0.00000000E+00  0.00000000E+00
  0.00000000E+00  0.00000000E+00  0.00000000E+00
  0.00000000E+00  0.00000000E+00  0.00000000E+00
  0.00000000E+00  0.00000000E+00  0.00000000E+00
  0.00000000E+00  0.00000000E+00  0.00000000E+00
  0.00000000E+00  0.00000000E+00  0.00000000E+00
  0.00000000E+00  0.00000000E+00  0.00000000E+00
  0.00000000E+00  0.00000000E+00  0.00000000E+00
  0.00000000E+00  0.00000000E+00  0.00000000E+00
  0.00000000E+00  0.00000000E+00  0.00000000E+00
  0.00000000E+00  0.00000000E+00  0.00000000E+00
  0.00000000E+00  0.00000000E+00  0.00000000E+00
  0.00000000E+00  0.00000000E+00  0.00000000E+00
  0.00000000E+00  0.00000000E+00  0.00000000E+00
  0.00000000E+00  0.00000000E+00  0.00000000E+00
  0.00000000E+00  0.00000000E+00  0.00000000E+00
  0.00000000E+00  0.00000000E+00  0.00000000E+00
  0.00000000E+00  0.00000000E+00  0.00000000E+00
  0.00000000E+00  0.00000000E+00  0.00000000E+00
  0.00000000E+00  0.00000000E+00  0.00000000E+00
  0.00000000E+00  0.00000000E+00  0.00000000E+00
  0.00000000E+00  0.00000000E+00  0.00000000E+00
  0.00000000E+00  0.00000000E+00  0.00000000E+00
