  28  28   0   0
  0.1028609E+02  0.2985198E-09  0.9119804E-09  0.1057912E-08  0.5000000E-15
  1.000000000000000E-004
  CAR 
 Al4C3 anti-CaFe2O4 - relax @ 0 GPa (ISIF
     16.37531417     -6.60458595  301      9.82255327      1.00000000
     -6.605  0.0000E+00  0.0000E+00
     -6.528  0.0000E+00  0.0000E+00
     -6.451  0.0000E+00  0.0000E+00
     -6.375  0.0000E+00  0.0000E+00
     -6.298  0.0000E+00  0.0000E+00
     -6.222  0.0000E+00  0.0000E+00
     -6.145  0.0000E+00  0.0000E+00
     -6.068  0.0000E+00  0.0000E+00
     -5.992  0.0000E+00  0.0000E+00
     -5.915  0.0000E+00  0.0000E+00
     -5.839  0.7633E-19  0.5847E-20
     -5.762  0.3980E-12  0.3049E-13
     -5.685  0.2547E-07  0.1951E-08
     -5.609  0.2639E-04  0.2024E-05
     -5.532  0.8881E-03  0.7006E-04
     -5.456  0.3387E-02  0.3295E-03
     -5.379  0.5331E-02  0.7378E-03
     -5.302  0.6814E-02  0.1260E-02
     -5.226  0.8220E-02  0.1889E-02
     -5.149  0.9910E-02  0.2649E-02
     -5.073  0.1186E-01  0.3557E-02
     -4.996  0.1199E-01  0.4476E-02
     -4.919  0.1135E-01  0.5345E-02
     -4.843  0.1072E-01  0.6166E-02
     -4.766  0.9911E-02  0.6925E-02
     -4.690  0.8843E-02  0.7603E-02
     -4.613  0.9565E-02  0.8335E-02
     -4.536  0.1120E-01  0.9193E-02
     -4.460  0.1275E-01  0.1017E-01
     -4.383  0.1524E-01  0.1134E-01
     -4.307  0.1634E-01  0.1259E-01
     -4.230  0.1590E-01  0.1381E-01
     -4.153  0.1583E-01  0.1502E-01
     -4.077  0.1644E-01  0.1628E-01
     -4.000  0.1686E-01  0.1757E-01
     -3.924  0.1721E-01  0.1889E-01
     -3.847  0.1738E-01  0.2022E-01
     -3.770  0.1767E-01  0.2157E-01
     -3.694  0.1794E-01  0.2295E-01
     -3.617  0.1848E-01  0.2436E-01
     -3.541  0.1954E-01  0.2586E-01
     -3.464  0.2073E-01  0.2745E-01
     -3.387  0.2148E-01  0.2909E-01
     -3.311  0.2195E-01  0.3077E-01
     -3.234  0.2228E-01  0.3248E-01
     -3.158  0.2263E-01  0.3421E-01
     -3.081  0.2386E-01  0.3604E-01
     -3.004  0.2493E-01  0.3795E-01
     -2.928  0.2595E-01  0.3994E-01
     -2.851  0.2750E-01  0.4205E-01
     -2.775  0.2815E-01  0.4420E-01
     -2.698  0.2769E-01  0.4632E-01
     -2.621  0.2856E-01  0.4851E-01
     -2.545  0.3134E-01  0.5091E-01
     -2.468  0.3372E-01  0.5349E-01
     -2.392  0.3672E-01  0.5631E-01
     -2.315  0.3964E-01  0.5934E-01
     -2.238  0.4038E-01  0.6244E-01
     -2.162  0.3908E-01  0.6543E-01
     -2.085  0.4030E-01  0.6852E-01
     -2.009  0.4131E-01  0.7168E-01
     -1.932  0.4208E-01  0.7490E-01
     -1.855  0.4858E-01  0.7863E-01
     -1.779  0.5659E-01  0.8296E-01
     -1.702  0.5199E-01  0.8694E-01
     -1.626  0.4698E-01  0.9054E-01
     -1.549  0.5385E-01  0.9467E-01
     -1.472  0.4271E-01  0.9794E-01
     -1.396  0.2185E-01  0.9961E-01
     -1.319  0.1818E-01  0.1010E+00
     -1.243  0.1652E-01  0.1023E+00
     -1.166  0.1559E-01  0.1035E+00
     -1.089  0.1510E-01  0.1046E+00
     -1.013  0.1487E-01  0.1058E+00
     -0.936  0.1488E-01  0.1069E+00
     -0.860  0.1516E-01  0.1081E+00
     -0.783  0.1595E-01  0.1093E+00
     -0.706  0.1809E-01  0.1107E+00
     -0.630  0.1909E-01  0.1121E+00
     -0.553  0.1653E-01  0.1134E+00
     -0.477  0.1479E-01  0.1145E+00
     -0.400  0.1337E-01  0.1156E+00
     -0.323  0.1306E-01  0.1166E+00
     -0.247  0.1341E-01  0.1176E+00
     -0.170  0.1234E-01  0.1185E+00
     -0.094  0.1148E-01  0.1194E+00
     -0.017  0.7028E-02  0.1199E+00
      0.060  0.7105E-03  0.1200E+00
      0.136  0.2910E-05  0.1200E+00
      0.213  0.2063E-09  0.1200E+00
      0.289  0.1807E-15  0.1200E+00
      0.366  0.0000E+00  0.1200E+00
      0.443  0.0000E+00  0.1200E+00
      0.519  0.0000E+00  0.1200E+00
      0.596  0.0000E+00  0.1200E+00
      0.672  0.7322E-20  0.1200E+00
      0.749  0.5745E-13  0.1200E+00
      0.826  0.4953E-08  0.1200E+00
      0.902  0.7047E-05  0.1200E+00
      0.979  0.3418E-03  0.1200E+00
      1.055  0.2309E-02  0.1202E+00
      1.132  0.4992E-02  0.1206E+00
      1.209  0.6171E-02  0.1211E+00
      1.285  0.7212E-02  0.1216E+00
      1.362  0.9859E-02  0.1224E+00
      1.438  0.1390E-01  0.1234E+00
      1.515  0.1809E-01  0.1248E+00
      1.592  0.2285E-01  0.1266E+00
      1.668  0.2822E-01  0.1287E+00
      1.745  0.3402E-01  0.1313E+00
      1.821  0.3844E-01  0.1343E+00
      1.898  0.3749E-01  0.1372E+00
      1.975  0.3548E-01  0.1399E+00
      2.051  0.3856E-01  0.1428E+00
      2.128  0.3897E-01  0.1458E+00
      2.204  0.4046E-01  0.1489E+00
      2.281  0.4331E-01  0.1522E+00
      2.358  0.4543E-01  0.1557E+00
      2.434  0.4760E-01  0.1594E+00
      2.511  0.4514E-01  0.1628E+00
      2.587  0.4356E-01  0.1661E+00
      2.664  0.4201E-01  0.1694E+00
      2.741  0.4008E-01  0.1724E+00
      2.817  0.4102E-01  0.1756E+00
      2.894  0.4234E-01  0.1788E+00
      2.970  0.4117E-01  0.1820E+00
      3.047  0.3908E-01  0.1850E+00
      3.124  0.3905E-01  0.1880E+00
      3.200  0.3911E-01  0.1910E+00
      3.277  0.4036E-01  0.1940E+00
      3.353  0.4082E-01  0.1972E+00
      3.430  0.3854E-01  0.2001E+00
      3.507  0.3712E-01  0.2030E+00
      3.583  0.3980E-01  0.2060E+00
      3.660  0.4145E-01  0.2092E+00
      3.736  0.4166E-01  0.2124E+00
      3.813  0.3755E-01  0.2153E+00
      3.890  0.3703E-01  0.2181E+00
      3.966  0.3614E-01  0.2209E+00
      4.043  0.3729E-01  0.2237E+00
      4.119  0.3937E-01  0.2267E+00
      4.196  0.4052E-01  0.2298E+00
      4.273  0.3931E-01  0.2329E+00
      4.349  0.4006E-01  0.2359E+00
      4.426  0.4142E-01  0.2391E+00
      4.502  0.4289E-01  0.2424E+00
      4.579  0.4520E-01  0.2458E+00
      4.656  0.4525E-01  0.2493E+00
      4.732  0.4660E-01  0.2529E+00
      4.809  0.4696E-01  0.2565E+00
      4.885  0.4767E-01  0.2601E+00
      4.962  0.4809E-01  0.2638E+00
      5.039  0.5061E-01  0.2677E+00
      5.115  0.5071E-01  0.2716E+00
      5.192  0.5118E-01  0.2755E+00
      5.268  0.5325E-01  0.2796E+00
      5.345  0.5310E-01  0.2836E+00
      5.422  0.5138E-01  0.2876E+00
      5.498  0.4825E-01  0.2913E+00
      5.575  0.4615E-01  0.2948E+00
      5.651  0.4574E-01  0.2983E+00
      5.728  0.4781E-01  0.3020E+00
      5.805  0.4932E-01  0.3057E+00
      5.881  0.4791E-01  0.3094E+00
      5.958  0.4454E-01  0.3128E+00
      6.034  0.4251E-01  0.3161E+00
      6.111  0.4583E-01  0.3196E+00
      6.188  0.5141E-01  0.3235E+00
      6.264  0.5276E-01  0.3276E+00
      6.341  0.5586E-01  0.3319E+00
      6.417  0.5686E-01  0.3362E+00
      6.494  0.5612E-01  0.3405E+00
      6.571  0.5630E-01  0.3448E+00
      6.647  0.5324E-01  0.3489E+00
      6.724  0.5502E-01  0.3531E+00
      6.800  0.5599E-01  0.3574E+00
      6.877  0.5112E-01  0.3613E+00
      6.954  0.4429E-01  0.3647E+00
      7.030  0.3929E-01  0.3677E+00
      7.107  0.3991E-01  0.3708E+00
      7.183  0.3972E-01  0.3738E+00
      7.260  0.4513E-01  0.3773E+00
      7.337  0.5433E-01  0.3814E+00
      7.413  0.6465E-01  0.3864E+00
      7.490  0.6554E-01  0.3914E+00
      7.566  0.6756E-01  0.3966E+00
      7.643  0.6948E-01  0.4019E+00
      7.720  0.6822E-01  0.4071E+00
      7.796  0.6287E-01  0.4119E+00
      7.873  0.6454E-01  0.4169E+00
      7.949  0.6926E-01  0.4222E+00
      8.026  0.7343E-01  0.4278E+00
      8.103  0.7961E-01  0.4339E+00
      8.179  0.6856E-01  0.4392E+00
      8.256  0.5228E-01  0.4432E+00
      8.332  0.5251E-01  0.4472E+00
      8.409  0.6334E-01  0.4521E+00
      8.486  0.6377E-01  0.4569E+00
      8.562  0.5464E-01  0.4611E+00
      8.639  0.4652E-01  0.4647E+00
      8.715  0.3264E-01  0.4672E+00
      8.792  0.2297E-01  0.4689E+00
      8.869  0.1651E-01  0.4702E+00
      8.945  0.1332E-01  0.4712E+00
      9.022  0.1290E-01  0.4722E+00
      9.098  0.1444E-01  0.4733E+00
      9.175  0.1432E-01  0.4744E+00
      9.252  0.1244E-01  0.4754E+00
      9.328  0.1013E-01  0.4761E+00
      9.405  0.9754E-02  0.4769E+00
      9.481  0.9635E-02  0.4776E+00
      9.558  0.9646E-02  0.4784E+00
      9.635  0.9154E-02  0.4791E+00
      9.711  0.6988E-02  0.4796E+00
      9.788  0.3990E-02  0.4799E+00
      9.864  0.2232E-02  0.4801E+00
      9.941  0.2661E-02  0.4803E+00
     10.018  0.3983E-02  0.4806E+00
     10.094  0.5775E-02  0.4810E+00
     10.171  0.7076E-02  0.4816E+00
     10.247  0.8307E-02  0.4822E+00
     10.324  0.1297E-01  0.4832E+00
     10.401  0.1912E-01  0.4847E+00
     10.477  0.2015E-01  0.4862E+00
     10.554  0.1889E-01  0.4877E+00
     10.630  0.1528E-01  0.4888E+00
     10.707  0.1323E-01  0.4898E+00
     10.784  0.1218E-01  0.4908E+00
     10.860  0.1280E-01  0.4918E+00
     10.937  0.1537E-01  0.4929E+00
     11.013  0.2297E-01  0.4947E+00
     11.090  0.2826E-01  0.4969E+00
     11.167  0.2610E-01  0.4989E+00
     11.243  0.2694E-01  0.5009E+00
     11.320  0.2779E-01  0.5031E+00
     11.396  0.2753E-01  0.5052E+00
     11.473  0.2580E-01  0.5071E+00
     11.550  0.2520E-01  0.5091E+00
     11.626  0.2525E-01  0.5110E+00
     11.703  0.2756E-01  0.5131E+00
     11.779  0.2921E-01  0.5154E+00
     11.856  0.2993E-01  0.5176E+00
     11.933  0.3079E-01  0.5200E+00
     12.009  0.3178E-01  0.5224E+00
     12.086  0.3222E-01  0.5249E+00
     12.162  0.3021E-01  0.5272E+00
     12.239  0.3073E-01  0.5296E+00
     12.316  0.4104E-01  0.5327E+00
     12.392  0.5200E-01  0.5367E+00
     12.469  0.4814E-01  0.5404E+00
     12.545  0.4323E-01  0.5437E+00
     12.622  0.4164E-01  0.5469E+00
     12.699  0.4460E-01  0.5503E+00
     12.775  0.5069E-01  0.5542E+00
     12.852  0.5461E-01  0.5584E+00
     12.928  0.5297E-01  0.5624E+00
     13.005  0.5142E-01  0.5664E+00
     13.082  0.5096E-01  0.5703E+00
     13.158  0.4985E-01  0.5741E+00
     13.235  0.4985E-01  0.5779E+00
     13.311  0.4885E-01  0.5817E+00
     13.388  0.4643E-01  0.5852E+00
     13.465  0.4305E-01  0.5885E+00
     13.541  0.4170E-01  0.5917E+00
     13.618  0.4132E-01  0.5949E+00
     13.694  0.4203E-01  0.5981E+00
     13.771  0.4625E-01  0.6016E+00
     13.848  0.4819E-01  0.6053E+00
     13.924  0.4463E-01  0.6087E+00
     14.001  0.4427E-01  0.6121E+00
     14.077  0.3904E-01  0.6151E+00
     14.154  0.3092E-01  0.6175E+00
     14.231  0.2839E-01  0.6197E+00
     14.307  0.2811E-01  0.6218E+00
     14.384  0.2516E-01  0.6237E+00
     14.460  0.2182E-01  0.6254E+00
     14.537  0.2304E-01  0.6272E+00
     14.614  0.2745E-01  0.6293E+00
     14.690  0.2537E-01  0.6312E+00
     14.767  0.2388E-01  0.6331E+00
     14.843  0.2072E-01  0.6346E+00
     14.920  0.1945E-01  0.6361E+00
     14.997  0.1809E-01  0.6375E+00
     15.073  0.1452E-01  0.6386E+00
     15.150  0.9064E-02  0.6393E+00
     15.226  0.5876E-02  0.6398E+00
     15.303  0.2692E-02  0.6400E+00
     15.380  0.2804E-03  0.6400E+00
     15.456  0.5163E-05  0.6400E+00
     15.533  0.5251E-08  0.6400E+00
     15.609  0.1061E-12  0.6400E+00
     15.686  0.2663E-19  0.6400E+00
     15.763  0.0000E+00  0.6400E+00
     15.839  0.0000E+00  0.6400E+00
     15.916  0.0000E+00  0.6400E+00
     15.992  0.0000E+00  0.6400E+00
     16.069  0.0000E+00  0.6400E+00
     16.146  0.0000E+00  0.6400E+00
     16.222  0.0000E+00  0.6400E+00
     16.299  0.0000E+00  0.6400E+00
     16.375  0.0000E+00  0.6400E+00
