       N       E                     dE             d eps       ncg     rms          rms(c)
DAV:   1     0.297070863862E+03    0.29707E+03   -0.45120E+04608256   0.148E+03
DAV:   2    -0.153145078040E+03   -0.45022E+03   -0.42609E+03771152   0.228E+02
DAV:   3    -0.188196044041E+03   -0.35051E+02   -0.34608E+02743104   0.603E+01
DAV:   4    -0.189014243948E+03   -0.81820E+00   -0.81416E+00735352   0.992E+00
DAV:   5    -0.189035235106E+03   -0.20991E-01   -0.20969E-01730848   0.157E+00    0.241E+01
DAV:   6    -0.166360710258E+03    0.22675E+02   -0.82511E+01709192   0.248E+01    0.729E+00
DAV:   7    -0.166151795834E+03    0.20891E+00   -0.50969E+00762136   0.703E+00    0.501E+00
DAV:   8    -0.166035273971E+03    0.11652E+00   -0.38207E-01710416   0.237E+00    0.102E+00
DAV:   9    -0.166021479519E+03    0.13794E-01   -0.65374E-02728688   0.926E-01    0.451E-01
DAV:  10    -0.166020595463E+03    0.88406E-03   -0.22309E-02720688   0.511E-01    0.214E-01
DAV:  11    -0.166020732730E+03   -0.13727E-03   -0.29644E-03718584   0.194E-01    0.171E-01
DAV:  12    -0.166020804119E+03   -0.71389E-04   -0.98750E-04720712   0.958E-02    0.736E-02
DAV:  13    -0.166020640971E+03    0.16315E-03   -0.90912E-04715736   0.980E-02    0.252E-02
DAV:  14    -0.166020649142E+03   -0.81705E-05   -0.12017E-04684136   0.395E-02    0.255E-02
DAV:  15    -0.166020645036E+03    0.41057E-05   -0.88705E-06411280   0.108E-02
   1 F= -.16602065E+03 E0= -.16602038E+03  d E =-.166021E+03
       N       E                     dE             d eps       ncg     rms          rms(c)
DAV:   1    -0.166020872854E+03   -0.22371E-03   -0.21636E-02658112   0.610E-01    0.380E-02
DAV:   2    -0.166020921329E+03   -0.48476E-04   -0.11119E-03743400   0.120E-01    0.334E-02
DAV:   3    -0.166020896974E+03    0.24355E-04   -0.50196E-05700600   0.304E-02    0.205E-02
DAV:   4    -0.166020890035E+03    0.69389E-05   -0.85980E-05686608   0.306E-02
   2 F= -.16602089E+03 E0= -.16602062E+03  d E =-.244999E-03
       N       E                     dE             d eps       ncg     rms          rms(c)
DAV:   1    -0.166020924966E+03   -0.27992E-04   -0.16287E-03656104   0.167E-01    0.102E-02
DAV:   2    -0.166020926382E+03   -0.14163E-05   -0.72960E-05722656   0.306E-02
   3 F= -.16602093E+03 E0= -.16602066E+03  d E =-.281346E-03
       N       E                     dE             d eps       ncg     rms          rms(c)
DAV:   1    -0.166021047484E+03   -0.12252E-03   -0.56857E-03642216   0.315E-01    0.133E-02
DAV:   2    -0.166021047336E+03    0.14852E-06   -0.99869E-05728744   0.368E-02
   4 F= -.16602105E+03 E0= -.16602078E+03  d E =-.120953E-03
       N       E                     dE             d eps       ncg     rms          rms(c)
DAV:   1    -0.166021076638E+03   -0.29154E-04   -0.32284E-03640864   0.239E-01    0.117E-02
DAV:   2    -0.166021075360E+03    0.12780E-05   -0.50720E-05679920   0.273E-02
   5 F= -.16602108E+03 E0= -.16602081E+03  d E =-.148978E-03
       N       E                     dE             d eps       ncg     rms          rms(c)
DAV:   1    -0.166021136428E+03   -0.59790E-04   -0.24454E-03635448   0.203E-01    0.109E-02
DAV:   2    -0.166021137925E+03   -0.14971E-05   -0.55621E-05674336   0.272E-02
   6 F= -.16602114E+03 E0= -.16602087E+03  d E =-.625650E-04
