Al4C3 anti-CaFe2O4-type, volume pre-scal
   1.00000000000000     
     2.9851977601492883    0.0000000000000000    0.0000000000000000
     0.0000000000000000    9.1198042190364799    0.0000000000000000
     0.0000000000000000    0.0000000000000000   10.5791239502698087
   Al   C 
    16    12
Direct
  0.2500000000000000  0.4141460999124645  0.5808471761155078
  0.7500000000000000  0.5858539000875358  0.4191528238844918
  0.2500000000000000  0.9141460999124642  0.9191528238844922
  0.7500000000000000  0.0858539000875356  0.0808471761155081
  0.2500000000000000  0.4888015321812766  0.2054091152452995
  0.7500000000000000  0.5111984678187235  0.7945908847547007
  0.2500000000000000  0.9888015321812765  0.2945908847547006
  0.7500000000000000  0.0111984678187234  0.7054091152452993
  0.2500000000000000  0.1352005443635764  0.5211172108220982
  0.7500000000000000  0.8647994556364166  0.4788827891779019
  0.2500000000000000  0.6352005443635834  0.9788827891779018
  0.7500000000000000  0.3647994556364236  0.0211172108220980
  0.7500000000000000  0.2770154958553746  0.3073460832666926
  0.2500000000000000  0.7229845041446257  0.6926539167333072
  0.2500000000000000  0.2229845041446256  0.8073460832666928
  0.7500000000000000  0.7770154958553743  0.1926539167333075
  0.7500000000000000  0.7411042025998127  0.8616526341575608
  0.2500000000000000  0.2588957974001874  0.1383473658424393
  0.7500000000000000  0.2411042025998127  0.6383473658424392
  0.2500000000000000  0.7588957974001873  0.3616526341575605
  0.2500000000000000  0.9222385305785628  0.6119442218527418
  0.7500000000000000  0.5777614694214372  0.1119442218527417
  0.2500000000000000  0.4222385305785629  0.8880557781472582
  0.7500000000000000  0.0777614694214371  0.3880557781472582
  0.7500000000000000  0.0805399517294868  0.8841891697166979
  0.2500000000000000  0.9194600482705134  0.1158108302833021
  0.7500000000000000  0.5805399517294866  0.6158108302833021
  0.2500000000000000  0.4194600482705133  0.3841891697166980
 
  0.00000000E+00  0.00000000E+00  0.00000000E+00
  0.00000000E+00  0.00000000E+00  0.00000000E+00
  0.00000000E+00  0.00000000E+00  0.00000000E+00
  0.00000000E+00  0.00000000E+00  0.00000000E+00
  0.00000000E+00  0.00000000E+00  0.00000000E+00
  0.00000000E+00  0.00000000E+00  0.00000000E+00
  0.00000000E+00  0.00000000E+00  0.00000000E+00
  0.00000000E+00  0.00000000E+00  0.00000000E+00
  0.00000000E+00  0.00000000E+00  0.00000000E+00
  0.00000000E+00  0.00000000E+00  0.00000000E+00
  0.00000000E+00  0.00000000E+00  0.00000000E+00
  0.00000000E+00  0.00000000E+00  0.00000000E+00
  0.00000000E+00  0.00000000E+00  0.00000000E+00
  0.00000000E+00  0.00000000E+00  0.00000000E+00
  0.00000000E+00  0.00000000E+00  0.00000000E+00
  0.00000000E+00  0.00000000E+00  0.00000000E+00
  0.00000000E+00  0.00000000E+00  0.00000000E+00
  0.00000000E+00  0.00000000E+00  0.00000000E+00
  0.00000000E+00  0.00000000E+00  0.00000000E+00
  0.00000000E+00  0.00000000E+00  0.00000000E+00
  0.00000000E+00  0.00000000E+00  0.00000000E+00
  0.00000000E+00  0.00000000E+00  0.00000000E+00
  0.00000000E+00  0.00000000E+00  0.00000000E+00
  0.00000000E+00  0.00000000E+00  0.00000000E+00
  0.00000000E+00  0.00000000E+00  0.00000000E+00
  0.00000000E+00  0.00000000E+00  0.00000000E+00
  0.00000000E+00  0.00000000E+00  0.00000000E+00
  0.00000000E+00  0.00000000E+00  0.00000000E+00
