Al4C3 anti-CaFe2O4 - relax @ 0 GPa (ISIF
           1
     2.985198    0.000000    0.000000
     0.000000    9.119804    0.000000
     0.000000    0.000000   10.579124
   Al   C 
    16    12
Direct configuration=     1
   0.25000000  0.41414610  0.58084718
   0.75000000  0.58585390  0.41915282
   0.25000000  0.91414610  0.91915282
   0.75000000  0.08585390  0.08084718
   0.25000000  0.48880153  0.20540912
   0.75000000  0.51119847  0.79459088
   0.25000000  0.98880153  0.29459088
   0.75000000  0.01119847  0.70540912
   0.25000000  0.13520054  0.52111721
   0.75000000  0.86479946  0.47888279
   0.25000000  0.63520054  0.97888279
   0.75000000  0.36479946  0.02111721
   0.75000000  0.27701550  0.30734608
   0.25000000  0.72298450  0.69265392
   0.25000000  0.22298450  0.80734608
   0.75000000  0.77701550  0.19265392
   0.75000000  0.74110420  0.86165263
   0.25000000  0.25889580  0.13834737
   0.75000000  0.24110420  0.63834737
   0.25000000  0.75889580  0.36165263
   0.25000000  0.92223853  0.61194422
   0.75000000  0.57776147  0.11194422
   0.25000000  0.42223853  0.88805578
   0.75000000  0.07776147  0.38805578
   0.75000000  0.08053995  0.88418917
   0.25000000  0.91946005  0.11581083
   0.75000000  0.58053995  0.61581083
   0.25000000  0.41946005  0.38418917
Al4C3 anti-CaFe2O4 - relax @ 0 GPa (ISIF
           1
     2.984774    0.000000    0.000000
     0.000000    9.118510    0.000000
     0.000000    0.000000   10.577622
   Al   C 
    16    12
Direct configuration=     2
   0.25000000  0.41426365  0.58086450
   0.75000000  0.58573635  0.41913550
   0.25000000  0.91426365  0.91913550
   0.75000000  0.08573635  0.08086450
   0.25000000  0.48872529  0.20554601
   0.75000000  0.51127471  0.79445399
   0.25000000  0.98872529  0.29445399
   0.75000000  0.01127471  0.70554601
   0.25000000  0.13519496  0.52117269
   0.75000000  0.86480504  0.47882731
   0.25000000  0.63519496  0.97882731
   0.75000000  0.36480504  0.02117269
   0.75000000  0.27715060  0.30723552
   0.25000000  0.72284940  0.69276448
   0.25000000  0.22284940  0.80723552
   0.75000000  0.77715060  0.19276448
   0.75000000  0.74112910  0.86170115
   0.25000000  0.25887090  0.13829885
   0.75000000  0.24112910  0.63829885
   0.25000000  0.75887090  0.36170115
   0.25000000  0.92217445  0.61190601
   0.75000000  0.57782555  0.11190601
   0.25000000  0.42217445  0.88809399
   0.75000000  0.07782555  0.38809399
   0.75000000  0.08051438  0.88410268
   0.25000000  0.91948562  0.11589732
   0.75000000  0.58051438  0.61589732
   0.25000000  0.41948562  0.38410268
Al4C3 anti-CaFe2O4 - relax @ 0 GPa (ISIF
           1
     2.984892    0.000000    0.000000
     0.000000    9.118869    0.000000
     0.000000    0.000000   10.578039
   Al   C 
    16    12
Direct configuration=     3
   0.25000000  0.41423099  0.58085969
   0.75000000  0.58576901  0.41914031
   0.25000000  0.91423099  0.91914031
   0.75000000  0.08576901  0.08085969
   0.25000000  0.48874647  0.20550798
   0.75000000  0.51125353  0.79449202
   0.25000000  0.98874647  0.29449202
   0.75000000  0.01125353  0.70550798
   0.25000000  0.13519651  0.52115727
   0.75000000  0.86480349  0.47884273
   0.25000000  0.63519651  0.97884273
   0.75000000  0.36480349  0.02115727
   0.75000000  0.27711306  0.30726624
   0.25000000  0.72288694  0.69273376
   0.25000000  0.22288694  0.80726624
   0.75000000  0.77711306  0.19273376
   0.75000000  0.74112218  0.86168767
   0.25000000  0.25887782  0.13831233
   0.75000000  0.24112218  0.63831233
   0.25000000  0.75887782  0.36168767
   0.25000000  0.92219225  0.61191663
   0.75000000  0.57780775  0.11191663
   0.25000000  0.42219225  0.88808337
   0.75000000  0.07780775  0.38808337
   0.75000000  0.08052149  0.88412671
   0.25000000  0.91947851  0.11587329
   0.75000000  0.58052149  0.61587329
   0.25000000  0.41947851  0.38412671
Al4C3 anti-CaFe2O4 - relax @ 0 GPa (ISIF
           1
     2.984974    0.000000    0.000000
     0.000000    9.119120    0.000000
     0.000000    0.000000   10.578331
   Al   C 
    16    12
Direct configuration=     4
   0.25000000  0.41429762  0.58087881
   0.75000000  0.58570238  0.41912119
   0.25000000  0.91429762  0.91912119
   0.75000000  0.08570238  0.08087881
   0.25000000  0.48879425  0.20549590
   0.75000000  0.51120575  0.79450410
   0.25000000  0.98879425  0.29450410
   0.75000000  0.01120575  0.70549590
   0.25000000  0.13516472  0.52118166
   0.75000000  0.86483528  0.47881834
   0.25000000  0.63516472  0.97881834
   0.75000000  0.36483528  0.02118166
   0.75000000  0.27712721  0.30717072
   0.25000000  0.72287279  0.69282928
   0.25000000  0.22287279  0.80717072
   0.75000000  0.77712721  0.19282928
   0.75000000  0.74115275  0.86171901
   0.25000000  0.25884725  0.13828099
   0.75000000  0.24115275  0.63828099
   0.25000000  0.75884725  0.36171901
   0.25000000  0.92213605  0.61194504
   0.75000000  0.57786395  0.11194504
   0.25000000  0.42213605  0.88805496
   0.75000000  0.07786395  0.38805496
   0.75000000  0.08050266  0.88412983
   0.25000000  0.91949734  0.11587017
   0.75000000  0.58050266  0.61587017
   0.25000000  0.41949734  0.38412983
Al4C3 anti-CaFe2O4 - relax @ 0 GPa (ISIF
           1
     2.985036    0.000000    0.000000
     0.000000    9.119310    0.000000
     0.000000    0.000000   10.578551
   Al   C 
    16    12
Direct configuration=     5
   0.25000000  0.41434809  0.58089329
   0.75000000  0.58565191  0.41910671
   0.25000000  0.91434809  0.91910671
   0.75000000  0.08565191  0.08089329
   0.25000000  0.48883044  0.20548675
   0.75000000  0.51116956  0.79451325
   0.25000000  0.98883044  0.29451325
   0.75000000  0.01116956  0.70548675
   0.25000000  0.13514064  0.52120012
   0.75000000  0.86485936  0.47879988
   0.25000000  0.63514064  0.97879988
   0.75000000  0.36485936  0.02120012
   0.75000000  0.27713793  0.30709836
   0.25000000  0.72286207  0.69290164
   0.25000000  0.22286207  0.80709836
   0.75000000  0.77713793  0.19290164
   0.75000000  0.74117591  0.86174276
   0.25000000  0.25882409  0.13825724
   0.75000000  0.24117591  0.63825724
   0.25000000  0.75882409  0.36174276
   0.25000000  0.92209348  0.61196657
   0.75000000  0.57790652  0.11196657
   0.25000000  0.42209348  0.88803343
   0.75000000  0.07790652  0.38803343
   0.75000000  0.08048841  0.88413220
   0.25000000  0.91951159  0.11586780
   0.75000000  0.58048841  0.61586780
   0.25000000  0.41951159  0.38413220
Al4C3 anti-CaFe2O4 - relax @ 0 GPa (ISIF
           1
     2.984957    0.000000    0.000000
     0.000000    9.119069    0.000000
     0.000000    0.000000   10.578271
   Al   C 
    16    12
Direct configuration=     6
   0.25000000  0.41437572  0.58088110
   0.75000000  0.58562428  0.41911890
   0.25000000  0.91437572  0.91911890
   0.75000000  0.08562428  0.08088110
   0.25000000  0.48890732  0.20548496
   0.75000000  0.51109268  0.79451504
   0.25000000  0.98890732  0.29451504
   0.75000000  0.01109268  0.70548496
   0.25000000  0.13518266  0.52119828
   0.75000000  0.86481734  0.47880172
   0.25000000  0.63518266  0.97880172
   0.75000000  0.36481734  0.02119828
   0.75000000  0.27713099  0.30702722
   0.25000000  0.72286901  0.69297278
   0.25000000  0.22286901  0.80702722
   0.75000000  0.77713099  0.19297278
   0.75000000  0.74115341  0.86173524
   0.25000000  0.25884659  0.13826476
   0.75000000  0.24115341  0.63826476
   0.25000000  0.75884659  0.36173524
   0.25000000  0.92207188  0.61196857
   0.75000000  0.57792812  0.11196857
   0.25000000  0.42207188  0.88803143
   0.75000000  0.07792812  0.38803143
   0.75000000  0.08047432  0.88410153
   0.25000000  0.91952568  0.11589847
   0.75000000  0.58047432  0.61589847
   0.25000000  0.41952568  0.38410153
