  28  28   0   0
  0.7844529E+01  0.8422115E-09  0.2840103E-09  0.9182685E-09  0.5000000E-15
  1.000000000000000E-004
  CAR 
 Al4C3 Pnma-III - H(P) scan @ 100 GPa (IS
     22.46191798     -5.57357897  301     12.93276938      1.00000000
     -5.574  0.0000E+00  0.0000E+00
     -5.480  0.0000E+00  0.0000E+00
     -5.387  0.0000E+00  0.0000E+00
     -5.293  0.0000E+00  0.0000E+00
     -5.200  0.0000E+00  0.0000E+00
     -5.106  0.0000E+00  0.0000E+00
     -5.013  0.0000E+00  0.0000E+00
     -4.919  0.0000E+00  0.0000E+00
     -4.826  0.0000E+00  0.0000E+00
     -4.733  0.0000E+00  0.0000E+00
     -4.639  0.0000E+00  0.0000E+00
     -4.546  0.8929E-15  0.8344E-16
     -4.452  0.4246E-08  0.3968E-09
     -4.359  0.2580E-04  0.2411E-05
     -4.265  0.5134E-03  0.5039E-04
     -4.172  0.2473E-02  0.2815E-03
     -4.078  0.4823E-02  0.7322E-03
     -3.985  0.4772E-02  0.1178E-02
     -3.891  0.3644E-02  0.1519E-02
     -3.798  0.5649E-02  0.2047E-02
     -3.705  0.1138E-01  0.3110E-02
     -3.611  0.1055E-01  0.4096E-02
     -3.518  0.2017E-02  0.4284E-02
     -3.424  0.5910E-02  0.4836E-02
     -3.331  0.1429E-01  0.6172E-02
     -3.237  0.1105E-01  0.7205E-02
     -3.144  0.1032E-01  0.8169E-02
     -3.050  0.1062E-01  0.9161E-02
     -2.957  0.9406E-02  0.1004E-01
     -2.863  0.1598E-01  0.1153E-01
     -2.770  0.1637E-01  0.1306E-01
     -2.677  0.5269E-02  0.1356E-01
     -2.583  0.6600E-02  0.1417E-01
     -2.490  0.2105E-01  0.1614E-01
     -2.396  0.2363E-01  0.1835E-01
     -2.303  0.1272E-01  0.1954E-01
     -2.209  0.7504E-02  0.2024E-01
     -2.116  0.1786E-01  0.2191E-01
     -2.022  0.2061E-01  0.2383E-01
     -1.929  0.9764E-02  0.2475E-01
     -1.836  0.1088E-01  0.2576E-01
     -1.742  0.1376E-01  0.2705E-01
     -1.649  0.1537E-01  0.2848E-01
     -1.555  0.2942E-01  0.3123E-01
     -1.462  0.2236E-01  0.3332E-01
     -1.368  0.1272E-01  0.3451E-01
     -1.275  0.1449E-01  0.3587E-01
     -1.181  0.2064E-01  0.3780E-01
     -1.088  0.1703E-01  0.3939E-01
     -0.994  0.1612E-01  0.4089E-01
     -0.901  0.3467E-01  0.4413E-01
     -0.808  0.1933E-01  0.4594E-01
     -0.714  0.1599E-01  0.4743E-01
     -0.621  0.2535E-01  0.4980E-01
     -0.527  0.2784E-01  0.5241E-01
     -0.434  0.1705E-01  0.5400E-01
     -0.340  0.2750E-01  0.5657E-01
     -0.247  0.2831E-01  0.5921E-01
     -0.153  0.2091E-01  0.6117E-01
     -0.060  0.3004E-01  0.6398E-01
      0.034  0.2434E-01  0.6625E-01
      0.127  0.2665E-01  0.6874E-01
      0.220  0.2495E-01  0.7107E-01
      0.314  0.2360E-01  0.7328E-01
      0.407  0.3818E-01  0.7684E-01
      0.501  0.3621E-01  0.8023E-01
      0.594  0.3798E-01  0.8378E-01
      0.688  0.3030E-01  0.8661E-01
      0.781  0.3251E-01  0.8965E-01
      0.875  0.4732E-01  0.9407E-01
      0.968  0.3465E-01  0.9731E-01
      1.061  0.2069E-01  0.9924E-01
      1.155  0.3132E-01  0.1022E+00
      1.248  0.3059E-01  0.1050E+00
      1.342  0.2691E-01  0.1075E+00
      1.435  0.1668E-01  0.1091E+00
      1.529  0.1494E-01  0.1105E+00
      1.622  0.2077E-01  0.1124E+00
      1.716  0.2286E-01  0.1146E+00
      1.809  0.1125E-01  0.1156E+00
      1.903  0.1607E-01  0.1171E+00
      1.996  0.1424E-01  0.1185E+00
      2.089  0.9396E-02  0.1193E+00
      2.183  0.6384E-02  0.1199E+00
      2.276  0.7199E-03  0.1200E+00
      2.370  0.9575E-06  0.1200E+00
      2.463  0.2189E-11  0.1200E+00
      2.557  0.0000E+00  0.1200E+00
      2.650  0.0000E+00  0.1200E+00
      2.744  0.0000E+00  0.1200E+00
      2.837  0.1813E-16  0.1200E+00
      2.931  0.4248E-09  0.1200E+00
      3.024  0.1190E-04  0.1200E+00
      3.117  0.7024E-03  0.1201E+00
      3.211  0.1614E-02  0.1202E+00
      3.304  0.4623E-02  0.1206E+00
      3.398  0.7207E-02  0.1213E+00
      3.491  0.8922E-02  0.1222E+00
      3.585  0.1294E-01  0.1234E+00
      3.678  0.1181E-01  0.1245E+00
      3.772  0.1655E-01  0.1260E+00
      3.865  0.2199E-01  0.1281E+00
      3.958  0.2322E-01  0.1302E+00
      4.052  0.3428E-01  0.1334E+00
      4.145  0.2172E-01  0.1355E+00
      4.239  0.3129E-01  0.1384E+00
      4.332  0.2663E-01  0.1409E+00
      4.426  0.3837E-01  0.1445E+00
      4.519  0.4765E-01  0.1489E+00
      4.613  0.3494E-01  0.1522E+00
      4.706  0.3938E-01  0.1559E+00
      4.800  0.4124E-01  0.1597E+00
      4.893  0.4197E-01  0.1636E+00
      4.986  0.2073E-01  0.1656E+00
      5.080  0.3499E-01  0.1689E+00
      5.173  0.3329E-01  0.1720E+00
      5.267  0.3328E-01  0.1751E+00
      5.360  0.3151E-01  0.1780E+00
      5.454  0.3490E-01  0.1813E+00
      5.547  0.4348E-01  0.1853E+00
      5.641  0.3884E-01  0.1890E+00
      5.734  0.4179E-01  0.1929E+00
      5.828  0.2834E-01  0.1955E+00
      5.921  0.3222E-01  0.1985E+00
      6.014  0.3833E-01  0.2021E+00
      6.108  0.3745E-01  0.2056E+00
      6.201  0.3315E-01  0.2087E+00
      6.295  0.1964E-01  0.2106E+00
      6.388  0.2847E-01  0.2132E+00
      6.482  0.3575E-01  0.2166E+00
      6.575  0.4456E-01  0.2207E+00
      6.669  0.3693E-01  0.2242E+00
      6.762  0.3700E-01  0.2276E+00
      6.855  0.3895E-01  0.2313E+00
      6.949  0.3617E-01  0.2346E+00
      7.042  0.2558E-01  0.2370E+00
      7.136  0.3198E-01  0.2400E+00
      7.229  0.4148E-01  0.2439E+00
      7.323  0.3859E-01  0.2475E+00
      7.416  0.3929E-01  0.2512E+00
      7.510  0.3774E-01  0.2547E+00
      7.603  0.4728E-01  0.2591E+00
      7.697  0.5419E-01  0.2642E+00
      7.790  0.3907E-01  0.2678E+00
      7.883  0.3978E-01  0.2716E+00
      7.977  0.3672E-01  0.2750E+00
      8.070  0.4009E-01  0.2787E+00
      8.164  0.3018E-01  0.2816E+00
      8.257  0.3370E-01  0.2847E+00
      8.351  0.4967E-01  0.2894E+00
      8.444  0.4042E-01  0.2931E+00
      8.538  0.2548E-01  0.2955E+00
      8.631  0.4297E-01  0.2995E+00
      8.725  0.3706E-01  0.3030E+00
      8.818  0.3740E-01  0.3065E+00
      8.911  0.4203E-01  0.3104E+00
      9.005  0.3772E-01  0.3139E+00
      9.098  0.4500E-01  0.3181E+00
      9.192  0.5120E-01  0.3229E+00
      9.285  0.3405E-01  0.3261E+00
      9.379  0.4185E-01  0.3300E+00
      9.472  0.3132E-01  0.3329E+00
      9.566  0.3918E-01  0.3366E+00
      9.659  0.5407E-01  0.3417E+00
      9.752  0.4017E-01  0.3454E+00
      9.846  0.3833E-01  0.3490E+00
      9.939  0.5404E-01  0.3540E+00
     10.033  0.4930E-01  0.3587E+00
     10.126  0.6362E-01  0.3646E+00
     10.220  0.5138E-01  0.3694E+00
     10.313  0.5826E-01  0.3748E+00
     10.407  0.5177E-01  0.3797E+00
     10.500  0.5402E-01  0.3847E+00
     10.594  0.5546E-01  0.3899E+00
     10.687  0.6120E-01  0.3956E+00
     10.780  0.5101E-01  0.4004E+00
     10.874  0.6513E-01  0.4065E+00
     10.967  0.5569E-01  0.4117E+00
     11.061  0.5159E-01  0.4165E+00
     11.154  0.4448E-01  0.4207E+00
     11.248  0.5271E-01  0.4256E+00
     11.341  0.6073E-01  0.4313E+00
     11.435  0.5099E-01  0.4360E+00
     11.528  0.6598E-01  0.4422E+00
     11.622  0.5286E-01  0.4471E+00
     11.715  0.5109E-01  0.4519E+00
     11.808  0.4365E-01  0.4560E+00
     11.902  0.5064E-01  0.4607E+00
     11.995  0.3668E-01  0.4642E+00
     12.089  0.3984E-01  0.4679E+00
     12.182  0.3661E-01  0.4713E+00
     12.276  0.2347E-01  0.4735E+00
     12.369  0.2276E-01  0.4756E+00
     12.463  0.2143E-01  0.4776E+00
     12.556  0.1964E-01  0.4795E+00
     12.649  0.5362E-02  0.4800E+00
     12.743  0.4680E-03  0.4800E+00
     12.836  0.1557E-05  0.4800E+00
     12.930  0.1604E-10  0.4800E+00
     13.023  0.1856E-18  0.4800E+00
     13.117  0.0000E+00  0.4800E+00
     13.210  0.0000E+00  0.4800E+00
     13.304  0.0000E+00  0.4800E+00
     13.397  0.0000E+00  0.4800E+00
     13.491  0.0000E+00  0.4800E+00
     13.584  0.0000E+00  0.4800E+00
     13.677  0.0000E+00  0.4800E+00
     13.771  0.0000E+00  0.4800E+00
     13.864  0.3713E-18  0.4800E+00
     13.958  0.3054E-10  0.4800E+00
     14.051  0.2921E-05  0.4800E+00
     14.145  0.4886E-03  0.4800E+00
     14.238  0.6873E-03  0.4801E+00
     14.332  0.2493E-02  0.4803E+00
     14.425  0.5178E-02  0.4808E+00
     14.519  0.9718E-02  0.4817E+00
     14.612  0.8478E-02  0.4825E+00
     14.705  0.4639E-02  0.4830E+00
     14.799  0.5507E-02  0.4835E+00
     14.892  0.1506E-01  0.4849E+00
     14.986  0.1856E-01  0.4866E+00
     15.079  0.1459E-01  0.4880E+00
     15.173  0.2123E-01  0.4900E+00
     15.266  0.2266E-01  0.4921E+00
     15.360  0.2559E-01  0.4945E+00
     15.453  0.2069E-01  0.4964E+00
     15.546  0.2388E-01  0.4986E+00
     15.640  0.2696E-01  0.5012E+00
     15.733  0.3415E-01  0.5044E+00
     15.827  0.4595E-01  0.5086E+00
     15.920  0.2870E-01  0.5113E+00
     16.014  0.2872E-01  0.5140E+00
     16.107  0.2481E-01  0.5163E+00
     16.201  0.2862E-01  0.5190E+00
     16.294  0.3109E-01  0.5219E+00
     16.388  0.3230E-01  0.5249E+00
     16.481  0.2909E-01  0.5276E+00
     16.574  0.3867E-01  0.5313E+00
     16.668  0.2988E-01  0.5341E+00
     16.761  0.3589E-01  0.5374E+00
     16.855  0.2506E-01  0.5397E+00
     16.948  0.2015E-01  0.5416E+00
     17.042  0.3251E-01  0.5447E+00
     17.135  0.2461E-01  0.5470E+00
     17.229  0.2531E-01  0.5493E+00
     17.322  0.3871E-01  0.5530E+00
     17.416  0.4390E-01  0.5571E+00
     17.509  0.3241E-01  0.5601E+00
     17.602  0.4112E-01  0.5639E+00
     17.696  0.2222E-01  0.5660E+00
     17.789  0.2768E-01  0.5686E+00
     17.883  0.2152E-01  0.5706E+00
     17.976  0.2754E-01  0.5732E+00
     18.070  0.3969E-01  0.5769E+00
     18.163  0.3231E-01  0.5799E+00
     18.257  0.3987E-01  0.5836E+00
     18.350  0.4943E-01  0.5882E+00
     18.443  0.5759E-01  0.5936E+00
     18.537  0.5290E-01  0.5986E+00
     18.630  0.2316E-01  0.6007E+00
     18.724  0.2097E-01  0.6027E+00
     18.817  0.1834E-01  0.6044E+00
     18.911  0.3887E-01  0.6080E+00
     19.004  0.3485E-01  0.6113E+00
     19.098  0.3594E-01  0.6147E+00
     19.191  0.4272E-01  0.6187E+00
     19.285  0.4171E-01  0.6225E+00
     19.378  0.3209E-01  0.6255E+00
     19.471  0.2255E-01  0.6277E+00
     19.565  0.2611E-01  0.6301E+00
     19.658  0.2207E-01  0.6322E+00
     19.752  0.2193E-01  0.6342E+00
     19.845  0.3470E-01  0.6374E+00
     19.939  0.3085E-01  0.6403E+00
     20.032  0.2550E-01  0.6427E+00
     20.126  0.2631E-01  0.6452E+00
     20.219  0.2740E-01  0.6477E+00
     20.313  0.2007E-01  0.6496E+00
     20.406  0.3051E-01  0.6525E+00
     20.499  0.2273E-01  0.6546E+00
     20.593  0.1860E-01  0.6563E+00
     20.686  0.1134E-01  0.6574E+00
     20.780  0.1234E-01  0.6585E+00
     20.873  0.8484E-02  0.6593E+00
     20.967  0.4476E-02  0.6597E+00
     21.060  0.1688E-02  0.6599E+00
     21.154  0.5531E-03  0.6600E+00
     21.247  0.4395E-03  0.6600E+00
     21.340  0.2579E-04  0.6600E+00
     21.434  0.4246E-08  0.6600E+00
     21.527  0.8929E-15  0.6600E+00
     21.621  0.0000E+00  0.6600E+00
     21.714  0.0000E+00  0.6600E+00
     21.808  0.0000E+00  0.6600E+00
     21.901  0.0000E+00  0.6600E+00
     21.995  0.0000E+00  0.6600E+00
     22.088  0.0000E+00  0.6600E+00
     22.182  0.0000E+00  0.6600E+00
     22.275  0.0000E+00  0.6600E+00
     22.368  0.0000E+00  0.6600E+00
     22.462  0.0000E+00  0.6600E+00
