Al4C3 Pnma-VII - H(P) scan @ 70 GPa (ISI
           1
     8.907065    0.000000    0.000000
     0.000000    3.060351    0.000000
     0.000000    0.000000    9.389683
   Al   C 
    16    12
Direct configuration=     1
   0.26874760  0.25000000  0.26632227
   0.76874760  0.25000000  0.23367773
   0.73125240  0.75000000  0.73367773
   0.23125240  0.75000000  0.76632227
   0.46514283  0.25000000  0.89164377
   0.96514283  0.25000000  0.60835623
   0.53485717  0.75000000  0.10835623
   0.03485717  0.75000000  0.39164377
   0.50580257  0.25000000  0.60515473
   0.00580257  0.25000000  0.89484527
   0.49419743  0.75000000  0.39484527
   0.99419743  0.75000000  0.10515473
   0.23613930  0.25000000  0.55748912
   0.73613930  0.25000000  0.94251088
   0.76386070  0.75000000  0.44251088
   0.26386070  0.75000000  0.05748912
   0.38479600  0.25000000  0.42551970
   0.88479600  0.25000000  0.07448030
   0.61520400  0.75000000  0.57448030
   0.11520400  0.75000000  0.92551970
   0.39499097  0.25000000  0.08829145
   0.89499097  0.25000000  0.41170855
   0.60500903  0.75000000  0.91170855
   0.10500903  0.75000000  0.58829145
   0.34663077  0.25000000  0.73413818
   0.84663077  0.25000000  0.76586182
   0.65336923  0.75000000  0.26586182
   0.15336923  0.75000000  0.23413818
Al4C3 Pnma-VII - H(P) scan @ 70 GPa (ISI
           1
     8.662580    0.000000    0.000000
     0.000000    2.976349    0.000000
     0.000000    0.000000    9.131950
   Al   C 
    16    12
Direct configuration=     2
   0.26874814  0.25000000  0.26635820
   0.76874814  0.25000000  0.23364180
   0.73125186  0.75000000  0.73364180
   0.23125186  0.75000000  0.76635820
   0.46513422  0.25000000  0.89160517
   0.96513422  0.25000000  0.60839483
   0.53486578  0.75000000  0.10839483
   0.03486578  0.75000000  0.39160517
   0.50579667  0.25000000  0.60518334
   0.00579667  0.25000000  0.89481666
   0.49420333  0.75000000  0.39481666
   0.99420333  0.75000000  0.10518334
   0.23618065  0.25000000  0.55747244
   0.73618065  0.25000000  0.94252756
   0.76381935  0.75000000  0.44252756
   0.26381935  0.75000000  0.05747244
   0.38476357  0.25000000  0.42549946
   0.88476357  0.25000000  0.07450054
   0.61523643  0.75000000  0.57450054
   0.11523643  0.75000000  0.92549946
   0.39502236  0.25000000  0.08828116
   0.89502236  0.25000000  0.41171884
   0.60497764  0.75000000  0.91171884
   0.10497764  0.75000000  0.58828116
   0.34663969  0.25000000  0.73414391
   0.84663969  0.25000000  0.76585609
   0.65336031  0.75000000  0.26585609
   0.15336031  0.75000000  0.23414391
Al4C3 Pnma-VII - H(P) scan @ 70 GPa (ISI
           1
     8.831937    0.000000    0.000000
     0.000000    3.034538    0.000000
     0.000000    0.000000    9.310483
   Al   C 
    16    12
Direct configuration=     3
   0.26874776  0.25000000  0.26633260
   0.76874776  0.25000000  0.23366740
   0.73125224  0.75000000  0.73366740
   0.23125224  0.75000000  0.76633260
   0.46514035  0.25000000  0.89163266
   0.96514035  0.25000000  0.60836734
   0.53485965  0.75000000  0.10836734
   0.03485965  0.75000000  0.39163266
   0.50580087  0.25000000  0.60516296
   0.00580087  0.25000000  0.89483704
   0.49419913  0.75000000  0.39483704
   0.99419913  0.75000000  0.10516296
   0.23615119  0.25000000  0.55748432
   0.73615119  0.25000000  0.94251568
   0.76384881  0.75000000  0.44251568
   0.26384881  0.75000000  0.05748432
   0.38478667  0.25000000  0.42551388
   0.88478667  0.25000000  0.07448612
   0.61521333  0.75000000  0.57448612
   0.11521333  0.75000000  0.92551388
   0.39500000  0.25000000  0.08828849
   0.89500000  0.25000000  0.41171151
   0.60500000  0.75000000  0.91171151
   0.10500000  0.75000000  0.58828849
   0.34663334  0.25000000  0.73413983
   0.84663334  0.25000000  0.76586017
   0.65336666  0.75000000  0.26586017
   0.15336666  0.75000000  0.23413983
Al4C3 Pnma-VII - H(P) scan @ 70 GPa (ISI
           1
     8.830533    0.000000    0.000000
     0.000000    3.034055    0.000000
     0.000000    0.000000    9.309004
   Al   C 
    16    12
Direct configuration=     4
   0.26874776  0.25000000  0.26633281
   0.76874776  0.25000000  0.23366719
   0.73125224  0.75000000  0.73366719
   0.23125224  0.75000000  0.76633281
   0.46514030  0.25000000  0.89163244
   0.96514030  0.25000000  0.60836756
   0.53485970  0.75000000  0.10836756
   0.03485970  0.75000000  0.39163244
   0.50580084  0.25000000  0.60516313
   0.00580084  0.25000000  0.89483687
   0.49419916  0.75000000  0.39483687
   0.99419916  0.75000000  0.10516313
   0.23615143  0.25000000  0.55748422
   0.73615143  0.25000000  0.94251578
   0.76384857  0.75000000  0.44251578
   0.26384857  0.75000000  0.05748422
   0.38478648  0.25000000  0.42551376
   0.88478648  0.25000000  0.07448624
   0.61521352  0.75000000  0.57448624
   0.11521352  0.75000000  0.92551376
   0.39500018  0.25000000  0.08828843
   0.89500018  0.25000000  0.41171157
   0.60499982  0.75000000  0.91171157
   0.10499982  0.75000000  0.58828843
   0.34663339  0.25000000  0.73413986
   0.84663339  0.25000000  0.76586014
   0.65336661  0.75000000  0.26586014
   0.15336661  0.75000000  0.23413986
Al4C3 Pnma-VII - H(P) scan @ 70 GPa (ISI
           1
     8.830468    0.000000    0.000000
     0.000000    3.034033    0.000000
     0.000000    0.000000    9.308935
   Al   C 
    16    12
Direct configuration=     5
   0.26874776  0.25000000  0.26633282
   0.76874776  0.25000000  0.23366718
   0.73125224  0.75000000  0.73366718
   0.23125224  0.75000000  0.76633282
   0.46514030  0.25000000  0.89163243
   0.96514030  0.25000000  0.60836757
   0.53485970  0.75000000  0.10836757
   0.03485970  0.75000000  0.39163243
   0.50580083  0.25000000  0.60516314
   0.00580083  0.25000000  0.89483686
   0.49419917  0.75000000  0.39483686
   0.99419917  0.75000000  0.10516314
   0.23615145  0.25000000  0.55748422
   0.73615145  0.25000000  0.94251578
   0.76384855  0.75000000  0.44251578
   0.26384855  0.75000000  0.05748422
   0.38478647  0.25000000  0.42551375
   0.88478647  0.25000000  0.07448625
   0.61521353  0.75000000  0.57448625
   0.11521353  0.75000000  0.92551375
   0.39500019  0.25000000  0.08828843
   0.89500019  0.25000000  0.41171157
   0.60499981  0.75000000  0.91171157
   0.10499981  0.75000000  0.58828843
   0.34663339  0.25000000  0.73413986
   0.84663339  0.25000000  0.76586014
   0.65336661  0.75000000  0.26586014
   0.15336661  0.75000000  0.23413986
Al4C3 Pnma-VII - H(P) scan @ 70 GPa (ISI
           1
     8.829762    0.000000    0.000000
     0.000000    3.033790    0.000000
     0.000000    0.000000    9.308191
   Al   C 
    16    12
Direct configuration=     6
   0.26889532  0.25000000  0.26632953
   0.76889532  0.25000000  0.23367047
   0.73110468  0.75000000  0.73367047
   0.23110468  0.75000000  0.76632953
   0.46514092  0.25000000  0.89162923
   0.96514092  0.25000000  0.60837077
   0.53485908  0.75000000  0.10837077
   0.03485908  0.75000000  0.39162923
   0.50582436  0.25000000  0.60553808
   0.00582436  0.25000000  0.89446192
   0.49417564  0.75000000  0.39446192
   0.99417564  0.75000000  0.10553808
   0.23582835  0.25000000  0.55719069
   0.73582835  0.25000000  0.94280931
   0.76417165  0.75000000  0.44280931
   0.26417165  0.75000000  0.05719069
   0.38480525  0.25000000  0.42557498
   0.88480525  0.25000000  0.07442502
   0.61519475  0.75000000  0.57442502
   0.11519475  0.75000000  0.92557498
   0.39509801  0.25000000  0.08861029
   0.89509801  0.25000000  0.41138971
   0.60490199  0.75000000  0.91138971
   0.10490199  0.75000000  0.58861029
   0.34669389  0.25000000  0.73414429
   0.84669389  0.25000000  0.76585571
   0.65330611  0.75000000  0.26585571
   0.15330611  0.75000000  0.23414429
Al4C3 Pnma-VII - H(P) scan @ 70 GPa (ISI
           1
     8.829833    0.000000    0.000000
     0.000000    3.033815    0.000000
     0.000000    0.000000    9.308265
   Al   C 
    16    12
Direct configuration=     7
   0.26888060  0.25000000  0.26632986
   0.76888060  0.25000000  0.23367014
   0.73111940  0.75000000  0.73367014
   0.23111940  0.75000000  0.76632986
   0.46514086  0.25000000  0.89162955
   0.96514086  0.25000000  0.60837045
   0.53485914  0.75000000  0.10837045
   0.03485914  0.75000000  0.39162955
   0.50582201  0.25000000  0.60550067
   0.00582201  0.25000000  0.89449933
   0.49417799  0.75000000  0.39449933
   0.99417799  0.75000000  0.10550067
   0.23586058  0.25000000  0.55721998
   0.73586058  0.25000000  0.94278002
   0.76413942  0.75000000  0.44278002
   0.26413942  0.75000000  0.05721998
   0.38480338  0.25000000  0.42556887
   0.88480338  0.25000000  0.07443113
   0.61519662  0.75000000  0.57443113
   0.11519662  0.75000000  0.92556887
   0.39508825  0.25000000  0.08857818
   0.89508825  0.25000000  0.41142182
   0.60491175  0.75000000  0.91142182
   0.10491175  0.75000000  0.58857818
   0.34668785  0.25000000  0.73414385
   0.84668785  0.25000000  0.76585615
   0.65331215  0.75000000  0.26585615
   0.15331215  0.75000000  0.23414385
Al4C3 Pnma-VII - H(P) scan @ 70 GPa (ISI
           1
     8.829678    0.000000    0.000000
     0.000000    3.033761    0.000000
     0.000000    0.000000    9.308102
   Al   C 
    16    12
Direct configuration=     8
   0.26887822  0.25000000  0.26630949
   0.76887822  0.25000000  0.23369051
   0.73112178  0.75000000  0.73369051
   0.23112178  0.75000000  0.76630949
   0.46499861  0.25000000  0.89166238
   0.96499861  0.25000000  0.60833762
   0.53500139  0.75000000  0.10833762
   0.03500139  0.75000000  0.39166238
   0.50584660  0.25000000  0.60556570
   0.00584660  0.25000000  0.89443430
   0.49415340  0.75000000  0.39443430
   0.99415340  0.75000000  0.10556570
   0.23580979  0.25000000  0.55707353
   0.73580979  0.25000000  0.94292647
   0.76419021  0.75000000  0.44292647
   0.26419021  0.75000000  0.05707353
   0.38483707  0.25000000  0.42567414
   0.88483707  0.25000000  0.07432586
   0.61516293  0.75000000  0.57432586
   0.11516293  0.75000000  0.92567414
   0.39531851  0.25000000  0.08871605
   0.89531851  0.25000000  0.41128395
   0.60468149  0.75000000  0.91128395
   0.10468149  0.75000000  0.58871605
   0.34644387  0.25000000  0.73413864
   0.84644387  0.25000000  0.76586136
   0.65355613  0.75000000  0.26586136
   0.15355613  0.75000000  0.23413864
Al4C3 Pnma-VII - H(P) scan @ 70 GPa (ISI
           1
     8.829684    0.000000    0.000000
     0.000000    3.033764    0.000000
     0.000000    0.000000    9.308109
   Al   C 
    16    12
Direct configuration=     9
   0.26887832  0.25000000  0.26631037
   0.76887832  0.25000000  0.23368963
   0.73112168  0.75000000  0.73368963
   0.23112168  0.75000000  0.76631037
   0.46500478  0.25000000  0.89166095
   0.96500478  0.25000000  0.60833905
   0.53499522  0.75000000  0.10833905
   0.03499522  0.75000000  0.39166095
   0.50584554  0.25000000  0.60556289
   0.00584554  0.25000000  0.89443711
   0.49415446  0.75000000  0.39443711
   0.99415446  0.75000000  0.10556289
   0.23581199  0.25000000  0.55707987
   0.73581199  0.25000000  0.94292013
   0.76418801  0.75000000  0.44292013
   0.26418801  0.75000000  0.05707987
   0.38483561  0.25000000  0.42566958
   0.88483561  0.25000000  0.07433042
   0.61516439  0.75000000  0.57433042
   0.11516439  0.75000000  0.92566958
   0.39530853  0.25000000  0.08871008
   0.89530853  0.25000000  0.41128992
   0.60469147  0.75000000  0.91128992
   0.10469147  0.75000000  0.58871008
   0.34645443  0.25000000  0.73413887
   0.84645443  0.25000000  0.76586113
   0.65354557  0.75000000  0.26586113
   0.15354557  0.75000000  0.23413887
Al4C3 Pnma-VII - H(P) scan @ 70 GPa (ISI
           1
     8.829432    0.000000    0.000000
     0.000000    3.033677    0.000000
     0.000000    0.000000    9.307843
   Al   C 
    16    12
Direct configuration=    10
   0.26899290  0.25000000  0.26632264
   0.76899290  0.25000000  0.23367736
   0.73100710  0.75000000  0.73367736
   0.23100710  0.75000000  0.76632264
   0.46479979  0.25000000  0.89164940
   0.96479979  0.25000000  0.60835060
   0.53520021  0.75000000  0.10835060
   0.03520021  0.75000000  0.39164940
   0.50577134  0.25000000  0.60557699
   0.00577134  0.25000000  0.89442301
   0.49422866  0.75000000  0.39442301
   0.99422866  0.75000000  0.10557699
   0.23569159  0.25000000  0.55712943
   0.73569159  0.25000000  0.94287057
   0.76430841  0.75000000  0.44287057
   0.26430841  0.75000000  0.05712943
   0.38486224  0.25000000  0.42564117
   0.88486224  0.25000000  0.07435883
   0.61513776  0.75000000  0.57435883
   0.11513776  0.75000000  0.92564117
   0.39547174  0.25000000  0.08878271
   0.89547174  0.25000000  0.41121729
   0.60452826  0.75000000  0.91121729
   0.10452826  0.75000000  0.58878271
   0.34633374  0.25000000  0.73410545
   0.84633374  0.25000000  0.76589455
   0.65366626  0.75000000  0.26589455
   0.15366626  0.75000000  0.23410545
Al4C3 Pnma-VII - H(P) scan @ 70 GPa (ISI
           1
     8.829314    0.000000    0.000000
     0.000000    3.033636    0.000000
     0.000000    0.000000    9.307718
   Al   C 
    16    12
Direct configuration=    11
   0.26904649  0.25000000  0.26632838
   0.76904649  0.25000000  0.23367162
   0.73095351  0.75000000  0.73367162
   0.23095351  0.75000000  0.76632838
   0.46470391  0.25000000  0.89164400
   0.96470391  0.25000000  0.60835600
   0.53529609  0.75000000  0.10835600
   0.03529609  0.75000000  0.39164400
   0.50573664  0.25000000  0.60558359
   0.00573664  0.25000000  0.89441641
   0.49426336  0.75000000  0.39441641
   0.99426336  0.75000000  0.10558359
   0.23563528  0.25000000  0.55715261
   0.73563528  0.25000000  0.94284739
   0.76436472  0.75000000  0.44284739
   0.26436472  0.75000000  0.05715261
   0.38487470  0.25000000  0.42562789
   0.88487470  0.25000000  0.07437211
   0.61512530  0.75000000  0.57437211
   0.11512530  0.75000000  0.92562789
   0.39554807  0.25000000  0.08881668
   0.89554807  0.25000000  0.41118332
   0.60445193  0.75000000  0.91118332
   0.10445193  0.75000000  0.58881668
   0.34627728  0.25000000  0.73408981
   0.84627728  0.25000000  0.76591019
   0.65372272  0.75000000  0.26591019
   0.15372272  0.75000000  0.23408981
Al4C3 Pnma-VII - H(P) scan @ 70 GPa (ISI
           1
     8.829592    0.000000    0.000000
     0.000000    3.033732    0.000000
     0.000000    0.000000    9.308011
   Al   C 
    16    12
Direct configuration=    12
   0.26918288  0.25000000  0.26628330
   0.76918288  0.25000000  0.23371670
   0.73081712  0.75000000  0.73371670
   0.23081712  0.75000000  0.76628330
   0.46456741  0.25000000  0.89166098
   0.96456741  0.25000000  0.60833902
   0.53543259  0.75000000  0.10833902
   0.03543259  0.75000000  0.39166098
   0.50561551  0.25000000  0.60554469
   0.00561551  0.25000000  0.89445531
   0.49438449  0.75000000  0.39445531
   0.99438449  0.75000000  0.10554469
   0.23556528  0.25000000  0.55716957
   0.73556528  0.25000000  0.94283043
   0.76443472  0.75000000  0.44283043
   0.26443472  0.75000000  0.05716957
   0.38481042  0.25000000  0.42575543
   0.88481042  0.25000000  0.07424457
   0.61518958  0.75000000  0.57424457
   0.11518958  0.75000000  0.92575543
   0.39562192  0.25000000  0.08886669
   0.89562192  0.25000000  0.41113331
   0.60437808  0.75000000  0.91113331
   0.10437808  0.75000000  0.58886669
   0.34623227  0.25000000  0.73403953
   0.84623227  0.25000000  0.76596047
   0.65376773  0.75000000  0.26596047
   0.15376773  0.75000000  0.23403953
Al4C3 Pnma-VII - H(P) scan @ 70 GPa (ISI
           1
     8.829529    0.000000    0.000000
     0.000000    3.033710    0.000000
     0.000000    0.000000    9.307945
   Al   C 
    16    12
Direct configuration=    13
   0.26915207  0.25000000  0.26629348
   0.76915207  0.25000000  0.23370652
   0.73084793  0.75000000  0.73370652
   0.23084793  0.75000000  0.76629348
   0.46459824  0.25000000  0.89165714
   0.96459824  0.25000000  0.60834286
   0.53540176  0.75000000  0.10834286
   0.03540176  0.75000000  0.39165714
   0.50564287  0.25000000  0.60555347
   0.00564287  0.25000000  0.89444653
   0.49435713  0.75000000  0.39444653
   0.99435713  0.75000000  0.10555347
   0.23558109  0.25000000  0.55716574
   0.73558109  0.25000000  0.94283426
   0.76441891  0.75000000  0.44283426
   0.26441891  0.75000000  0.05716574
   0.38482494  0.25000000  0.42572662
   0.88482494  0.25000000  0.07427338
   0.61517506  0.75000000  0.57427338
   0.11517506  0.75000000  0.92572662
   0.39560524  0.25000000  0.08885540
   0.89560524  0.25000000  0.41114460
   0.60439476  0.75000000  0.91114460
   0.10439476  0.75000000  0.58885540
   0.34624244  0.25000000  0.73405089
   0.84624244  0.25000000  0.76594911
   0.65375756  0.75000000  0.26594911
   0.15375756  0.75000000  0.23405089
Al4C3 Pnma-VII - H(P) scan @ 70 GPa (ISI
           1
     8.829232    0.000000    0.000000
     0.000000    3.033608    0.000000
     0.000000    0.000000    9.307632
   Al   C 
    16    12
Direct configuration=    14
   0.26921702  0.25000000  0.26628520
   0.76921702  0.25000000  0.23371480
   0.73078298  0.75000000  0.73371480
   0.23078298  0.75000000  0.76628520
   0.46458279  0.25000000  0.89166575
   0.96458279  0.25000000  0.60833425
   0.53541721  0.75000000  0.10833425
   0.03541721  0.75000000  0.39166575
   0.50566196  0.25000000  0.60550640
   0.00566196  0.25000000  0.89449360
   0.49433804  0.75000000  0.39449360
   0.99433804  0.75000000  0.10550640
   0.23551588  0.25000000  0.55717232
   0.73551588  0.25000000  0.94282768
   0.76448412  0.75000000  0.44282768
   0.26448412  0.75000000  0.05717232
   0.38481012  0.25000000  0.42575875
   0.88481012  0.25000000  0.07424125
   0.61518988  0.75000000  0.57424125
   0.11518988  0.75000000  0.92575875
   0.39561553  0.25000000  0.08886239
   0.89561553  0.25000000  0.41113761
   0.60438447  0.75000000  0.91113761
   0.10438447  0.75000000  0.58886239
   0.34622153  0.25000000  0.73407591
   0.84622153  0.25000000  0.76592409
   0.65377847  0.75000000  0.26592409
   0.15377847  0.75000000  0.23407591
