Al4C3 I-43d polymorph (findsym-output, f
   1.00000000000000     
     6.0325061805393032    0.0000000000000000    0.0000000000000000
     0.0000000000000000    6.0325061805393032    0.0000000000000000
     0.0000000000000000    0.0000000000000000    6.0325061805393032
   Al   C 
    16    12
Direct
  0.3142790407857834  0.3142790407857834  0.3142790407857834
  0.1857209592142166  0.6857209592142165  0.8142790407857835
  0.6857209592142165  0.8142790407857835  0.1857209592142166
  0.8142790407857835  0.1857209592142166  0.6857209592142165
  0.5642790407857835  0.5642790407857835  0.5642790407857835
  0.9357209592142165  0.4357209592142166  0.0642790407857834
  0.0642790407857834  0.9357209592142165  0.4357209592142166
  0.4357209592142166  0.0642790407857834  0.9357209592142165
  0.8142790407857835  0.8142790407857835  0.8142790407857835
  0.6857209592142165  0.1857209592142166  0.3142790407857834
  0.1857209592142166  0.3142790407857834  0.6857209592142165
  0.3142790407857834  0.6857209592142165  0.1857209592142166
  0.0642790407857834  0.0642790407857834  0.0642790407857834
  0.4357209592142166  0.9357209592142165  0.5642790407857835
  0.5642790407857835  0.4357209592142166  0.9357209592142165
  0.9357209592142165  0.5642790407857835  0.4357209592142166
  0.3750000000000000  0.0000000000000000  0.2500000000000000
  0.1250000000000000  0.0000000000000000  0.7500000000000000
  0.6250000000000000  0.5000000000000000  0.2500000000000000
  0.8750000000000000  0.5000000000000000  0.7500000000000000
  0.2500000000000000  0.3750000000000000  0.0000000000000000
  0.7500000000000000  0.1250000000000000  0.0000000000000000
  0.2500000000000000  0.6250000000000000  0.5000000000000000
  0.7500000000000000  0.8750000000000000  0.5000000000000000
 -0.0000000000000000  0.2500000000000000  0.3750000000000000
 -0.0000000000000000  0.7500000000000000  0.1250000000000000
  0.5000000000000000  0.2500000000000000  0.6250000000000000
  0.5000000000000000  0.7500000000000000  0.8750000000000000
 
  0.00000000E+00  0.00000000E+00  0.00000000E+00
  0.00000000E+00  0.00000000E+00  0.00000000E+00
  0.00000000E+00  0.00000000E+00  0.00000000E+00
  0.00000000E+00  0.00000000E+00  0.00000000E+00
  0.00000000E+00  0.00000000E+00  0.00000000E+00
  0.00000000E+00  0.00000000E+00  0.00000000E+00
  0.00000000E+00  0.00000000E+00  0.00000000E+00
  0.00000000E+00  0.00000000E+00  0.00000000E+00
  0.00000000E+00  0.00000000E+00  0.00000000E+00
  0.00000000E+00  0.00000000E+00  0.00000000E+00
  0.00000000E+00  0.00000000E+00  0.00000000E+00
  0.00000000E+00  0.00000000E+00  0.00000000E+00
  0.00000000E+00  0.00000000E+00  0.00000000E+00
  0.00000000E+00  0.00000000E+00  0.00000000E+00
  0.00000000E+00  0.00000000E+00  0.00000000E+00
  0.00000000E+00  0.00000000E+00  0.00000000E+00
  0.00000000E+00  0.00000000E+00  0.00000000E+00
  0.00000000E+00  0.00000000E+00  0.00000000E+00
  0.00000000E+00  0.00000000E+00  0.00000000E+00
  0.00000000E+00  0.00000000E+00  0.00000000E+00
  0.00000000E+00  0.00000000E+00  0.00000000E+00
  0.00000000E+00  0.00000000E+00  0.00000000E+00
  0.00000000E+00  0.00000000E+00  0.00000000E+00
  0.00000000E+00  0.00000000E+00  0.00000000E+00
  0.00000000E+00  0.00000000E+00  0.00000000E+00
  0.00000000E+00  0.00000000E+00  0.00000000E+00
  0.00000000E+00  0.00000000E+00  0.00000000E+00
  0.00000000E+00  0.00000000E+00  0.00000000E+00
