Al4C3 Pnma (POSCAR.III, symmetrized via 
   1.00000000000000     
     9.0098473322244477    0.0000000000000000    0.0000000000000000
     0.0000000000000000    3.0382976261861083    0.0000000000000000
     0.0000000000000000    0.0000000000000000    9.8234933735479117
   Al   C 
    16    12
Direct
  0.7398531342610292  0.2500000000000000  0.7162531766798302
  0.7601468657389708  0.7500000000000000  0.2162531766798302
  0.2601468657389707  0.7500000000000000  0.2837468233201698
  0.2398531342610294  0.2500000000000000  0.7837468233201698
  0.6073471011036012  0.2500000000000000  0.4741557559677326
  0.8926528988963988  0.7500000000000000  0.9741557559677325
  0.3926528988963985  0.7500000000000000  0.5258442440322675
  0.1073471011036014  0.2500000000000000  0.0258442440322675
  0.1349870636253253  0.2500000000000000  0.5179081742357009
  0.3650129363746747  0.7500000000000000  0.0179081742357009
  0.8650129363746745  0.7500000000000000  0.4820918257642992
  0.6349870636253255  0.2500000000000000  0.9820918257642991
  0.9891571416354215  0.2500000000000000  0.2811250674366558
  0.5108428583645785  0.7500000000000000  0.7811250674366560
  0.0108428583645785  0.7500000000000000  0.7188749325633440
  0.4891571416354215  0.2500000000000000  0.2188749325633442
  0.9289223169402265  0.2500000000000000  0.6205062807142907
  0.5710776830597735  0.7500000000000000  0.1205062807142906
  0.0710776830597733  0.7500000000000000  0.3794937192857093
  0.4289223169402268  0.2500000000000000  0.8794937192857093
  0.3944155809254190  0.2500000000000000  0.4004960553378407
  0.1055844190745810  0.7500000000000000  0.9004960553378337
  0.6055844190745813  0.7500000000000000  0.5995039446621663
  0.8944155809254187  0.2500000000000000  0.0995039446621663
  0.7745659742067974  0.2500000000000000  0.3564896311162404
  0.7254340257932026  0.7500000000000000  0.8564896311162403
  0.2254340257932026  0.7500000000000000  0.6435103688837597
  0.2745659742067973  0.2500000000000000  0.1435103688837597
 
  0.00000000E+00  0.00000000E+00  0.00000000E+00
  0.00000000E+00  0.00000000E+00  0.00000000E+00
  0.00000000E+00  0.00000000E+00  0.00000000E+00
  0.00000000E+00  0.00000000E+00  0.00000000E+00
  0.00000000E+00  0.00000000E+00  0.00000000E+00
  0.00000000E+00  0.00000000E+00  0.00000000E+00
  0.00000000E+00  0.00000000E+00  0.00000000E+00
  0.00000000E+00  0.00000000E+00  0.00000000E+00
  0.00000000E+00  0.00000000E+00  0.00000000E+00
  0.00000000E+00  0.00000000E+00  0.00000000E+00
  0.00000000E+00  0.00000000E+00  0.00000000E+00
  0.00000000E+00  0.00000000E+00  0.00000000E+00
  0.00000000E+00  0.00000000E+00  0.00000000E+00
  0.00000000E+00  0.00000000E+00  0.00000000E+00
  0.00000000E+00  0.00000000E+00  0.00000000E+00
  0.00000000E+00  0.00000000E+00  0.00000000E+00
  0.00000000E+00  0.00000000E+00  0.00000000E+00
  0.00000000E+00  0.00000000E+00  0.00000000E+00
  0.00000000E+00  0.00000000E+00  0.00000000E+00
  0.00000000E+00  0.00000000E+00  0.00000000E+00
  0.00000000E+00  0.00000000E+00  0.00000000E+00
  0.00000000E+00  0.00000000E+00  0.00000000E+00
  0.00000000E+00  0.00000000E+00  0.00000000E+00
  0.00000000E+00  0.00000000E+00  0.00000000E+00
  0.00000000E+00  0.00000000E+00  0.00000000E+00
  0.00000000E+00  0.00000000E+00  0.00000000E+00
  0.00000000E+00  0.00000000E+00  0.00000000E+00
  0.00000000E+00  0.00000000E+00  0.00000000E+00
