Al4C3 anti-CaFe2O4-type, volume pre-scal
   1.00000000000000     
     2.7122560224947567    0.0000000000000000    0.0000000000000000
     0.0000000000000000    8.2859649190604365    0.0000000000000000
     0.0000000000000000    0.0000000000000000    9.6118565509719787
   Al   C 
    16    12
Direct
  0.2500000000000000  0.4278619885576265  0.5895802150160669
  0.7500000000000000  0.5721380114423736  0.4104197849839330
  0.2500000000000000  0.9278619885576264  0.9104197849839331
  0.7500000000000000  0.0721380114423735  0.0895802150160670
  0.2500000000000000  0.4772661715715104  0.2061799003769443
  0.7500000000000000  0.5227338284284897  0.7938200996230560
  0.2500000000000000  0.9772661715715103  0.2938200996230558
  0.7500000000000000  0.0227338284284897  0.7061799003769440
  0.2500000000000000  0.1526131832945668  0.5126925151598457
  0.7500000000000000  0.8473868167054259  0.4873074848401543
  0.2500000000000000  0.6526131832945741  0.9873074848401543
  0.7500000000000000  0.3473868167054333  0.0126925151598457
  0.7500000000000000  0.2636233896210062  0.2985937329723422
  0.2500000000000000  0.7363766103789943  0.7014062670276580
  0.2500000000000000  0.2363766103789941  0.7985937329723420
  0.7500000000000000  0.7636233896210057  0.2014062670276578
  0.7500000000000000  0.7566211158538412  0.8584420412293906
  0.2500000000000000  0.2433788841461588  0.1415579587706093
  0.7500000000000000  0.2566211158538410  0.6415579587706094
  0.2500000000000000  0.7433788841461588  0.3584420412293978
  0.2500000000000000  0.9325651166658745  0.6105808308286331
  0.7500000000000000  0.5674348833341255  0.1105808308286332
  0.2500000000000000  0.4325651166658744  0.8894191691713669
  0.7500000000000000  0.0674348833341256  0.3894191691713668
  0.7500000000000000  0.1013278391475926  0.8911683711252769
  0.2500000000000000  0.8986721608524075  0.1088316288747232
  0.7500000000000000  0.6013278391475925  0.6088316288747231
  0.2500000000000000  0.3986721608524076  0.3911683711252767
 
  0.00000000E+00  0.00000000E+00  0.00000000E+00
  0.00000000E+00  0.00000000E+00  0.00000000E+00
  0.00000000E+00  0.00000000E+00  0.00000000E+00
  0.00000000E+00  0.00000000E+00  0.00000000E+00
  0.00000000E+00  0.00000000E+00  0.00000000E+00
  0.00000000E+00  0.00000000E+00  0.00000000E+00
  0.00000000E+00  0.00000000E+00  0.00000000E+00
  0.00000000E+00  0.00000000E+00  0.00000000E+00
  0.00000000E+00  0.00000000E+00  0.00000000E+00
  0.00000000E+00  0.00000000E+00  0.00000000E+00
  0.00000000E+00  0.00000000E+00  0.00000000E+00
  0.00000000E+00  0.00000000E+00  0.00000000E+00
  0.00000000E+00  0.00000000E+00  0.00000000E+00
  0.00000000E+00  0.00000000E+00  0.00000000E+00
  0.00000000E+00  0.00000000E+00  0.00000000E+00
  0.00000000E+00  0.00000000E+00  0.00000000E+00
  0.00000000E+00  0.00000000E+00  0.00000000E+00
  0.00000000E+00  0.00000000E+00  0.00000000E+00
  0.00000000E+00  0.00000000E+00  0.00000000E+00
  0.00000000E+00  0.00000000E+00  0.00000000E+00
  0.00000000E+00  0.00000000E+00  0.00000000E+00
  0.00000000E+00  0.00000000E+00  0.00000000E+00
  0.00000000E+00  0.00000000E+00  0.00000000E+00
  0.00000000E+00  0.00000000E+00  0.00000000E+00
  0.00000000E+00  0.00000000E+00  0.00000000E+00
  0.00000000E+00  0.00000000E+00  0.00000000E+00
  0.00000000E+00  0.00000000E+00  0.00000000E+00
  0.00000000E+00  0.00000000E+00  0.00000000E+00
