       N       E                     dE             d eps       ncg     rms          rms(c)
DAV:   1    -0.227504994923E+03   -0.22750E+03   -0.47553E+00  8316   0.104E+01    0.880E+00
DAV:   2    -0.212609106635E+03    0.14896E+02   -0.12950E+00  9234   0.624E+00    0.636E+00
DAV:   3    -0.212969384262E+03   -0.36028E+00   -0.19456E-01  9636   0.205E+00    0.503E+00
DAV:   4    -0.213002375771E+03   -0.32992E-01   -0.91973E-02  9576   0.110E+00    0.958E-01
DAV:   5    -0.213003685420E+03   -0.13096E-02   -0.49500E-03  9726   0.254E-01    0.400E-01
DAV:   6    -0.213003957991E+03   -0.27257E-03   -0.76494E-04  9702   0.105E-01    0.183E-01
DAV:   7    -0.213003996368E+03   -0.38377E-04   -0.49626E-05  9414   0.336E-02    0.955E-02
DAV:   8    -0.213003987411E+03    0.89571E-05   -0.97064E-05  9504   0.415E-02
   1 F= -.10425388E+03 E0= -.10425388E+03  d E =-.104254E+03
       N       E                     dE             d eps       ncg     rms          rms(c)
DAV:   1    -0.209781605731E+03    0.32224E+01   -0.30280E+00  8760   0.749E+00    0.155E+00
DAV:   2    -0.209761685597E+03    0.19920E-01   -0.12630E-01  9966   0.130E+00    0.886E-01
DAV:   3    -0.209761156332E+03    0.52926E-03   -0.20562E-02  9504   0.453E-01    0.327E-01
DAV:   4    -0.209761625555E+03   -0.46922E-03   -0.62805E-04 10086   0.106E-01    0.183E-01
DAV:   5    -0.209761685288E+03   -0.59733E-04   -0.17123E-04  9612   0.499E-02    0.134E-01
DAV:   6    -0.209761782179E+03   -0.96892E-04   -0.73236E-05  9162   0.473E-02    0.192E-02
DAV:   7    -0.209761781178E+03    0.10011E-05   -0.58082E-06  5058   0.947E-03
   2 F= -.10414133E+03 E0= -.10414133E+03  d E =0.112545E+00
       N       E                     dE             d eps       ncg     rms          rms(c)
DAV:   1    -0.212072731135E+03   -0.23109E+01   -0.14310E+00  8778   0.508E+00    0.107E+00
DAV:   2    -0.212064787144E+03    0.79440E-02   -0.61610E-02  9936   0.905E-01    0.614E-01
DAV:   3    -0.212064480095E+03    0.30705E-03   -0.99046E-03  9534   0.312E-01    0.232E-01
DAV:   4    -0.212064615593E+03   -0.13550E-03   -0.29982E-04 10050   0.737E-02    0.127E-01
DAV:   5    -0.212064600446E+03    0.15148E-04   -0.85947E-05  9282   0.353E-02    0.920E-02
DAV:   6    -0.212064562128E+03    0.38318E-04   -0.33203E-05  7530   0.321E-02    0.105E-02
DAV:   7    -0.212064560534E+03    0.15934E-05   -0.39405E-06  4980   0.783E-03
   3 F= -.10428101E+03 E0= -.10428101E+03  d E =-.271295E-01
       N       E                     dE             d eps       ncg     rms          rms(c)
DAV:   1    -0.212059039857E+03    0.55223E-02   -0.79323E-06  4830   0.125E-02    0.864E-03
DAV:   2    -0.212059039253E+03    0.60389E-06   -0.54969E-07  4692   0.362E-03
   4 F= -.10428101E+03 E0= -.10428101E+03  d E =-.271290E-01
       N       E                     dE             d eps       ncg     rms          rms(c)
DAV:   1    -0.212089241649E+03   -0.30202E-01   -0.16888E-01  8328   0.168E+00    0.877E-02
DAV:   2    -0.212089196199E+03    0.45450E-04   -0.33004E-03  9900   0.232E-01    0.586E-02
DAV:   3    -0.212089143596E+03    0.52603E-04   -0.19043E-04  9942   0.592E-02    0.344E-02
DAV:   4    -0.212089131600E+03    0.11997E-04   -0.79381E-05  9378   0.332E-02    0.127E-02
DAV:   5    -0.212089129326E+03    0.22742E-05   -0.85107E-06  5202   0.120E-02
   5 F= -.10428266E+03 E0= -.10428266E+03  d E =-.165664E-02
       N       E                     dE             d eps       ncg     rms          rms(c)
DAV:   1    -0.212095939945E+03   -0.68083E-02   -0.93828E-03  8358   0.396E-01    0.210E-02
DAV:   2    -0.212095944996E+03   -0.50505E-05   -0.18124E-04  9948   0.545E-02    0.137E-02
DAV:   3    -0.212095943495E+03    0.15010E-05   -0.96564E-06  5670   0.143E-02
   6 F= -.10428275E+03 E0= -.10428275E+03  d E =-.174346E-02
       N       E                     dE             d eps       ncg     rms          rms(c)
DAV:   1    -0.212127710065E+03   -0.31765E-01   -0.17875E-01  8328   0.175E+00    0.803E-02
DAV:   2    -0.212127732964E+03   -0.22899E-04   -0.24477E-03 10026   0.202E-01    0.524E-02
DAV:   3    -0.212127668989E+03    0.63975E-04   -0.12908E-04  9840   0.477E-02    0.320E-02
DAV:   4    -0.212127648423E+03    0.20566E-04   -0.12975E-04  9714   0.444E-02    0.921E-03
DAV:   5    -0.212127651298E+03   -0.28744E-05   -0.24395E-05  5844   0.176E-02
   7 F= -.10428363E+03 E0= -.10428363E+03  d E =-.877211E-03
       N       E                     dE             d eps       ncg     rms          rms(c)
DAV:   1    -0.212126165443E+03    0.14830E-02   -0.41181E-04  8490   0.839E-02    0.454E-03
DAV:   2    -0.212126164854E+03    0.58908E-06   -0.45794E-06  4566   0.927E-03
   8 F= -.10428363E+03 E0= -.10428363E+03  d E =-.880018E-03
       N       E                     dE             d eps       ncg     rms          rms(c)
DAV:   1    -0.212120521468E+03    0.56440E-02   -0.12839E-01  8328   0.147E+00    0.686E-02
DAV:   2    -0.212120490648E+03    0.30820E-04   -0.18906E-03  9690   0.176E-01    0.468E-02
DAV:   3    -0.212120451533E+03    0.39115E-04   -0.93297E-05  9942   0.403E-02    0.285E-02
DAV:   4    -0.212120433488E+03    0.18045E-04   -0.65998E-05  9330   0.328E-02    0.788E-03
DAV:   5    -0.212120436107E+03   -0.26197E-05   -0.16462E-05  5622   0.136E-02
   9 F= -.10428415E+03 E0= -.10428415E+03  d E =-.519688E-03
       N       E                     dE             d eps       ncg     rms          rms(c)
DAV:   1    -0.212120815584E+03   -0.38210E-03   -0.46760E-04  8400   0.885E-02    0.458E-03
DAV:   2    -0.212120815968E+03   -0.38316E-06   -0.65841E-06  4524   0.107E-02
  10 F= -.10428415E+03 E0= -.10428415E+03  d E =-.522751E-03
       N       E                     dE             d eps       ncg     rms          rms(c)
DAV:   1    -0.212131883936E+03   -0.11068E-01   -0.21022E-02  8358   0.601E-01    0.290E-02
DAV:   2    -0.212131897481E+03   -0.13545E-04   -0.33543E-04 10134   0.711E-02    0.188E-02
DAV:   3    -0.212131894198E+03    0.32831E-05   -0.11875E-05  6132   0.157E-02
  11 F= -.10428443E+03 E0= -.10428443E+03  d E =-.280456E-03
       N       E                     dE             d eps       ncg     rms          rms(c)
DAV:   1    -0.212136968494E+03   -0.50710E-02   -0.44705E-03  8406   0.277E-01    0.157E-02
DAV:   2    -0.212136971073E+03   -0.25786E-05   -0.62329E-05 10230   0.312E-02
  12 F= -.10428446E+03 E0= -.10428446E+03  d E =-.313154E-03
       N       E                     dE             d eps       ncg     rms          rms(c)
DAV:   1    -0.212142002183E+03   -0.50337E-02   -0.25685E-02  8358   0.661E-01    0.350E-02
DAV:   2    -0.212141992743E+03    0.94403E-05   -0.37109E-04 10020   0.795E-02    0.218E-02
DAV:   3    -0.212141981791E+03    0.10952E-04   -0.24419E-05  7206   0.217E-02    0.134E-02
DAV:   4    -0.212141979334E+03    0.24574E-05   -0.17609E-05  5154   0.169E-02
  13 F= -.10428469E+03 E0= -.10428469E+03  d E =-.229497E-03
       N       E                     dE             d eps       ncg     rms          rms(c)
DAV:   1    -0.212146180787E+03   -0.41990E-02   -0.19130E-02  8358   0.570E-01    0.294E-02
DAV:   2    -0.212146176311E+03    0.44760E-05   -0.27277E-04 10020   0.682E-02    0.180E-02
DAV:   3    -0.212146168464E+03    0.78478E-05   -0.16389E-05  6318   0.182E-02
  14 F= -.10428477E+03 E0= -.10428477E+03  d E =-.307651E-03
       N       E                     dE             d eps       ncg     rms          rms(c)
DAV:   1    -0.212147515241E+03   -0.13389E-02   -0.19232E-03  8520   0.181E-01    0.108E-02
DAV:   2    -0.212147513881E+03    0.13602E-05   -0.19678E-05  7698   0.194E-02
  15 F= -.10428477E+03 E0= -.10428477E+03  d E =-.307542E-03
       N       E                     dE             d eps       ncg     rms          rms(c)
DAV:   1    -0.212146004165E+03    0.15111E-02   -0.11714E-02  8352   0.448E-01    0.230E-02
DAV:   2    -0.212146008068E+03   -0.39031E-05   -0.21374E-04 10272   0.589E-02    0.152E-02
DAV:   3    -0.212146002307E+03    0.57608E-05   -0.90558E-06  5454   0.141E-02
  16 F= -.10428485E+03 E0= -.10428485E+03  d E =-.825166E-04
       N       E                     dE             d eps       ncg     rms          rms(c)
DAV:   1    -0.212146177859E+03   -0.16979E-03   -0.17964E-04  7836   0.555E-02    0.373E-03
DAV:   2    -0.212146178593E+03   -0.73425E-06   -0.66307E-06  4494   0.103E-02
  17 F= -.10428485E+03 E0= -.10428485E+03  d E =-.813841E-04
       N       E                     dE             d eps       ncg     rms          rms(c)
DAV:   1    -0.212142826778E+03    0.33511E-02   -0.72257E-03  8364   0.352E-01    0.161E-02
DAV:   2    -0.212142830507E+03   -0.37298E-05   -0.11635E-04 10092   0.428E-02    0.113E-02
DAV:   3    -0.212142828919E+03    0.15886E-05   -0.52044E-06  5190   0.103E-02
  18 F= -.10428489E+03 E0= -.10428489E+03  d E =-.338702E-04
       N       E                     dE             d eps       ncg     rms          rms(c)
DAV:   1    -0.212143774433E+03   -0.94393E-03   -0.59470E-04  8388   0.101E-01    0.455E-03
DAV:   2    -0.212143774288E+03    0.14501E-06   -0.12486E-05  5730   0.140E-02
  19 F= -.10428489E+03 E0= -.10428489E+03  d E =-.397072E-04
       N       E                     dE             d eps       ncg     rms          rms(c)
DAV:   1    -0.212144911499E+03   -0.11371E-02   -0.10618E-03  8382   0.136E-01    0.730E-03
DAV:   2    -0.212144912436E+03   -0.93748E-06   -0.24396E-05  7626   0.197E-02
  20 F= -.10428490E+03 E0= -.10428490E+03  d E =-.848090E-05
