Al4C3 anti-CaFe2O4-type, volume pre-scal
   1.00000000000000     
     2.7196964376783943    0.0000000000000000    0.0000000000000000
     0.0000000000000000    8.3086954499113386    0.0000000000000000
     0.0000000000000000    0.0000000000000000    9.6382243432569439
   Al   C 
    16    12
Direct
  0.2500000000000000  0.4286854525135202  0.5896648152918834
  0.7500000000000000  0.5713145474864797  0.4103351847081163
  0.2500000000000000  0.9286854525135203  0.9103351847081166
  0.7500000000000000  0.0713145474864798  0.0896648152918836
  0.2500000000000000  0.4763863043602246  0.2061393100226255
  0.7500000000000000  0.5236136956397754  0.7938606899773744
  0.2500000000000000  0.9763863043602246  0.2938606899773745
  0.7500000000000000  0.0236136956397754  0.7061393100226256
  0.2500000000000000  0.1534065354755491  0.5124831121871821
  0.7500000000000000  0.8465934645244435  0.4875168878128179
  0.2500000000000000  0.6534065354755565  0.9875168878128179
  0.7500000000000000  0.3465934645244509  0.0124831121871821
  0.7500000000000000  0.2622891385039305  0.2985801346212681
  0.2500000000000000  0.7377108614960696  0.7014198653787319
  0.2500000000000000  0.2377108614960697  0.7985801346212681
  0.7500000000000000  0.7622891385039304  0.2014198653787318
  0.7500000000000000  0.7578409499951478  0.8584387768063440
  0.2500000000000000  0.2421590500048522  0.1415612231936558
  0.7500000000000000  0.2578409499951478  0.6415612231936560
  0.2500000000000000  0.7421590500048522  0.3584387768063513
  0.2500000000000000  0.9335446020181600  0.6100030059643091
  0.7500000000000000  0.5664553979818400  0.1100030059643090
  0.2500000000000000  0.4335446020181599  0.8899969940356909
  0.7500000000000000  0.0664553979818400  0.3899969940356910
  0.7500000000000000  0.1026580083578631  0.8914980403371414
  0.2500000000000000  0.8973419916421370  0.1085019596628584
  0.7500000000000000  0.6026580083578630  0.6085019596628586
  0.2500000000000000  0.3973419916421370  0.3914980403371416
 
  0.00000000E+00  0.00000000E+00  0.00000000E+00
  0.00000000E+00  0.00000000E+00  0.00000000E+00
  0.00000000E+00  0.00000000E+00  0.00000000E+00
  0.00000000E+00  0.00000000E+00  0.00000000E+00
  0.00000000E+00  0.00000000E+00  0.00000000E+00
  0.00000000E+00  0.00000000E+00  0.00000000E+00
  0.00000000E+00  0.00000000E+00  0.00000000E+00
  0.00000000E+00  0.00000000E+00  0.00000000E+00
  0.00000000E+00  0.00000000E+00  0.00000000E+00
  0.00000000E+00  0.00000000E+00  0.00000000E+00
  0.00000000E+00  0.00000000E+00  0.00000000E+00
  0.00000000E+00  0.00000000E+00  0.00000000E+00
  0.00000000E+00  0.00000000E+00  0.00000000E+00
  0.00000000E+00  0.00000000E+00  0.00000000E+00
  0.00000000E+00  0.00000000E+00  0.00000000E+00
  0.00000000E+00  0.00000000E+00  0.00000000E+00
  0.00000000E+00  0.00000000E+00  0.00000000E+00
  0.00000000E+00  0.00000000E+00  0.00000000E+00
  0.00000000E+00  0.00000000E+00  0.00000000E+00
  0.00000000E+00  0.00000000E+00  0.00000000E+00
  0.00000000E+00  0.00000000E+00  0.00000000E+00
  0.00000000E+00  0.00000000E+00  0.00000000E+00
  0.00000000E+00  0.00000000E+00  0.00000000E+00
  0.00000000E+00  0.00000000E+00  0.00000000E+00
  0.00000000E+00  0.00000000E+00  0.00000000E+00
  0.00000000E+00  0.00000000E+00  0.00000000E+00
  0.00000000E+00  0.00000000E+00  0.00000000E+00
  0.00000000E+00  0.00000000E+00  0.00000000E+00
