Al4C3 anti-CaFe2O4 - r2SCAN H(P) scan @ 
           1
     2.719696    0.000000    0.000000
     0.000000    8.308695    0.000000
     0.000000    0.000000    9.638224
   Al   C 
    16    12
Direct configuration=     1
   0.25000000  0.42868545  0.58966482
   0.75000000  0.57131455  0.41033518
   0.25000000  0.92868545  0.91033518
   0.75000000  0.07131455  0.08966482
   0.25000000  0.47638630  0.20613931
   0.75000000  0.52361370  0.79386069
   0.25000000  0.97638630  0.29386069
   0.75000000  0.02361370  0.70613931
   0.25000000  0.15340654  0.51248311
   0.75000000  0.84659346  0.48751689
   0.25000000  0.65340654  0.98751689
   0.75000000  0.34659346  0.01248311
   0.75000000  0.26228914  0.29858013
   0.25000000  0.73771086  0.70141987
   0.25000000  0.23771086  0.79858013
   0.75000000  0.76228914  0.20141987
   0.75000000  0.75784095  0.85843878
   0.25000000  0.24215905  0.14156122
   0.75000000  0.25784095  0.64156122
   0.25000000  0.74215905  0.35843878
   0.25000000  0.93354460  0.61000301
   0.75000000  0.56645540  0.11000301
   0.25000000  0.43354460  0.88999699
   0.75000000  0.06645540  0.38999699
   0.75000000  0.10265801  0.89149804
   0.25000000  0.89734199  0.10850196
   0.75000000  0.60265801  0.60850196
   0.25000000  0.39734199  0.39149804
Al4C3 anti-CaFe2O4 - r2SCAN H(P) scan @ 
           1
     2.693353    0.000000    0.000000
     0.000000    8.228215    0.000000
     0.000000    0.000000    9.544865
   Al   C 
    16    12
Direct configuration=     2
   0.25000000  0.42871238  0.58972423
   0.75000000  0.57128762  0.41027577
   0.25000000  0.92871238  0.91027577
   0.75000000  0.07128762  0.08972423
   0.25000000  0.47635359  0.20584048
   0.75000000  0.52364641  0.79415952
   0.25000000  0.97635359  0.29415952
   0.75000000  0.02364641  0.70584048
   0.25000000  0.15313080  0.51252939
   0.75000000  0.84686920  0.48747061
   0.25000000  0.65313080  0.98747061
   0.75000000  0.34686920  0.01252939
   0.75000000  0.26251456  0.29844226
   0.25000000  0.73748544  0.70155774
   0.25000000  0.23748544  0.79844226
   0.75000000  0.76251456  0.20155774
   0.75000000  0.75738743  0.85825178
   0.25000000  0.24261257  0.14174822
   0.75000000  0.25738743  0.64174822
   0.25000000  0.74261257  0.35825178
   0.25000000  0.93344869  0.61084305
   0.75000000  0.56655131  0.11084305
   0.25000000  0.43344869  0.88915695
   0.75000000  0.06655131  0.38915695
   0.75000000  0.10209269  0.89108195
   0.25000000  0.89790731  0.10891805
   0.75000000  0.60209269  0.60891805
   0.25000000  0.39790731  0.39108195
Al4C3 anti-CaFe2O4 - r2SCAN H(P) scan @ 
           1
     2.711615    0.000000    0.000000
     0.000000    8.284007    0.000000
     0.000000    0.000000    9.609585
   Al   C 
    16    12
Direct configuration=     3
   0.25000000  0.42869353  0.58968264
   0.75000000  0.57130647  0.41031736
   0.25000000  0.92869353  0.91031736
   0.75000000  0.07130647  0.08968264
   0.25000000  0.47637649  0.20604966
   0.75000000  0.52362351  0.79395034
   0.25000000  0.97637649  0.29395034
   0.75000000  0.02362351  0.70604966
   0.25000000  0.15332382  0.51249699
   0.75000000  0.84667618  0.48750301
   0.25000000  0.65332382  0.98750301
   0.75000000  0.34667618  0.01249699
   0.75000000  0.26235676  0.29853878
   0.25000000  0.73764324  0.70146122
   0.25000000  0.23764324  0.79853878
   0.75000000  0.76235676  0.20146122
   0.75000000  0.75770490  0.85838268
   0.25000000  0.24229510  0.14161732
   0.75000000  0.25770490  0.64161732
   0.25000000  0.74229510  0.35838268
   0.25000000  0.93351583  0.61025501
   0.75000000  0.56648417  0.11025501
   0.25000000  0.43351583  0.88974499
   0.75000000  0.06648417  0.38974499
   0.75000000  0.10248842  0.89137322
   0.25000000  0.89751158  0.10862678
   0.75000000  0.60248842  0.60862678
   0.25000000  0.39751158  0.39137322
Al4C3 anti-CaFe2O4 - r2SCAN H(P) scan @ 
           1
     2.711569    0.000000    0.000000
     0.000000    8.283865    0.000000
     0.000000    0.000000    9.609421
   Al   C 
    16    12
Direct configuration=     4
   0.25000000  0.42869358  0.58968274
   0.75000000  0.57130642  0.41031726
   0.25000000  0.92869358  0.91031726
   0.75000000  0.07130642  0.08968274
   0.25000000  0.47637643  0.20604914
   0.75000000  0.52362357  0.79395086
   0.25000000  0.97637643  0.29395086
   0.75000000  0.02362357  0.70604914
   0.25000000  0.15332333  0.51249708
   0.75000000  0.84667667  0.48750292
   0.25000000  0.65332333  0.98750292
   0.75000000  0.34667667  0.01249708
   0.75000000  0.26235716  0.29853853
   0.25000000  0.73764284  0.70146147
   0.25000000  0.23764284  0.79853853
   0.75000000  0.76235716  0.20146147
   0.75000000  0.75770410  0.85838235
   0.25000000  0.24229590  0.14161765
   0.75000000  0.25770410  0.64161765
   0.25000000  0.74229590  0.35838235
   0.25000000  0.93351566  0.61025649
   0.75000000  0.56648434  0.11025649
   0.25000000  0.43351566  0.88974351
   0.75000000  0.06648434  0.38974351
   0.75000000  0.10248742  0.89137249
   0.25000000  0.89751258  0.10862751
   0.75000000  0.60248742  0.60862751
   0.25000000  0.39751258  0.39137249
Al4C3 anti-CaFe2O4 - r2SCAN H(P) scan @ 
           1
     2.711807    0.000000    0.000000
     0.000000    8.284594    0.000000
     0.000000    0.000000    9.610266
   Al   C 
    16    12
Direct configuration=     5
   0.25000000  0.42864807  0.58981376
   0.75000000  0.57135193  0.41018624
   0.25000000  0.92864807  0.91018624
   0.75000000  0.07135193  0.08981376
   0.25000000  0.47627788  0.20607464
   0.75000000  0.52372212  0.79392536
   0.25000000  0.97627788  0.29392536
   0.75000000  0.02372212  0.70607464
   0.25000000  0.15326183  0.51249052
   0.75000000  0.84673817  0.48750948
   0.25000000  0.65326183  0.98750948
   0.75000000  0.34673817  0.01249052
   0.75000000  0.26267172  0.29839745
   0.25000000  0.73732828  0.70160255
   0.25000000  0.23732828  0.79839745
   0.75000000  0.76267172  0.20160255
   0.75000000  0.75745741  0.85834981
   0.25000000  0.24254259  0.14165019
   0.75000000  0.25745741  0.64165019
   0.25000000  0.74254259  0.35834981
   0.25000000  0.93337394  0.61050627
   0.75000000  0.56662606  0.11050627
   0.25000000  0.43337394  0.88949373
   0.75000000  0.06662606  0.38949373
   0.75000000  0.10223249  0.89128401
   0.25000000  0.89776751  0.10871599
   0.75000000  0.60223249  0.60871599
   0.25000000  0.39776751  0.39128401
Al4C3 anti-CaFe2O4 - r2SCAN H(P) scan @ 
           1
     2.711864    0.000000    0.000000
     0.000000    8.284766    0.000000
     0.000000    0.000000    9.610466
   Al   C 
    16    12
Direct configuration=     6
   0.25000000  0.42863730  0.58984476
   0.75000000  0.57136270  0.41015524
   0.25000000  0.92863730  0.91015524
   0.75000000  0.07136270  0.08984476
   0.25000000  0.47625457  0.20608067
   0.75000000  0.52374543  0.79391933
   0.25000000  0.97625457  0.29391933
   0.75000000  0.02374543  0.70608067
   0.25000000  0.15324728  0.51248897
   0.75000000  0.84675272  0.48751103
   0.25000000  0.65324728  0.98751103
   0.75000000  0.34675272  0.01248897
   0.75000000  0.26274613  0.29836408
   0.25000000  0.73725387  0.70163592
   0.25000000  0.23725387  0.79836408
   0.75000000  0.76274613  0.20163592
   0.75000000  0.75739905  0.85834211
   0.25000000  0.24260095  0.14165789
   0.75000000  0.25739905  0.64165789
   0.25000000  0.74260095  0.35834211
   0.25000000  0.93334041  0.61056536
   0.75000000  0.56665959  0.11056536
   0.25000000  0.43334041  0.88943464
   0.75000000  0.06665959  0.38943464
   0.75000000  0.10217218  0.89126308
   0.25000000  0.89782782  0.10873692
   0.75000000  0.60217218  0.60873692
   0.25000000  0.39782782  0.39126308
Al4C3 anti-CaFe2O4 - r2SCAN H(P) scan @ 
           1
     2.712122    0.000000    0.000000
     0.000000    8.285556    0.000000
     0.000000    0.000000    9.611382
   Al   C 
    16    12
Direct configuration=     7
   0.25000000  0.42847268  0.58984571
   0.75000000  0.57152732  0.41015429
   0.25000000  0.92847268  0.91015429
   0.75000000  0.07152732  0.08984571
   0.25000000  0.47637164  0.20593455
   0.75000000  0.52362836  0.79406545
   0.25000000  0.97637164  0.29406545
   0.75000000  0.02362836  0.70593455
   0.25000000  0.15308990  0.51235312
   0.75000000  0.84691010  0.48764688
   0.25000000  0.65308990  0.98764688
   0.75000000  0.34691010  0.01235312
   0.75000000  0.26290979  0.29837777
   0.25000000  0.73709021  0.70162223
   0.25000000  0.23709021  0.79837777
   0.75000000  0.76290979  0.20162223
   0.75000000  0.75713381  0.85845532
   0.25000000  0.24286619  0.14154468
   0.75000000  0.25713381  0.64154468
   0.25000000  0.74286619  0.35845532
   0.25000000  0.93306425  0.61074093
   0.75000000  0.56693575  0.11074093
   0.25000000  0.43306425  0.88925907
   0.75000000  0.06693575  0.38925907
   0.75000000  0.10192928  0.89135655
   0.25000000  0.89807072  0.10864345
   0.75000000  0.60192928  0.60864345
   0.25000000  0.39807072  0.39135655
Al4C3 anti-CaFe2O4 - r2SCAN H(P) scan @ 
           1
     2.712110    0.000000    0.000000
     0.000000    8.285517    0.000000
     0.000000    0.000000    9.611337
   Al   C 
    16    12
Direct configuration=     8
   0.25000000  0.42848063  0.58984567
   0.75000000  0.57151937  0.41015433
   0.25000000  0.92848063  0.91015433
   0.75000000  0.07151937  0.08984567
   0.25000000  0.47636599  0.20594161
   0.75000000  0.52363401  0.79405839
   0.25000000  0.97636599  0.29405839
   0.75000000  0.02363401  0.70594161
   0.25000000  0.15309750  0.51235968
   0.75000000  0.84690250  0.48764032
   0.25000000  0.65309750  0.98764032
   0.75000000  0.34690250  0.01235968
   0.75000000  0.26290188  0.29837710
   0.25000000  0.73709812  0.70162290
   0.25000000  0.23709812  0.79837710
   0.75000000  0.76290188  0.20162290
   0.75000000  0.75714662  0.85844985
   0.25000000  0.24285338  0.14155015
   0.75000000  0.25714662  0.64155015
   0.25000000  0.74285338  0.35844985
   0.25000000  0.93307758  0.61073245
   0.75000000  0.56692242  0.11073245
   0.25000000  0.43307758  0.88926755
   0.75000000  0.06692242  0.38926755
   0.75000000  0.10194101  0.89135204
   0.25000000  0.89805899  0.10864796
   0.75000000  0.60194101  0.60864796
   0.25000000  0.39805899  0.39135204
Al4C3 anti-CaFe2O4 - r2SCAN H(P) scan @ 
           1
     2.712057    0.000000    0.000000
     0.000000    8.285357    0.000000
     0.000000    0.000000    9.611152
   Al   C 
    16    12
Direct configuration=     9
   0.25000000  0.42826438  0.58975878
   0.75000000  0.57173562  0.41024122
   0.25000000  0.92826438  0.91024122
   0.75000000  0.07173562  0.08975878
   0.25000000  0.47643735  0.20596177
   0.75000000  0.52356265  0.79403823
   0.25000000  0.97643735  0.29403823
   0.75000000  0.02356265  0.70596177
   0.25000000  0.15300375  0.51226809
   0.75000000  0.84699625  0.48773191
   0.25000000  0.65300375  0.98773191
   0.75000000  0.34699625  0.01226809
   0.75000000  0.26321426  0.29843375
   0.25000000  0.73678574  0.70156625
   0.25000000  0.23678574  0.79843375
   0.75000000  0.76321426  0.20156625
   0.75000000  0.75686538  0.85859776
   0.25000000  0.24313462  0.14140224
   0.75000000  0.25686538  0.64140224
   0.25000000  0.74313462  0.35859776
   0.25000000  0.93286103  0.61067443
   0.75000000  0.56713897  0.11067443
   0.25000000  0.43286103  0.88932557
   0.75000000  0.06713897  0.38932557
   0.75000000  0.10178020  0.89129293
   0.25000000  0.89821980  0.10870707
   0.75000000  0.60178020  0.60870707
   0.25000000  0.39821980  0.39129293
Al4C3 anti-CaFe2O4 - r2SCAN H(P) scan @ 
           1
     2.712060    0.000000    0.000000
     0.000000    8.285367    0.000000
     0.000000    0.000000    9.611163
   Al   C 
    16    12
Direct configuration=    10
   0.25000000  0.42827742  0.58976402
   0.75000000  0.57172258  0.41023598
   0.25000000  0.92827742  0.91023598
   0.75000000  0.07172258  0.08976402
   0.25000000  0.47643304  0.20596056
   0.75000000  0.52356696  0.79403944
   0.25000000  0.97643304  0.29403944
   0.75000000  0.02356696  0.70596056
   0.25000000  0.15300940  0.51227361
   0.75000000  0.84699060  0.48772639
   0.25000000  0.65300940  0.98772639
   0.75000000  0.34699060  0.01227361
   0.75000000  0.26319542  0.29843033
   0.25000000  0.73680458  0.70156967
   0.25000000  0.23680458  0.79843033
   0.75000000  0.76319542  0.20156967
   0.75000000  0.75688234  0.85858884
   0.25000000  0.24311766  0.14141116
   0.75000000  0.25688234  0.64141116
   0.25000000  0.74311766  0.35858884
   0.25000000  0.93287409  0.61067793
   0.75000000  0.56712591  0.11067793
   0.25000000  0.43287409  0.88932207
   0.75000000  0.06712591  0.38932207
   0.75000000  0.10178990  0.89129650
   0.25000000  0.89821010  0.10870350
   0.75000000  0.60178990  0.60870350
   0.25000000  0.39821010  0.39129650
Al4C3 anti-CaFe2O4 - r2SCAN H(P) scan @ 
           1
     2.712151    0.000000    0.000000
     0.000000    8.285644    0.000000
     0.000000    0.000000    9.611484
   Al   C 
    16    12
Direct configuration=    11
   0.25000000  0.42811552  0.58972729
   0.75000000  0.57188448  0.41027271
   0.25000000  0.92811552  0.91027271
   0.75000000  0.07188448  0.08972729
   0.25000000  0.47660651  0.20595833
   0.75000000  0.52339349  0.79404167
   0.25000000  0.97660651  0.29404167
   0.75000000  0.02339349  0.70595833
   0.25000000  0.15296247  0.51234479
   0.75000000  0.84703753  0.48765521
   0.25000000  0.65296247  0.98765521
   0.75000000  0.34703753  0.01234479
   0.75000000  0.26329402  0.29844363
   0.25000000  0.73670598  0.70155637
   0.25000000  0.23670598  0.79844363
   0.75000000  0.76329402  0.20155637
   0.75000000  0.75679984  0.85860919
   0.25000000  0.24320016  0.14139081
   0.75000000  0.25679984  0.64139081
   0.25000000  0.74320016  0.35860919
   0.25000000  0.93286157  0.61068044
   0.75000000  0.56713843  0.11068044
   0.25000000  0.43286157  0.88931956
   0.75000000  0.06713843  0.38931956
   0.75000000  0.10168350  0.89120179
   0.25000000  0.89831650  0.10879821
   0.75000000  0.60168350  0.60879821
   0.25000000  0.39831650  0.39120179
Al4C3 anti-CaFe2O4 - r2SCAN H(P) scan @ 
           1
     2.712193    0.000000    0.000000
     0.000000    8.285773    0.000000
     0.000000    0.000000    9.611634
   Al   C 
    16    12
Direct configuration=    12
   0.25000000  0.42803989  0.58971014
   0.75000000  0.57196011  0.41028986
   0.25000000  0.92803989  0.91028986
   0.75000000  0.07196011  0.08971014
   0.25000000  0.47668754  0.20595728
   0.75000000  0.52331246  0.79404272
   0.25000000  0.97668754  0.29404272
   0.75000000  0.02331246  0.70595728
   0.25000000  0.15294054  0.51237804
   0.75000000  0.84705946  0.48762196
   0.25000000  0.65294054  0.98762196
   0.75000000  0.34705946  0.01237804
   0.75000000  0.26334007  0.29844984
   0.25000000  0.73665993  0.70155016
   0.25000000  0.23665993  0.79844984
   0.75000000  0.76334007  0.20155016
   0.75000000  0.75676131  0.85861870
   0.25000000  0.24323869  0.14138130
   0.75000000  0.25676131  0.64138130
   0.25000000  0.74323869  0.35861870
   0.25000000  0.93285572  0.61068161
   0.75000000  0.56714428  0.11068161
   0.25000000  0.43285572  0.88931839
   0.75000000  0.06714428  0.38931839
   0.75000000  0.10163379  0.89115755
   0.25000000  0.89836621  0.10884245
   0.75000000  0.60163379  0.60884245
   0.25000000  0.39836621  0.39115755
Al4C3 anti-CaFe2O4 - r2SCAN H(P) scan @ 
           1
     2.712233    0.000000    0.000000
     0.000000    8.285895    0.000000
     0.000000    0.000000    9.611776
   Al   C 
    16    12
Direct configuration=    13
   0.25000000  0.42798350  0.58964712
   0.75000000  0.57201650  0.41035288
   0.25000000  0.92798350  0.91035288
   0.75000000  0.07201650  0.08964712
   0.25000000  0.47686390  0.20601572
   0.75000000  0.52313610  0.79398428
   0.25000000  0.97686390  0.29398428
   0.75000000  0.02313610  0.70601572
   0.25000000  0.15283103  0.51246017
   0.75000000  0.84716897  0.48753983
   0.25000000  0.65283103  0.98753983
   0.75000000  0.34716897  0.01246017
   0.75000000  0.26338830  0.29847482
   0.25000000  0.73661170  0.70152518
   0.25000000  0.23661170  0.79847482
   0.75000000  0.76338830  0.20152518
   0.75000000  0.75673367  0.85859263
   0.25000000  0.24326633  0.14140737
   0.75000000  0.25673367  0.64140737
   0.25000000  0.74326633  0.35859263
   0.25000000  0.93275402  0.61064602
   0.75000000  0.56724598  0.11064602
   0.25000000  0.43275402  0.88935398
   0.75000000  0.06724598  0.38935398
   0.75000000  0.10148682  0.89112652
   0.25000000  0.89851318  0.10887348
   0.75000000  0.60148682  0.60887348
   0.25000000  0.39851318  0.39112652
Al4C3 anti-CaFe2O4 - r2SCAN H(P) scan @ 
           1
     2.712268    0.000000    0.000000
     0.000000    8.286000    0.000000
     0.000000    0.000000    9.611898
   Al   C 
    16    12
Direct configuration=    14
   0.25000000  0.42793500  0.58959291
   0.75000000  0.57206500  0.41040709
   0.25000000  0.92793500  0.91040709
   0.75000000  0.07206500  0.08959291
   0.25000000  0.47701561  0.20606598
   0.75000000  0.52298439  0.79393402
   0.25000000  0.97701561  0.29393402
   0.75000000  0.02298439  0.70606598
   0.25000000  0.15273682  0.51253083
   0.75000000  0.84726318  0.48746917
   0.25000000  0.65273682  0.98746917
   0.75000000  0.34726318  0.01253083
   0.75000000  0.26342978  0.29849631
   0.25000000  0.73657022  0.70150369
   0.25000000  0.23657022  0.79849631
   0.75000000  0.76342978  0.20150369
   0.75000000  0.75670988  0.85857021
   0.25000000  0.24329012  0.14142979
   0.75000000  0.25670988  0.64142979
   0.25000000  0.74329012  0.35857021
   0.25000000  0.93266654  0.61061540
   0.75000000  0.56733346  0.11061540
   0.25000000  0.43266654  0.88938460
   0.75000000  0.06733346  0.38938460
   0.75000000  0.10136039  0.89109984
   0.25000000  0.89863961  0.10890016
   0.75000000  0.60136039  0.60890016
   0.25000000  0.39863961  0.39109984
Al4C3 anti-CaFe2O4 - r2SCAN H(P) scan @ 
           1
     2.712279    0.000000    0.000000
     0.000000    8.286035    0.000000
     0.000000    0.000000    9.611938
   Al   C 
    16    12
Direct configuration=    15
   0.25000000  0.42791912  0.58957517
   0.75000000  0.57208088  0.41042483
   0.25000000  0.92791912  0.91042483
   0.75000000  0.07208088  0.08957517
   0.25000000  0.47706526  0.20608243
   0.75000000  0.52293474  0.79391757
   0.25000000  0.97706526  0.29391757
   0.75000000  0.02293474  0.70608243
   0.25000000  0.15270599  0.51255395
   0.75000000  0.84729401  0.48744605
   0.25000000  0.65270599  0.98744605
   0.75000000  0.34729401  0.01255395
   0.75000000  0.26344336  0.29850334
   0.25000000  0.73655664  0.70149666
   0.25000000  0.23655664  0.79850334
   0.75000000  0.76344336  0.20149666
   0.75000000  0.75670210  0.85856287
   0.25000000  0.24329790  0.14143713
   0.75000000  0.25670210  0.64143713
   0.25000000  0.74329790  0.35856287
   0.25000000  0.93263790  0.61060538
   0.75000000  0.56736210  0.11060538
   0.25000000  0.43263790  0.88939462
   0.75000000  0.06736210  0.38939462
   0.75000000  0.10131902  0.89109111
   0.25000000  0.89868098  0.10890889
   0.75000000  0.60131902  0.60890889
   0.25000000  0.39868098  0.39109111
Al4C3 anti-CaFe2O4 - r2SCAN H(P) scan @ 
           1
     2.712266    0.000000    0.000000
     0.000000    8.285994    0.000000
     0.000000    0.000000    9.611890
   Al   C 
    16    12
Direct configuration=    16
   0.25000000  0.42789795  0.58952278
   0.75000000  0.57210205  0.41047722
   0.25000000  0.92789795  0.91047722
   0.75000000  0.07210205  0.08952278
   0.25000000  0.47718824  0.20613651
   0.75000000  0.52281176  0.79386349
   0.25000000  0.97718824  0.29386349
   0.75000000  0.02281176  0.70613651
   0.25000000  0.15262165  0.51265875
   0.75000000  0.84737835  0.48734125
   0.25000000  0.65262165  0.98734125
   0.75000000  0.34737835  0.01265875
   0.75000000  0.26359745  0.29852375
   0.25000000  0.73640255  0.70147625
   0.25000000  0.23640255  0.79852375
   0.75000000  0.76359745  0.20147625
   0.75000000  0.75665599  0.85849335
   0.25000000  0.24334401  0.14150665
   0.75000000  0.25665599  0.64150665
   0.25000000  0.74334401  0.35849335
   0.25000000  0.93259061  0.61056432
   0.75000000  0.56740939  0.11056432
   0.25000000  0.43259061  0.88943568
   0.75000000  0.06740939  0.38943568
   0.75000000  0.10130232  0.89112575
   0.25000000  0.89869768  0.10887425
   0.75000000  0.60130232  0.60887425
   0.25000000  0.39869768  0.39112575
Al4C3 anti-CaFe2O4 - r2SCAN H(P) scan @ 
           1
     2.712267    0.000000    0.000000
     0.000000    8.285999    0.000000
     0.000000    0.000000    9.611896
   Al   C 
    16    12
Direct configuration=    17
   0.25000000  0.42790031  0.58952861
   0.75000000  0.57209969  0.41047139
   0.25000000  0.92790031  0.91047139
   0.75000000  0.07209969  0.08952861
   0.25000000  0.47717456  0.20613049
   0.75000000  0.52282544  0.79386951
   0.25000000  0.97717456  0.29386951
   0.75000000  0.02282544  0.70613049
   0.25000000  0.15263104  0.51264708
   0.75000000  0.84736896  0.48735292
   0.25000000  0.65263104  0.98735292
   0.75000000  0.34736896  0.01264708
   0.75000000  0.26358030  0.29852148
   0.25000000  0.73641970  0.70147852
   0.25000000  0.23641970  0.79852148
   0.75000000  0.76358030  0.20147852
   0.75000000  0.75666112  0.85850109
   0.25000000  0.24333888  0.14149891
   0.75000000  0.25666112  0.64149891
   0.25000000  0.74333888  0.35850109
   0.25000000  0.93259588  0.61056889
   0.75000000  0.56740412  0.11056889
   0.25000000  0.43259588  0.88943111
   0.75000000  0.06740412  0.38943111
   0.75000000  0.10130418  0.89112190
   0.25000000  0.89869582  0.10887810
   0.75000000  0.60130418  0.60887810
   0.25000000  0.39869582  0.39112190
Al4C3 anti-CaFe2O4 - r2SCAN H(P) scan @ 
           1
     2.712239    0.000000    0.000000
     0.000000    8.285912    0.000000
     0.000000    0.000000    9.611795
   Al   C 
    16    12
Direct configuration=    18
   0.25000000  0.42786122  0.58955680
   0.75000000  0.57213878  0.41044320
   0.25000000  0.92786122  0.91044320
   0.75000000  0.07213878  0.08955680
   0.25000000  0.47728008  0.20613948
   0.75000000  0.52271992  0.79386052
   0.25000000  0.97728008  0.29386052
   0.75000000  0.02271992  0.70613948
   0.25000000  0.15260012  0.51269712
   0.75000000  0.84739988  0.48730288
   0.25000000  0.65260012  0.98730288
   0.75000000  0.34739988  0.01269712
   0.75000000  0.26361819  0.29857047
   0.25000000  0.73638181  0.70142953
   0.25000000  0.23638181  0.79857047
   0.75000000  0.76361819  0.20142953
   0.75000000  0.75663210  0.85844990
   0.25000000  0.24336790  0.14155010
   0.75000000  0.25663210  0.64155010
   0.25000000  0.74336790  0.35844990
   0.25000000  0.93256516  0.61059535
   0.75000000  0.56743484  0.11059535
   0.25000000  0.43256516  0.88940465
   0.75000000  0.06743484  0.38940465
   0.75000000  0.10133784  0.89116816
   0.25000000  0.89866216  0.10883184
   0.75000000  0.60133784  0.60883184
   0.25000000  0.39866216  0.39116816
Al4C3 anti-CaFe2O4 - r2SCAN H(P) scan @ 
           1
     2.712247    0.000000    0.000000
     0.000000    8.285936    0.000000
     0.000000    0.000000    9.611823
   Al   C 
    16    12
Direct configuration=    19
   0.25000000  0.42787207  0.58954897
   0.75000000  0.57212793  0.41045103
   0.25000000  0.92787207  0.91045103
   0.75000000  0.07212793  0.08954897
   0.25000000  0.47725078  0.20613698
   0.75000000  0.52274922  0.79386302
   0.25000000  0.97725078  0.29386302
   0.75000000  0.02274922  0.70613698
   0.25000000  0.15260871  0.51268322
   0.75000000  0.84739129  0.48731678
   0.25000000  0.65260871  0.98731678
   0.75000000  0.34739129  0.01268322
   0.75000000  0.26360767  0.29855686
   0.25000000  0.73639233  0.70144314
   0.25000000  0.23639233  0.79855686
   0.75000000  0.76360767  0.20144314
   0.75000000  0.75664016  0.85846411
   0.25000000  0.24335984  0.14153589
   0.75000000  0.25664016  0.64153589
   0.25000000  0.74335984  0.35846411
   0.25000000  0.93257369  0.61058801
   0.75000000  0.56742631  0.11058801
   0.25000000  0.43257369  0.88941199
   0.75000000  0.06742631  0.38941199
   0.75000000  0.10132849  0.89115531
   0.25000000  0.89867151  0.10884469
   0.75000000  0.60132849  0.60884469
   0.25000000  0.39867151  0.39115531
Al4C3 anti-CaFe2O4 - r2SCAN H(P) scan @ 
           1
     2.712256    0.000000    0.000000
     0.000000    8.285965    0.000000
     0.000000    0.000000    9.611857
   Al   C 
    16    12
Direct configuration=    20
   0.25000000  0.42786199  0.58958022
   0.75000000  0.57213801  0.41041978
   0.25000000  0.92786199  0.91041978
   0.75000000  0.07213801  0.08958022
   0.25000000  0.47726617  0.20617990
   0.75000000  0.52273383  0.79382010
   0.25000000  0.97726617  0.29382010
   0.75000000  0.02273383  0.70617990
   0.25000000  0.15261318  0.51269252
   0.75000000  0.84738682  0.48730748
   0.25000000  0.65261318  0.98730748
   0.75000000  0.34738682  0.01269252
   0.75000000  0.26362339  0.29859373
   0.25000000  0.73637661  0.70140627
   0.25000000  0.23637661  0.79859373
   0.75000000  0.76362339  0.20140627
   0.75000000  0.75662112  0.85844204
   0.25000000  0.24337888  0.14155796
   0.75000000  0.25662112  0.64155796
   0.25000000  0.74337888  0.35844204
   0.25000000  0.93256512  0.61058083
   0.75000000  0.56743488  0.11058083
   0.25000000  0.43256512  0.88941917
   0.75000000  0.06743488  0.38941917
   0.75000000  0.10132784  0.89116837
   0.25000000  0.89867216  0.10883163
   0.75000000  0.60132784  0.60883163
   0.25000000  0.39867216  0.39116837
