Al4C3 anti-CaFe2O4-type, volume pre-scal
   1.00000000000000     
     2.6999407323059241    0.0000000000000000    0.0000000000000000
     0.0000000000000000    8.2483416041423787    0.0000000000000000
     0.0000000000000000    0.0000000000000000    9.5682128824919754
   Al   C 
    16    12
Direct
  0.2500000000000000  0.4297109600064543  0.5902292617526003
  0.7500000000000000  0.5702890399935462  0.4097707382473998
  0.2500000000000000  0.9297109600064538  0.9097707382473997
  0.7500000000000000  0.0702890399935458  0.0902292617526002
  0.2500000000000000  0.4756098900341765  0.2062081046605214
  0.7500000000000000  0.5243901099658234  0.7937918953394787
  0.2500000000000000  0.9756098900341766  0.2937918953394787
  0.7500000000000000  0.0243901099658233  0.7062081046605213
  0.2500000000000000  0.1545420034615323  0.5121611672772883
  0.7500000000000000  0.8454579965384605  0.4878388327227119
  0.2500000000000000  0.6545420034615395  0.9878388327227117
  0.7500000000000000  0.3454579965384676  0.0121611672772882
  0.7500000000000000  0.2613939071954093  0.2982814089902942
  0.2500000000000000  0.7386060928045909  0.7017185910097058
  0.2500000000000000  0.2386060928045906  0.7982814089902942
  0.7500000000000000  0.7613939071954091  0.2017185910097058
  0.7500000000000000  0.7588525531867378  0.8582548360597683
  0.2500000000000000  0.2411474468132621  0.1417451639402318
  0.7500000000000000  0.2588525531867379  0.6417451639402317
  0.2500000000000000  0.7411474468132622  0.3582548360597754
  0.2500000000000000  0.9343182920316381  0.6097262526773065
  0.7500000000000000  0.5656817079683619  0.1097262526773066
  0.2500000000000000  0.4343182920316380  0.8902737473226935
  0.7500000000000000  0.0656817079683621  0.3902737473226934
  0.7500000000000000  0.1040107015084352  0.8920275271869458
  0.2500000000000000  0.8959892984915647  0.1079724728130542
  0.7500000000000000  0.6040107015084353  0.6079724728130542
  0.2500000000000000  0.3959892984915648  0.3920275271869459
 
  0.00000000E+00  0.00000000E+00  0.00000000E+00
  0.00000000E+00  0.00000000E+00  0.00000000E+00
  0.00000000E+00  0.00000000E+00  0.00000000E+00
  0.00000000E+00  0.00000000E+00  0.00000000E+00
  0.00000000E+00  0.00000000E+00  0.00000000E+00
  0.00000000E+00  0.00000000E+00  0.00000000E+00
  0.00000000E+00  0.00000000E+00  0.00000000E+00
  0.00000000E+00  0.00000000E+00  0.00000000E+00
  0.00000000E+00  0.00000000E+00  0.00000000E+00
  0.00000000E+00  0.00000000E+00  0.00000000E+00
  0.00000000E+00  0.00000000E+00  0.00000000E+00
  0.00000000E+00  0.00000000E+00  0.00000000E+00
  0.00000000E+00  0.00000000E+00  0.00000000E+00
  0.00000000E+00  0.00000000E+00  0.00000000E+00
  0.00000000E+00  0.00000000E+00  0.00000000E+00
  0.00000000E+00  0.00000000E+00  0.00000000E+00
  0.00000000E+00  0.00000000E+00  0.00000000E+00
  0.00000000E+00  0.00000000E+00  0.00000000E+00
  0.00000000E+00  0.00000000E+00  0.00000000E+00
  0.00000000E+00  0.00000000E+00  0.00000000E+00
  0.00000000E+00  0.00000000E+00  0.00000000E+00
  0.00000000E+00  0.00000000E+00  0.00000000E+00
  0.00000000E+00  0.00000000E+00  0.00000000E+00
  0.00000000E+00  0.00000000E+00  0.00000000E+00
  0.00000000E+00  0.00000000E+00  0.00000000E+00
  0.00000000E+00  0.00000000E+00  0.00000000E+00
  0.00000000E+00  0.00000000E+00  0.00000000E+00
  0.00000000E+00  0.00000000E+00  0.00000000E+00
