  28  28   0   0
  0.7778436E+01  0.2719696E-09  0.8308696E-09  0.9638224E-09  0.5000000E-15
  1.000000000000000E-004
  CAR 
 Al4C3 anti-CaFe2O4 - H(P) scan @ 90 GPa 
     22.58529649     -5.43508685  301     13.90481523      1.00000000
     -5.435  0.0000E+00  0.0000E+00
     -5.342  0.0000E+00  0.0000E+00
     -5.248  0.0000E+00  0.0000E+00
     -5.155  0.0000E+00  0.0000E+00
     -5.061  0.0000E+00  0.0000E+00
     -4.968  0.0000E+00  0.0000E+00
     -4.875  0.0000E+00  0.0000E+00
     -4.781  0.0000E+00  0.0000E+00
     -4.688  0.0000E+00  0.0000E+00
     -4.594  0.0000E+00  0.0000E+00
     -4.501  0.0000E+00  0.0000E+00
     -4.408  0.9175E-15  0.8570E-16
     -4.314  0.4293E-08  0.4010E-09
     -4.221  0.2587E-04  0.2417E-05
     -4.127  0.5269E-03  0.5163E-04
     -4.034  0.2311E-02  0.2674E-03
     -3.941  0.4540E-02  0.6915E-03
     -3.847  0.4901E-02  0.1149E-02
     -3.754  0.4054E-02  0.1528E-02
     -3.660  0.5422E-02  0.2034E-02
     -3.567  0.9384E-02  0.2911E-02
     -3.474  0.1015E-01  0.3859E-02
     -3.380  0.5747E-02  0.4396E-02
     -3.287  0.6208E-02  0.4976E-02
     -3.193  0.1020E-01  0.5928E-02
     -3.100  0.1134E-01  0.6987E-02
     -3.007  0.5708E-02  0.7520E-02
     -2.913  0.1012E-01  0.8465E-02
     -2.820  0.1404E-01  0.9776E-02
     -2.726  0.1371E-01  0.1106E-01
     -2.633  0.1103E-01  0.1209E-01
     -2.540  0.1147E-01  0.1316E-01
     -2.446  0.8850E-02  0.1399E-01
     -2.353  0.1107E-01  0.1502E-01
     -2.259  0.1630E-01  0.1654E-01
     -2.166  0.1463E-01  0.1791E-01
     -2.073  0.1201E-01  0.1903E-01
     -1.979  0.1210E-01  0.2016E-01
     -1.886  0.1635E-01  0.2169E-01
     -1.792  0.1907E-01  0.2347E-01
     -1.699  0.2183E-01  0.2551E-01
     -1.606  0.1317E-01  0.2674E-01
     -1.512  0.9351E-02  0.2761E-01
     -1.419  0.1637E-01  0.2914E-01
     -1.325  0.1599E-01  0.3063E-01
     -1.232  0.1430E-01  0.3197E-01
     -1.139  0.1884E-01  0.3373E-01
     -1.045  0.2511E-01  0.3608E-01
     -0.952  0.2134E-01  0.3807E-01
     -0.858  0.1919E-01  0.3986E-01
     -0.765  0.2224E-01  0.4194E-01
     -0.672  0.2207E-01  0.4400E-01
     -0.578  0.1953E-01  0.4582E-01
     -0.485  0.1871E-01  0.4757E-01
     -0.391  0.1714E-01  0.4917E-01
     -0.298  0.1351E-01  0.5043E-01
     -0.205  0.2180E-01  0.5247E-01
     -0.111  0.4157E-01  0.5635E-01
     -0.018  0.2677E-01  0.5885E-01
      0.076  0.2407E-01  0.6110E-01
      0.169  0.2814E-01  0.6373E-01
      0.262  0.2890E-01  0.6643E-01
      0.356  0.3511E-01  0.6971E-01
      0.449  0.2890E-01  0.7241E-01
      0.543  0.2518E-01  0.7476E-01
      0.636  0.4021E-01  0.7852E-01
      0.729  0.3786E-01  0.8205E-01
      0.823  0.3478E-01  0.8530E-01
      0.916  0.2838E-01  0.8795E-01
      1.010  0.4039E-01  0.9172E-01
      1.103  0.3395E-01  0.9489E-01
      1.196  0.3755E-01  0.9840E-01
      1.290  0.3055E-01  0.1013E+00
      1.383  0.1803E-01  0.1029E+00
      1.477  0.2042E-01  0.1048E+00
      1.570  0.1383E-01  0.1061E+00
      1.663  0.1597E-01  0.1076E+00
      1.757  0.1356E-01  0.1089E+00
      1.850  0.1321E-01  0.1101E+00
      1.944  0.8040E-02  0.1109E+00
      2.037  0.2024E-01  0.1128E+00
      2.130  0.1119E-01  0.1138E+00
      2.224  0.6085E-02  0.1144E+00
      2.317  0.1168E-01  0.1155E+00
      2.411  0.1130E-01  0.1165E+00
      2.504  0.8454E-02  0.1173E+00
      2.597  0.6043E-02  0.1179E+00
      2.691  0.7086E-02  0.1185E+00
      2.784  0.9550E-02  0.1194E+00
      2.878  0.3968E-02  0.1198E+00
      2.971  0.2030E-02  0.1200E+00
      3.064  0.9328E-03  0.1201E+00
      3.158  0.1924E-02  0.1203E+00
      3.251  0.3562E-02  0.1206E+00
      3.345  0.4956E-02  0.1211E+00
      3.438  0.6133E-02  0.1216E+00
      3.531  0.7797E-02  0.1224E+00
      3.625  0.6930E-02  0.1230E+00
      3.718  0.1071E-01  0.1240E+00
      3.812  0.1190E-01  0.1251E+00
      3.905  0.1476E-01  0.1265E+00
      3.998  0.1513E-01  0.1279E+00
      4.092  0.2284E-01  0.1300E+00
      4.185  0.4052E-01  0.1338E+00
      4.279  0.3131E-01  0.1368E+00
      4.372  0.2752E-01  0.1393E+00
      4.465  0.3068E-01  0.1422E+00
      4.559  0.3121E-01  0.1451E+00
      4.652  0.2839E-01  0.1478E+00
      4.746  0.3739E-01  0.1513E+00
      4.839  0.3717E-01  0.1547E+00
      4.932  0.2868E-01  0.1574E+00
      5.026  0.4078E-01  0.1612E+00
      5.119  0.4947E-01  0.1658E+00
      5.213  0.3731E-01  0.1693E+00
      5.306  0.2370E-01  0.1715E+00
      5.399  0.4194E-01  0.1754E+00
      5.493  0.3561E-01  0.1788E+00
      5.586  0.2147E-01  0.1808E+00
      5.680  0.2696E-01  0.1833E+00
      5.773  0.2939E-01  0.1860E+00
      5.866  0.3399E-01  0.1892E+00
      5.960  0.4061E-01  0.1930E+00
      6.053  0.2717E-01  0.1955E+00
      6.147  0.3205E-01  0.1985E+00
      6.240  0.3070E-01  0.2014E+00
      6.333  0.2552E-01  0.2038E+00
      6.427  0.3756E-01  0.2073E+00
      6.520  0.4760E-01  0.2117E+00
      6.614  0.3881E-01  0.2154E+00
      6.707  0.3068E-01  0.2182E+00
      6.800  0.3583E-01  0.2216E+00
      6.894  0.3543E-01  0.2249E+00
      6.987  0.2775E-01  0.2275E+00
      7.081  0.3781E-01  0.2310E+00
      7.174  0.3096E-01  0.2339E+00
      7.267  0.2765E-01  0.2365E+00
      7.361  0.4055E-01  0.2403E+00
      7.454  0.4536E-01  0.2445E+00
      7.548  0.3422E-01  0.2477E+00
      7.641  0.3967E-01  0.2514E+00
      7.734  0.3465E-01  0.2547E+00
      7.828  0.4512E-01  0.2589E+00
      7.921  0.4347E-01  0.2629E+00
      8.015  0.3839E-01  0.2665E+00
      8.108  0.4282E-01  0.2705E+00
      8.201  0.5328E-01  0.2755E+00
      8.295  0.3998E-01  0.2792E+00
      8.388  0.3601E-01  0.2826E+00
      8.482  0.3494E-01  0.2859E+00
      8.575  0.3706E-01  0.2893E+00
      8.669  0.3908E-01  0.2930E+00
      8.762  0.3407E-01  0.2961E+00
      8.855  0.4351E-01  0.3002E+00
      8.949  0.4197E-01  0.3041E+00
      9.042  0.2827E-01  0.3068E+00
      9.136  0.4435E-01  0.3109E+00
      9.229  0.2587E-01  0.3133E+00
      9.322  0.3583E-01  0.3167E+00
      9.416  0.4889E-01  0.3212E+00
      9.509  0.4473E-01  0.3254E+00
      9.603  0.5569E-01  0.3306E+00
      9.696  0.3628E-01  0.3340E+00
      9.789  0.3695E-01  0.3375E+00
      9.883  0.3661E-01  0.3409E+00
      9.976  0.4750E-01  0.3453E+00
     10.070  0.5674E-01  0.3506E+00
     10.163  0.4999E-01  0.3553E+00
     10.256  0.3621E-01  0.3587E+00
     10.350  0.3309E-01  0.3618E+00
     10.443  0.3708E-01  0.3652E+00
     10.537  0.3229E-01  0.3682E+00
     10.630  0.4240E-01  0.3722E+00
     10.723  0.6523E-01  0.3783E+00
     10.817  0.6702E-01  0.3845E+00
     10.910  0.6038E-01  0.3902E+00
     11.004  0.4802E-01  0.3947E+00
     11.097  0.4696E-01  0.3991E+00
     11.190  0.5942E-01  0.4046E+00
     11.284  0.4962E-01  0.4092E+00
     11.377  0.6928E-01  0.4157E+00
     11.471  0.7849E-01  0.4230E+00
     11.564  0.6050E-01  0.4287E+00
     11.657  0.6859E-01  0.4351E+00
     11.751  0.4183E-01  0.4390E+00
     11.844  0.4913E-01  0.4436E+00
     11.938  0.4571E-01  0.4479E+00
     12.031  0.3759E-01  0.4514E+00
     12.124  0.3542E-01  0.4547E+00
     12.218  0.3478E-01  0.4579E+00
     12.311  0.3826E-01  0.4615E+00
     12.405  0.1414E-01  0.4628E+00
     12.498  0.1939E-01  0.4646E+00
     12.591  0.2099E-01  0.4666E+00
     12.685  0.1505E-01  0.4680E+00
     12.778  0.2320E-01  0.4702E+00
     12.872  0.1980E-01  0.4720E+00
     12.965  0.2494E-01  0.4743E+00
     13.058  0.1687E-01  0.4759E+00
     13.152  0.7374E-02  0.4766E+00
     13.245  0.2623E-02  0.4769E+00
     13.339  0.5149E-02  0.4773E+00
     13.432  0.5360E-02  0.4778E+00
     13.525  0.9123E-02  0.4787E+00
     13.619  0.9201E-02  0.4796E+00
     13.712  0.4596E-02  0.4800E+00
     13.806  0.2084E-03  0.4800E+00
     13.899  0.7657E-07  0.4800E+00
     13.992  0.7668E-13  0.4800E+00
     14.086  0.2824E-07  0.4800E+00
     14.179  0.1209E-03  0.4800E+00
     14.273  0.3061E-02  0.4803E+00
     14.366  0.6144E-02  0.4809E+00
     14.459  0.1540E-01  0.4823E+00
     14.553  0.1051E-01  0.4833E+00
     14.646  0.1077E-01  0.4843E+00
     14.740  0.1684E-01  0.4859E+00
     14.833  0.1539E-01  0.4873E+00
     14.926  0.1745E-01  0.4889E+00
     15.020  0.2226E-01  0.4910E+00
     15.113  0.1873E-01  0.4928E+00
     15.207  0.7519E-02  0.4935E+00
     15.300  0.1435E-01  0.4948E+00
     15.393  0.1156E-01  0.4959E+00
     15.487  0.2089E-01  0.4978E+00
     15.580  0.1582E-01  0.4993E+00
     15.674  0.3480E-01  0.5026E+00
     15.767  0.3537E-01  0.5059E+00
     15.860  0.2273E-01  0.5080E+00
     15.954  0.2978E-01  0.5108E+00
     16.047  0.2907E-01  0.5135E+00
     16.141  0.1796E-01  0.5152E+00
     16.234  0.2785E-01  0.5178E+00
     16.327  0.2934E-01  0.5205E+00
     16.421  0.2833E-01  0.5232E+00
     16.514  0.2903E-01  0.5259E+00
     16.608  0.2056E-01  0.5278E+00
     16.701  0.1250E-01  0.5290E+00
     16.794  0.2225E-01  0.5310E+00
     16.888  0.3032E-01  0.5339E+00
     16.981  0.2943E-01  0.5366E+00
     17.075  0.2950E-01  0.5394E+00
     17.168  0.2999E-01  0.5422E+00
     17.261  0.3245E-01  0.5452E+00
     17.355  0.4036E-01  0.5490E+00
     17.448  0.3137E-01  0.5519E+00
     17.542  0.3268E-01  0.5550E+00
     17.635  0.4521E-01  0.5592E+00
     17.728  0.3419E-01  0.5624E+00
     17.822  0.2360E-01  0.5646E+00
     17.915  0.4153E-01  0.5685E+00
     18.009  0.4306E-01  0.5725E+00
     18.102  0.4273E-01  0.5765E+00
     18.195  0.3494E-01  0.5797E+00
     18.289  0.4093E-01  0.5836E+00
     18.382  0.3548E-01  0.5869E+00
     18.476  0.2915E-01  0.5896E+00
     18.569  0.3463E-01  0.5928E+00
     18.662  0.2871E-01  0.5955E+00
     18.756  0.2992E-01  0.5983E+00
     18.849  0.2444E-01  0.6006E+00
     18.943  0.3627E-01  0.6040E+00
     19.036  0.3354E-01  0.6071E+00
     19.129  0.4251E-01  0.6111E+00
     19.223  0.2211E-01  0.6131E+00
     19.316  0.2730E-01  0.6157E+00
     19.410  0.3532E-01  0.6190E+00
     19.503  0.3553E-01  0.6223E+00
     19.596  0.1575E-01  0.6238E+00
     19.690  0.2338E-01  0.6260E+00
     19.783  0.2691E-01  0.6285E+00
     19.877  0.3162E-01  0.6314E+00
     19.970  0.2742E-01  0.6340E+00
     20.063  0.1931E-01  0.6358E+00
     20.157  0.2597E-01  0.6382E+00
     20.250  0.2634E-01  0.6407E+00
     20.344  0.1967E-01  0.6425E+00
     20.437  0.2814E-01  0.6451E+00
     20.530  0.2589E-01  0.6476E+00
     20.624  0.1180E-01  0.6487E+00
     20.717  0.2193E-01  0.6507E+00
     20.811  0.1360E-01  0.6520E+00
     20.904  0.2197E-01  0.6540E+00
     20.997  0.1783E-01  0.6557E+00
     21.091  0.1787E-01  0.6574E+00
     21.184  0.1853E-01  0.6591E+00
     21.278  0.7129E-02  0.6598E+00
     21.371  0.2402E-02  0.6600E+00
     21.464  0.1051E-03  0.6600E+00
     21.558  0.1718E-07  0.6600E+00
     21.651  0.3670E-14  0.6600E+00
     21.745  0.0000E+00  0.6600E+00
     21.838  0.0000E+00  0.6600E+00
     21.931  0.0000E+00  0.6600E+00
     22.025  0.0000E+00  0.6600E+00
     22.118  0.0000E+00  0.6600E+00
     22.212  0.0000E+00  0.6600E+00
     22.305  0.0000E+00  0.6600E+00
     22.398  0.0000E+00  0.6600E+00
     22.492  0.0000E+00  0.6600E+00
     22.585  0.0000E+00  0.6600E+00
