       N       E                     dE             d eps       ncg     rms          rms(c)
DAV:   1    -0.152020756371E+03   -0.15202E+03   -0.61915E-05  7548   0.697E-02    0.119E-02
DAV:   2    -0.152020759539E+03   -0.31679E-05   -0.52992E-07  4296   0.532E-03
   1 F= -.29676885E+02 E0= -.29676885E+02  d E =-.296769E+02
       N       E                     dE             d eps       ncg     rms          rms(c)
DAV:   1    -0.143226986648E+03    0.87938E+01   -0.12827E+01  9294   0.154E+01    0.384E+00
DAV:   2    -0.142937386344E+03    0.28960E+00   -0.71669E-01  9684   0.283E+00    0.185E+00
DAV:   3    -0.142908988198E+03    0.28398E-01   -0.13107E-01  9492   0.111E+00    0.509E-01
DAV:   4    -0.142905847274E+03    0.31409E-02   -0.69257E-03  9792   0.275E-01    0.172E-01
DAV:   5    -0.142905374983E+03    0.47229E-03   -0.57059E-04  9738   0.883E-02    0.109E-01
DAV:   6    -0.142905324950E+03    0.50033E-04   -0.14037E-04  9546   0.415E-02    0.128E-02
DAV:   7    -0.142905322835E+03    0.21149E-05   -0.11487E-05  5490   0.187E-02
   2 F= -.28981623E+02 E0= -.28981623E+02  d E =0.695262E+00
       N       E                     dE             d eps       ncg     rms          rms(c)
DAV:   1    -0.149819039616E+03   -0.69137E+01   -0.61948E+00  9246   0.104E+01    0.272E+00
DAV:   2    -0.149671596548E+03    0.14744E+00   -0.36818E-01  9762   0.199E+00    0.129E+00
DAV:   3    -0.149657786304E+03    0.13810E-01   -0.64415E-02  9432   0.765E-01    0.363E-01
DAV:   4    -0.149655985214E+03    0.18011E-02   -0.38660E-03  9834   0.201E-01    0.119E-01
DAV:   5    -0.149655650165E+03    0.33505E-03   -0.37454E-04  9768   0.689E-02    0.735E-02
DAV:   6    -0.149655592184E+03    0.57981E-04   -0.82036E-05  9228   0.309E-02    0.107E-02
DAV:   7    -0.149655586631E+03    0.55532E-05   -0.62362E-06  5118   0.138E-02
   3 F= -.29821489E+02 E0= -.29821489E+02  d E =-.144604E+00
       N       E                     dE             d eps       ncg     rms          rms(c)
DAV:   1    -0.149612903165E+03    0.42689E-01   -0.31767E-04  9264   0.743E-02    0.201E-02
DAV:   2    -0.149612898477E+03    0.46885E-05   -0.17924E-05  4998   0.142E-02
   4 F= -.29821534E+02 E0= -.29821534E+02  d E =-.144649E+00
       N       E                     dE             d eps       ncg     rms          rms(c)
DAV:   1    -0.149607682318E+03    0.52208E-02   -0.29232E-06  4650   0.643E-03    0.526E-03
DAV:   2    -0.149607683023E+03   -0.70481E-06   -0.49976E-07  4572   0.237E-03
   5 F= -.29821536E+02 E0= -.29821536E+02  d E =-.144651E+00
       N       E                     dE             d eps       ncg     rms          rms(c)
DAV:   1    -0.149610048656E+03   -0.23663E-02   -0.10822E-06  4524   0.451E-03    0.884E-04
DAV:   2    -0.149610048639E+03    0.17346E-07   -0.69792E-08  4464   0.106E-03
   6 F= -.29821537E+02 E0= -.29821537E+02  d E =-.144652E+00
       N       E                     dE             d eps       ncg     rms          rms(c)
DAV:   1    -0.149568096101E+03    0.41953E-01   -0.26178E-01  8334   0.210E+00    0.116E-01
DAV:   2    -0.149567996110E+03    0.99991E-04   -0.45277E-03 10008   0.263E-01    0.750E-02
DAV:   3    -0.149567840419E+03    0.15569E-03   -0.43966E-04  9894   0.864E-02    0.306E-02
DAV:   4    -0.149567836235E+03    0.41833E-05   -0.11998E-04  9630   0.398E-02    0.158E-02
DAV:   5    -0.149567835299E+03    0.93587E-06   -0.13959E-05  5586   0.140E-02
   7 F= -.29823897E+02 E0= -.29823897E+02  d E =-.235962E-02
       N       E                     dE             d eps       ncg     rms          rms(c)
DAV:   1    -0.149571134584E+03   -0.32983E-02   -0.13789E-03  8412   0.153E-01    0.831E-03
DAV:   2    -0.149571134325E+03    0.25968E-06   -0.22960E-05  7554   0.189E-02
   8 F= -.29823910E+02 E0= -.29823910E+02  d E =-.237259E-02
       N       E                     dE             d eps       ncg     rms          rms(c)
DAV:   1    -0.149555098403E+03    0.16036E-01   -0.26788E-01  8340   0.208E+00    0.110E-01
DAV:   2    -0.149554870131E+03    0.22827E-03   -0.48669E-03 10032   0.274E-01    0.642E-02
DAV:   3    -0.149554728988E+03    0.14114E-03   -0.37670E-04  9618   0.802E-02    0.254E-02
DAV:   4    -0.149554729116E+03   -0.12789E-06   -0.12902E-04  9576   0.369E-02    0.117E-02
DAV:   5    -0.149554729251E+03   -0.13485E-06   -0.48377E-06  5052   0.846E-03
   9 F= -.29825123E+02 E0= -.29825123E+02  d E =-.121362E-02
       N       E                     dE             d eps       ncg     rms          rms(c)
DAV:   1    -0.149557407902E+03   -0.26788E-02   -0.59719E-03  8346   0.311E-01    0.162E-02
DAV:   2    -0.149557403318E+03    0.45845E-05   -0.10810E-04 10026   0.408E-02    0.956E-03
DAV:   3    -0.149557400277E+03    0.30411E-05   -0.76436E-06  4776   0.119E-02
  10 F= -.29825162E+02 E0= -.29825162E+02  d E =-.125221E-02
       N       E                     dE             d eps       ncg     rms          rms(c)
DAV:   1    -0.149536250422E+03    0.21153E-01   -0.81910E-02  8328   0.118E+00    0.564E-02
DAV:   2    -0.149536265358E+03   -0.14936E-04   -0.16588E-03 10056   0.158E-01    0.384E-02
DAV:   3    -0.149536232957E+03    0.32401E-04   -0.84450E-05  9810   0.382E-02    0.200E-02
DAV:   4    -0.149536227498E+03    0.54587E-05   -0.45612E-05  8784   0.235E-02
  11 F= -.29825793E+02 E0= -.29825793E+02  d E =-.631148E-03
       N       E                     dE             d eps       ncg     rms          rms(c)
DAV:   1    -0.149536241565E+03   -0.86084E-05   -0.33832E-06  4998   0.771E-03    0.395E-03
DAV:   2    -0.149536241640E+03   -0.74506E-07   -0.15104E-06  4674   0.446E-03
  12 F= -.29825793E+02 E0= -.29825793E+02  d E =-.631054E-03
       N       E                     dE             d eps       ncg     rms          rms(c)
DAV:   1    -0.149542925006E+03   -0.66834E-02   -0.31432E-02  8340   0.726E-01    0.322E-02
DAV:   2    -0.149542924106E+03    0.90002E-06   -0.38268E-04  9990   0.779E-02    0.198E-02
DAV:   3    -0.149542910320E+03    0.13787E-04   -0.35276E-05  8772   0.252E-02    0.688E-03
DAV:   4    -0.149542910411E+03   -0.91751E-07   -0.10797E-05  5088   0.116E-02
  13 F= -.29826203E+02 E0= -.29826203E+02  d E =-.410243E-03
       N       E                     dE             d eps       ncg     rms          rms(c)
DAV:   1    -0.149551019225E+03   -0.81089E-02   -0.50051E-02  8340   0.916E-01    0.408E-02
DAV:   2    -0.149551018833E+03    0.39215E-06   -0.61240E-04  9966   0.985E-02    0.252E-02
DAV:   3    -0.149550997148E+03    0.21684E-04   -0.56876E-05  9726   0.320E-02    0.902E-03
DAV:   4    -0.149550997310E+03   -0.16169E-06   -0.17408E-05  5814   0.146E-02
  14 F= -.29826396E+02 E0= -.29826396E+02  d E =-.603031E-03
       N       E                     dE             d eps       ncg     rms          rms(c)
DAV:   1    -0.149491840835E+03    0.59156E-01   -0.45028E-02  8340   0.865E-01    0.474E-02
DAV:   2    -0.149491823860E+03    0.16975E-04   -0.61771E-04 10104   0.994E-02    0.264E-02
DAV:   3    -0.149491806174E+03    0.17686E-04   -0.64324E-05  9762   0.328E-02    0.902E-03
DAV:   4    -0.149491807315E+03   -0.11413E-05   -0.15747E-05  5868   0.138E-02
  15 F= -.29826634E+02 E0= -.29826634E+02  d E =-.238284E-03
       N       E                     dE             d eps       ncg     rms          rms(c)
DAV:   1    -0.149493285816E+03   -0.14796E-02   -0.30472E-05  6690   0.224E-02    0.272E-03
DAV:   2    -0.149493285846E+03   -0.30018E-07   -0.78103E-07  4392   0.371E-03
  16 F= -.29826635E+02 E0= -.29826635E+02  d E =-.238916E-03
       N       E                     dE             d eps       ncg     rms          rms(c)
DAV:   1    -0.149549196714E+03   -0.55911E-01   -0.32682E-02  8352   0.742E-01    0.400E-02
DAV:   2    -0.149549172088E+03    0.24627E-04   -0.43628E-04 10068   0.851E-02    0.237E-02
DAV:   3    -0.149549156675E+03    0.15412E-04   -0.47325E-05  9816   0.270E-02    0.925E-03
DAV:   4    -0.149549155804E+03    0.87100E-06   -0.10016E-05  5466   0.105E-02
  17 F= -.29826782E+02 E0= -.29826782E+02  d E =-.147138E-03
       N       E                     dE             d eps       ncg     rms          rms(c)
DAV:   1    -0.149544036636E+03    0.51200E-02   -0.28053E-04  8436   0.685E-02    0.395E-03
DAV:   2    -0.149544036730E+03   -0.93940E-07   -0.39656E-06  4650   0.816E-03
  18 F= -.29826783E+02 E0= -.29826783E+02  d E =-.148168E-03
       N       E                     dE             d eps       ncg     rms          rms(c)
DAV:   1    -0.149523856027E+03    0.20181E-01   -0.11460E-02  8352   0.440E-01    0.253E-02
DAV:   2    -0.149523849332E+03    0.66954E-05   -0.18594E-04 10074   0.542E-02    0.144E-02
DAV:   3    -0.149523843799E+03    0.55331E-05   -0.23605E-05  6954   0.205E-02
  19 F= -.29826878E+02 E0= -.29826878E+02  d E =-.948491E-04
       N       E                     dE             d eps       ncg     rms          rms(c)
DAV:   1    -0.149522739896E+03    0.11094E-02   -0.41028E-05  7872   0.268E-02    0.338E-03
DAV:   2    -0.149522740052E+03   -0.15606E-06   -0.13253E-06  4578   0.477E-03
  20 F= -.29826879E+02 E0= -.29826879E+02  d E =-.962656E-04
       N       E                     dE             d eps       ncg     rms          rms(c)
DAV:   1    -0.149523998645E+03   -0.12587E-02   -0.20707E-03  8364   0.180E-01    0.114E-02
DAV:   2    -0.149523994072E+03    0.45733E-05   -0.58550E-05  9852   0.300E-02
  21 F= -.29826895E+02 E0= -.29826895E+02  d E =-.153672E-04
