  28  28   0   0
  0.1096920E+02  0.9465132E-09  0.3252095E-09  0.9977987E-09  0.5000000E-15
  1.000000000000000E-004
  CAR 
 Al4C3 Pnma-VII - H(P) scan @ 0 GPa (ISIF
     15.11185467     -7.29615067  301      7.49780119      1.00000000
     -7.296  0.0000E+00  0.0000E+00
     -7.221  0.0000E+00  0.0000E+00
     -7.147  0.0000E+00  0.0000E+00
     -7.072  0.0000E+00  0.0000E+00
     -6.997  0.0000E+00  0.0000E+00
     -6.923  0.0000E+00  0.0000E+00
     -6.848  0.0000E+00  0.0000E+00
     -6.773  0.0000E+00  0.0000E+00
     -6.699  0.0000E+00  0.0000E+00
     -6.624  0.0000E+00  0.0000E+00
     -6.549  0.6549E-17  0.4892E-18
     -6.475  0.1068E-10  0.7974E-12
     -6.400  0.2286E-06  0.1707E-07
     -6.325  0.7610E-04  0.5701E-05
     -6.250  0.9605E-03  0.7744E-04
     -6.176  0.3741E-02  0.3568E-03
     -6.101  0.7102E-02  0.8873E-03
     -6.026  0.8294E-02  0.1507E-02
     -5.952  0.8067E-02  0.2109E-02
     -5.877  0.1009E-01  0.2863E-02
     -5.802  0.1538E-01  0.4012E-02
     -5.728  0.1366E-01  0.5032E-02
     -5.653  0.1214E-01  0.5938E-02
     -5.578  0.1350E-01  0.6947E-02
     -5.504  0.1736E-01  0.8244E-02
     -5.429  0.1252E-01  0.9179E-02
     -5.354  0.1205E-01  0.1008E-01
     -5.279  0.2275E-01  0.1178E-01
     -5.205  0.2394E-01  0.1357E-01
     -5.130  0.1349E-01  0.1457E-01
     -5.055  0.1628E-01  0.1579E-01
     -4.981  0.3178E-01  0.1816E-01
     -4.906  0.2583E-01  0.2009E-01
     -4.831  0.1397E-01  0.2114E-01
     -4.757  0.1558E-01  0.2230E-01
     -4.682  0.1983E-01  0.2378E-01
     -4.607  0.2279E-01  0.2548E-01
     -4.532  0.2773E-01  0.2755E-01
     -4.458  0.2536E-01  0.2945E-01
     -4.383  0.2755E-01  0.3151E-01
     -4.308  0.3013E-01  0.3376E-01
     -4.234  0.2991E-01  0.3599E-01
     -4.159  0.3139E-01  0.3833E-01
     -4.084  0.3296E-01  0.4080E-01
     -4.010  0.2885E-01  0.4295E-01
     -3.935  0.2497E-01  0.4482E-01
     -3.860  0.2667E-01  0.4681E-01
     -3.786  0.3337E-01  0.4930E-01
     -3.711  0.5615E-01  0.5349E-01
     -3.636  0.4553E-01  0.5690E-01
     -3.561  0.3481E-01  0.5950E-01
     -3.487  0.4008E-01  0.6249E-01
     -3.412  0.4772E-01  0.6605E-01
     -3.337  0.4695E-01  0.6956E-01
     -3.263  0.5723E-01  0.7383E-01
     -3.188  0.5731E-01  0.7812E-01
     -3.113  0.6180E-01  0.8273E-01
     -3.039  0.4170E-01  0.8585E-01
     -2.964  0.5056E-01  0.8962E-01
     -2.889  0.4347E-01  0.9287E-01
     -2.815  0.4971E-01  0.9658E-01
     -2.740  0.6756E-01  0.1016E+00
     -2.665  0.7509E-01  0.1072E+00
     -2.590  0.7364E-01  0.1127E+00
     -2.516  0.7333E-01  0.1182E+00
     -2.441  0.2328E-01  0.1200E+00
     -2.366  0.6230E-03  0.1200E+00
     -2.292  0.6613E-06  0.1200E+00
     -2.217  0.1585E-10  0.1200E+00
     -2.142  0.5760E-17  0.1200E+00
     -2.068  0.0000E+00  0.1200E+00
     -1.993  0.0000E+00  0.1200E+00
     -1.918  0.0000E+00  0.1200E+00
     -1.844  0.0000E+00  0.1200E+00
     -1.769  0.0000E+00  0.1200E+00
     -1.694  0.0000E+00  0.1200E+00
     -1.619  0.0000E+00  0.1200E+00
     -1.545  0.0000E+00  0.1200E+00
     -1.470  0.0000E+00  0.1200E+00
     -1.395  0.0000E+00  0.1200E+00
     -1.321  0.0000E+00  0.1200E+00
     -1.246  0.0000E+00  0.1200E+00
     -1.171  0.0000E+00  0.1200E+00
     -1.097  0.0000E+00  0.1200E+00
     -1.022  0.0000E+00  0.1200E+00
     -0.947  0.0000E+00  0.1200E+00
     -0.873  0.0000E+00  0.1200E+00
     -0.798  0.0000E+00  0.1200E+00
     -0.723  0.0000E+00  0.1200E+00
     -0.648  0.0000E+00  0.1200E+00
     -0.574  0.0000E+00  0.1200E+00
     -0.499  0.0000E+00  0.1200E+00
     -0.424  0.0000E+00  0.1200E+00
     -0.350  0.9383E-16  0.1200E+00
     -0.275  0.9036E-10  0.1200E+00
     -0.200  0.1171E-05  0.1200E+00
     -0.126  0.2729E-03  0.1200E+00
     -0.051  0.2729E-02  0.1202E+00
      0.024  0.3956E-02  0.1205E+00
      0.098  0.8314E-02  0.1211E+00
      0.173  0.1235E-01  0.1221E+00
      0.248  0.9853E-02  0.1228E+00
      0.323  0.1514E-01  0.1239E+00
      0.397  0.3171E-01  0.1263E+00
      0.472  0.2629E-01  0.1283E+00
      0.547  0.1654E-01  0.1295E+00
      0.621  0.1850E-01  0.1309E+00
      0.696  0.2192E-01  0.1325E+00
      0.771  0.3518E-01  0.1351E+00
      0.845  0.3143E-01  0.1375E+00
      0.920  0.3817E-01  0.1403E+00
      0.995  0.2748E-01  0.1424E+00
      1.070  0.3317E-01  0.1449E+00
      1.144  0.3022E-01  0.1471E+00
      1.219  0.3091E-01  0.1494E+00
      1.294  0.3085E-01  0.1517E+00
      1.368  0.3558E-01  0.1544E+00
      1.443  0.3266E-01  0.1568E+00
      1.518  0.4453E-01  0.1602E+00
      1.592  0.6666E-01  0.1651E+00
      1.667  0.6918E-01  0.1703E+00
      1.742  0.6330E-01  0.1750E+00
      1.816  0.5931E-01  0.1795E+00
      1.891  0.4451E-01  0.1828E+00
      1.966  0.3375E-01  0.1853E+00
      2.041  0.5950E-01  0.1898E+00
      2.115  0.6826E-01  0.1949E+00
      2.190  0.5596E-01  0.1990E+00
      2.265  0.4315E-01  0.2023E+00
      2.339  0.3852E-01  0.2051E+00
      2.414  0.4890E-01  0.2088E+00
      2.489  0.3343E-01  0.2113E+00
      2.563  0.3283E-01  0.2137E+00
      2.638  0.4062E-01  0.2168E+00
      2.713  0.4698E-01  0.2203E+00
      2.787  0.3537E-01  0.2229E+00
      2.862  0.4602E-01  0.2264E+00
      2.937  0.5856E-01  0.2307E+00
      3.012  0.3215E-01  0.2331E+00
      3.086  0.4074E-01  0.2362E+00
      3.161  0.2859E-01  0.2383E+00
      3.236  0.3297E-01  0.2408E+00
      3.310  0.6682E-01  0.2458E+00
      3.385  0.6521E-01  0.2506E+00
      3.460  0.3049E-01  0.2529E+00
      3.534  0.3652E-01  0.2556E+00
      3.609  0.5586E-01  0.2598E+00
      3.684  0.5631E-01  0.2640E+00
      3.758  0.5872E-01  0.2684E+00
      3.833  0.4907E-01  0.2721E+00
      3.908  0.4807E-01  0.2757E+00
      3.983  0.5535E-01  0.2798E+00
      4.057  0.5107E-01  0.2836E+00
      4.132  0.4329E-01  0.2869E+00
      4.207  0.3821E-01  0.2897E+00
      4.281  0.5649E-01  0.2939E+00
      4.356  0.7448E-01  0.2995E+00
      4.431  0.6471E-01  0.3043E+00
      4.505  0.6805E-01  0.3094E+00
      4.580  0.6367E-01  0.3142E+00
      4.655  0.5518E-01  0.3183E+00
      4.729  0.5556E-01  0.3224E+00
      4.804  0.6752E-01  0.3275E+00
      4.879  0.7724E-01  0.3332E+00
      4.954  0.9482E-01  0.3403E+00
      5.028  0.7249E-01  0.3457E+00
      5.103  0.7074E-01  0.3510E+00
      5.178  0.6625E-01  0.3560E+00
      5.252  0.6531E-01  0.3608E+00
      5.327  0.7858E-01  0.3667E+00
      5.402  0.8775E-01  0.3733E+00
      5.476  0.7818E-01  0.3791E+00
      5.551  0.7490E-01  0.3847E+00
      5.626  0.8359E-01  0.3910E+00
      5.700  0.8722E-01  0.3975E+00
      5.775  0.4659E-01  0.4009E+00
      5.850  0.6720E-01  0.4060E+00
      5.925  0.9313E-01  0.4129E+00
      5.999  0.7280E-01  0.4184E+00
      6.074  0.8758E-01  0.4249E+00
      6.149  0.9033E-01  0.4316E+00
      6.223  0.6141E-01  0.4362E+00
      6.298  0.5936E-01  0.4407E+00
      6.373  0.6632E-01  0.4456E+00
      6.447  0.7606E-01  0.4513E+00
      6.522  0.7213E-01  0.4567E+00
      6.597  0.6391E-01  0.4615E+00
      6.672  0.4284E-01  0.4647E+00
      6.746  0.4494E-01  0.4680E+00
      6.821  0.4426E-01  0.4713E+00
      6.896  0.3943E-01  0.4743E+00
      6.970  0.3567E-01  0.4769E+00
      7.045  0.1321E-01  0.4779E+00
      7.120  0.6339E-02  0.4784E+00
      7.194  0.1113E-01  0.4792E+00
      7.269  0.8851E-02  0.4799E+00
      7.344  0.1483E-02  0.4800E+00
      7.418  0.1316E-04  0.4800E+00
      7.493  0.2445E-08  0.4800E+00
      7.568  0.6569E-14  0.4800E+00
      7.643  0.7384E-10  0.4800E+00
      7.717  0.1012E-05  0.4800E+00
      7.792  0.2174E-03  0.4800E+00
      7.867  0.1215E-02  0.4801E+00
      7.941  0.7607E-03  0.4802E+00
      8.016  0.4086E-03  0.4802E+00
      8.091  0.1884E-02  0.4803E+00
      8.165  0.2943E-02  0.4806E+00
      8.240  0.4254E-02  0.4809E+00
      8.315  0.6723E-02  0.4814E+00
      8.389  0.4814E-02  0.4817E+00
      8.464  0.8846E-02  0.4824E+00
      8.539  0.9194E-02  0.4831E+00
      8.614  0.4316E-02  0.4834E+00
      8.688  0.4988E-02  0.4838E+00
      8.763  0.8443E-02  0.4844E+00
      8.838  0.1105E-01  0.4852E+00
      8.912  0.1201E-01  0.4861E+00
      8.987  0.8090E-02  0.4867E+00
      9.062  0.8844E-02  0.4874E+00
      9.136  0.2008E-01  0.4889E+00
      9.211  0.1800E-01  0.4902E+00
      9.286  0.1983E-01  0.4917E+00
      9.360  0.1711E-01  0.4930E+00
      9.435  0.8987E-02  0.4937E+00
      9.510  0.1796E-01  0.4950E+00
      9.585  0.2437E-01  0.4968E+00
      9.659  0.2374E-01  0.4986E+00
      9.734  0.1754E-01  0.4999E+00
      9.809  0.1379E-01  0.5009E+00
      9.883  0.1878E-01  0.5023E+00
      9.958  0.2114E-01  0.5039E+00
     10.033  0.1943E-01  0.5054E+00
     10.107  0.2219E-01  0.5070E+00
     10.182  0.2980E-01  0.5093E+00
     10.257  0.3275E-01  0.5117E+00
     10.331  0.2672E-01  0.5137E+00
     10.406  0.2753E-01  0.5158E+00
     10.481  0.3413E-01  0.5183E+00
     10.556  0.3902E-01  0.5212E+00
     10.630  0.4376E-01  0.5245E+00
     10.705  0.3612E-01  0.5272E+00
     10.780  0.2677E-01  0.5292E+00
     10.854  0.4959E-01  0.5329E+00
     10.929  0.5190E-01  0.5368E+00
     11.004  0.3595E-01  0.5395E+00
     11.078  0.3451E-01  0.5420E+00
     11.153  0.3641E-01  0.5448E+00
     11.228  0.3731E-01  0.5475E+00
     11.302  0.4792E-01  0.5511E+00
     11.377  0.5227E-01  0.5550E+00
     11.452  0.4383E-01  0.5583E+00
     11.527  0.4568E-01  0.5617E+00
     11.601  0.3307E-01  0.5642E+00
     11.676  0.2566E-01  0.5661E+00
     11.751  0.2954E-01  0.5683E+00
     11.825  0.6215E-01  0.5729E+00
     11.900  0.7119E-01  0.5783E+00
     11.975  0.5749E-01  0.5826E+00
     12.049  0.4893E-01  0.5862E+00
     12.124  0.5128E-01  0.5900E+00
     12.199  0.5331E-01  0.5940E+00
     12.274  0.4789E-01  0.5976E+00
     12.348  0.4870E-01  0.6012E+00
     12.423  0.4939E-01  0.6049E+00
     12.498  0.4607E-01  0.6084E+00
     12.572  0.4861E-01  0.6120E+00
     12.647  0.4810E-01  0.6156E+00
     12.722  0.5873E-01  0.6200E+00
     12.796  0.5488E-01  0.6241E+00
     12.871  0.3114E-01  0.6264E+00
     12.946  0.4766E-01  0.6300E+00
     13.020  0.5424E-01  0.6340E+00
     13.095  0.5881E-01  0.6384E+00
     13.170  0.6036E-01  0.6429E+00
     13.245  0.4862E-01  0.6465E+00
     13.319  0.3394E-01  0.6491E+00
     13.394  0.3114E-01  0.6514E+00
     13.469  0.3750E-01  0.6542E+00
     13.543  0.2681E-01  0.6562E+00
     13.618  0.1944E-01  0.6577E+00
     13.693  0.1291E-01  0.6586E+00
     13.767  0.1079E-01  0.6594E+00
     13.842  0.2721E-02  0.6596E+00
     13.917  0.2235E-02  0.6598E+00
     13.991  0.9134E-03  0.6599E+00
     14.066  0.3781E-03  0.6599E+00
     14.141  0.1154E-02  0.6600E+00
     14.216  0.1492E-03  0.6600E+00
     14.290  0.4569E-06  0.6600E+00
     14.365  0.2135E-10  0.6600E+00
     14.440  0.1301E-16  0.6600E+00
     14.514  0.0000E+00  0.6600E+00
     14.589  0.0000E+00  0.6600E+00
     14.664  0.0000E+00  0.6600E+00
     14.738  0.0000E+00  0.6600E+00
     14.813  0.0000E+00  0.6600E+00
     14.888  0.0000E+00  0.6600E+00
     14.962  0.0000E+00  0.6600E+00
     15.037  0.0000E+00  0.6600E+00
     15.112  0.0000E+00  0.6600E+00
