  14  14   0   0
  0.9168319E+01  0.8662018E-09  0.5001524E-09  0.2962759E-09  0.5000000E-15
  1.000000000000000E-004
  CAR 
 Al4C3 Pbam - r2SCAN H(P) scan @ 30 GPa (
     20.73543141     -7.19171689  301     10.80149022      1.00000000
     -7.192  0.0000E+00  0.0000E+00
     -7.099  0.0000E+00  0.0000E+00
     -7.006  0.0000E+00  0.0000E+00
     -6.912  0.0000E+00  0.0000E+00
     -6.819  0.0000E+00  0.0000E+00
     -6.726  0.0000E+00  0.0000E+00
     -6.633  0.0000E+00  0.0000E+00
     -6.540  0.0000E+00  0.0000E+00
     -6.447  0.0000E+00  0.0000E+00
     -6.354  0.0000E+00  0.0000E+00
     -6.261  0.0000E+00  0.0000E+00
     -6.168  0.6764E-15  0.6296E-16
     -6.075  0.2866E-08  0.2668E-09
     -5.982  0.1636E-04  0.1523E-05
     -5.888  0.3051E-03  0.2993E-04
     -5.795  0.1412E-02  0.1614E-03
     -5.702  0.2593E-02  0.4027E-03
     -5.609  0.2999E-02  0.6819E-03
     -5.516  0.2510E-02  0.9156E-03
     -5.423  0.2352E-02  0.1135E-02
     -5.330  0.6113E-02  0.1704E-02
     -5.237  0.7245E-02  0.2378E-02
     -5.144  0.2824E-02  0.2641E-02
     -5.051  0.1806E-02  0.2809E-02
     -4.958  0.6357E-02  0.3401E-02
     -4.864  0.9605E-02  0.4295E-02
     -4.771  0.6165E-02  0.4869E-02
     -4.678  0.5501E-02  0.5381E-02
     -4.585  0.7628E-02  0.6091E-02
     -4.492  0.7895E-02  0.6826E-02
     -4.399  0.9873E-02  0.7745E-02
     -4.306  0.1028E-01  0.8702E-02
     -4.213  0.6001E-02  0.9260E-02
     -4.120  0.4516E-02  0.9681E-02
     -4.027  0.4553E-02  0.1010E-01
     -3.934  0.8770E-02  0.1092E-01
     -3.840  0.9566E-02  0.1181E-01
     -3.747  0.6117E-02  0.1238E-01
     -3.654  0.5494E-02  0.1289E-01
     -3.561  0.1240E-01  0.1405E-01
     -3.468  0.9924E-02  0.1497E-01
     -3.375  0.5738E-02  0.1550E-01
     -3.282  0.9141E-02  0.1636E-01
     -3.189  0.1791E-01  0.1802E-01
     -3.096  0.8743E-02  0.1884E-01
     -3.003  0.5558E-02  0.1935E-01
     -2.910  0.1648E-01  0.2089E-01
     -2.816  0.1311E-01  0.2211E-01
     -2.723  0.1221E-01  0.2325E-01
     -2.630  0.1497E-01  0.2464E-01
     -2.537  0.8127E-02  0.2540E-01
     -2.444  0.1099E-01  0.2642E-01
     -2.351  0.2009E-01  0.2829E-01
     -2.258  0.1413E-01  0.2960E-01
     -2.165  0.1538E-01  0.3104E-01
     -2.072  0.1991E-01  0.3289E-01
     -1.979  0.1830E-01  0.3459E-01
     -1.886  0.2624E-01  0.3704E-01
     -1.792  0.2377E-01  0.3925E-01
     -1.699  0.2118E-01  0.4122E-01
     -1.606  0.2961E-01  0.4398E-01
     -1.513  0.1992E-01  0.4583E-01
     -1.420  0.1425E-01  0.4716E-01
     -1.327  0.1509E-01  0.4856E-01
     -1.234  0.1208E-01  0.4969E-01
     -1.141  0.1074E-01  0.5069E-01
     -1.048  0.6215E-02  0.5127E-01
     -0.955  0.8761E-02  0.5208E-01
     -0.862  0.1337E-01  0.5333E-01
     -0.768  0.1155E-01  0.5440E-01
     -0.675  0.1030E-01  0.5536E-01
     -0.582  0.4270E-02  0.5576E-01
     -0.489  0.5867E-02  0.5630E-01
     -0.396  0.8431E-02  0.5709E-01
     -0.303  0.7625E-02  0.5780E-01
     -0.210  0.1931E-02  0.5798E-01
     -0.117  0.1091E-02  0.5808E-01
     -0.024  0.3883E-02  0.5844E-01
      0.069  0.5196E-02  0.5893E-01
      0.162  0.2905E-02  0.5920E-01
      0.256  0.1649E-02  0.5935E-01
      0.349  0.8866E-03  0.5943E-01
      0.442  0.2490E-02  0.5966E-01
      0.535  0.1105E-02  0.5977E-01
      0.628  0.1713E-02  0.5993E-01
      0.721  0.2658E-03  0.5995E-01
      0.814  0.5055E-03  0.6000E-01
      0.907  0.1746E-04  0.6000E-01
      1.000  0.1529E-08  0.6000E-01
      1.093  0.1744E-15  0.6000E-01
      1.186  0.0000E+00  0.6000E-01
      1.280  0.1644E-15  0.6000E-01
      1.373  0.1154E-08  0.6000E-01
      1.466  0.1067E-04  0.6000E-01
      1.559  0.3207E-03  0.6003E-01
      1.652  0.1675E-02  0.6019E-01
      1.745  0.2563E-02  0.6043E-01
      1.838  0.3200E-02  0.6072E-01
      1.931  0.4867E-02  0.6118E-01
      2.024  0.7831E-02  0.6191E-01
      2.117  0.1377E-01  0.6319E-01
      2.210  0.1282E-01  0.6438E-01
      2.304  0.1212E-01  0.6551E-01
      2.397  0.1197E-01  0.6662E-01
      2.490  0.2693E-01  0.6913E-01
      2.583  0.2583E-01  0.7154E-01
      2.676  0.1734E-01  0.7315E-01
      2.769  0.2342E-01  0.7533E-01
      2.862  0.1729E-01  0.7694E-01
      2.955  0.2094E-01  0.7889E-01
      3.048  0.1781E-01  0.8055E-01
      3.141  0.1831E-01  0.8225E-01
      3.234  0.1471E-01  0.8362E-01
      3.328  0.1644E-01  0.8515E-01
      3.421  0.1487E-01  0.8654E-01
      3.514  0.1653E-01  0.8808E-01
      3.607  0.2546E-01  0.9045E-01
      3.700  0.2030E-01  0.9234E-01
      3.793  0.1929E-01  0.9413E-01
      3.886  0.1736E-01  0.9575E-01
      3.979  0.1441E-01  0.9709E-01
      4.072  0.1734E-01  0.9870E-01
      4.165  0.2376E-01  0.1009E+00
      4.258  0.1601E-01  0.1024E+00
      4.352  0.1966E-01  0.1042E+00
      4.445  0.1264E-01  0.1054E+00
      4.538  0.1550E-01  0.1069E+00
      4.631  0.1377E-01  0.1081E+00
      4.724  0.1302E-01  0.1093E+00
      4.817  0.2087E-01  0.1113E+00
      4.910  0.2708E-01  0.1138E+00
      5.003  0.2588E-01  0.1162E+00
      5.096  0.2283E-01  0.1183E+00
      5.189  0.2282E-01  0.1205E+00
      5.282  0.1606E-01  0.1220E+00
      5.375  0.1166E-01  0.1231E+00
      5.469  0.1147E-01  0.1241E+00
      5.562  0.1774E-01  0.1258E+00
      5.655  0.2746E-01  0.1283E+00
      5.748  0.3082E-01  0.1312E+00
      5.841  0.2474E-01  0.1335E+00
      5.934  0.1943E-01  0.1353E+00
      6.027  0.2041E-01  0.1372E+00
      6.120  0.1884E-01  0.1390E+00
      6.213  0.1811E-01  0.1406E+00
      6.306  0.2703E-01  0.1432E+00
      6.399  0.2586E-01  0.1456E+00
      6.493  0.2566E-01  0.1480E+00
      6.586  0.2288E-01  0.1501E+00
      6.679  0.1816E-01  0.1518E+00
      6.772  0.1415E-01  0.1531E+00
      6.865  0.1810E-01  0.1548E+00
      6.958  0.2319E-01  0.1569E+00
      7.051  0.2206E-01  0.1590E+00
      7.144  0.2156E-01  0.1610E+00
      7.237  0.2620E-01  0.1634E+00
      7.330  0.3327E-01  0.1665E+00
      7.423  0.2933E-01  0.1693E+00
      7.517  0.1768E-01  0.1709E+00
      7.610  0.1466E-01  0.1723E+00
      7.703  0.2379E-01  0.1745E+00
      7.796  0.2643E-01  0.1770E+00
      7.889  0.2541E-01  0.1793E+00
      7.982  0.2539E-01  0.1817E+00
      8.075  0.1617E-01  0.1832E+00
      8.168  0.2749E-01  0.1857E+00
      8.261  0.2521E-01  0.1881E+00
      8.354  0.3188E-01  0.1911E+00
      8.447  0.3047E-01  0.1939E+00
      8.541  0.2758E-01  0.1965E+00
      8.634  0.2518E-01  0.1988E+00
      8.727  0.2248E-01  0.2009E+00
      8.820  0.2412E-01  0.2031E+00
      8.913  0.3164E-01  0.2061E+00
      9.006  0.3208E-01  0.2091E+00
      9.099  0.1964E-01  0.2109E+00
      9.192  0.1818E-01  0.2126E+00
      9.285  0.2036E-01  0.2145E+00
      9.378  0.2162E-01  0.2165E+00
      9.471  0.3824E-01  0.2201E+00
      9.565  0.3072E-01  0.2229E+00
      9.658  0.2855E-01  0.2256E+00
      9.751  0.2907E-01  0.2283E+00
      9.844  0.2830E-01  0.2309E+00
      9.937  0.2337E-01  0.2331E+00
     10.030  0.1794E-01  0.2348E+00
     10.123  0.1675E-01  0.2363E+00
     10.216  0.1060E-01  0.2373E+00
     10.309  0.5189E-02  0.2378E+00
     10.402  0.6496E-02  0.2384E+00
     10.495  0.6900E-02  0.2390E+00
     10.589  0.3161E-02  0.2393E+00
     10.682  0.3388E-02  0.2397E+00
     10.775  0.2802E-02  0.2399E+00
     10.868  0.3320E-02  0.2402E+00
     10.961  0.1021E-02  0.2403E+00
     11.054  0.8803E-04  0.2403E+00
     11.147  0.1992E-02  0.2405E+00
     11.240  0.1137E-02  0.2406E+00
     11.333  0.1220E-02  0.2407E+00
     11.426  0.4618E-03  0.2408E+00
     11.519  0.8944E-05  0.2408E+00
     11.613  0.8206E-03  0.2409E+00
     11.706  0.4993E-02  0.2413E+00
     11.799  0.1176E-02  0.2414E+00
     11.892  0.2155E-02  0.2416E+00
     11.985  0.4366E-02  0.2420E+00
     12.078  0.1900E-02  0.2422E+00
     12.171  0.1790E-02  0.2424E+00
     12.264  0.5164E-03  0.2424E+00
     12.357  0.6079E-02  0.2430E+00
     12.450  0.5832E-02  0.2435E+00
     12.543  0.3076E-02  0.2438E+00
     12.637  0.1522E-02  0.2440E+00
     12.730  0.1875E-02  0.2441E+00
     12.823  0.3205E-02  0.2444E+00
     12.916  0.4889E-02  0.2449E+00
     13.009  0.1033E-01  0.2459E+00
     13.102  0.1015E-01  0.2468E+00
     13.195  0.4165E-02  0.2472E+00
     13.288  0.4109E-02  0.2476E+00
     13.381  0.7630E-02  0.2483E+00
     13.474  0.1372E-01  0.2496E+00
     13.567  0.1364E-01  0.2508E+00
     13.661  0.9246E-02  0.2517E+00
     13.754  0.1101E-01  0.2527E+00
     13.847  0.1682E-01  0.2543E+00
     13.940  0.2146E-01  0.2563E+00
     14.033  0.1140E-01  0.2573E+00
     14.126  0.1478E-01  0.2587E+00
     14.219  0.1359E-01  0.2600E+00
     14.312  0.1787E-01  0.2616E+00
     14.405  0.1568E-01  0.2631E+00
     14.498  0.9976E-02  0.2640E+00
     14.591  0.1640E-01  0.2656E+00
     14.685  0.2453E-01  0.2678E+00
     14.778  0.1779E-01  0.2695E+00
     14.871  0.2192E-01  0.2715E+00
     14.964  0.1571E-01  0.2730E+00
     15.057  0.1483E-01  0.2744E+00
     15.150  0.1958E-01  0.2762E+00
     15.243  0.1932E-01  0.2780E+00
     15.336  0.1515E-01  0.2794E+00
     15.429  0.8671E-02  0.2802E+00
     15.522  0.1413E-01  0.2815E+00
     15.615  0.1610E-01  0.2830E+00
     15.709  0.1699E-01  0.2846E+00
     15.802  0.2117E-01  0.2866E+00
     15.895  0.1385E-01  0.2879E+00
     15.988  0.1466E-01  0.2892E+00
     16.081  0.2755E-01  0.2918E+00
     16.174  0.1779E-01  0.2935E+00
     16.267  0.2220E-01  0.2955E+00
     16.360  0.2426E-01  0.2978E+00
     16.453  0.3195E-01  0.3008E+00
     16.546  0.2334E-01  0.3029E+00
     16.639  0.2927E-01  0.3057E+00
     16.733  0.2183E-01  0.3077E+00
     16.826  0.2108E-01  0.3097E+00
     16.919  0.1818E-01  0.3113E+00
     17.012  0.3024E-01  0.3142E+00
     17.105  0.2327E-01  0.3163E+00
     17.198  0.1898E-01  0.3181E+00
     17.291  0.2771E-01  0.3207E+00
     17.384  0.3277E-01  0.3237E+00
     17.477  0.2578E-01  0.3261E+00
     17.570  0.2650E-01  0.3286E+00
     17.663  0.2242E-01  0.3307E+00
     17.757  0.2600E-01  0.3331E+00
     17.850  0.2647E-01  0.3356E+00
     17.943  0.2359E-01  0.3378E+00
     18.036  0.2191E-01  0.3398E+00
     18.129  0.2263E-01  0.3419E+00
     18.222  0.2299E-01  0.3440E+00
     18.315  0.1697E-01  0.3456E+00
     18.408  0.2149E-01  0.3476E+00
     18.501  0.1931E-01  0.3494E+00
     18.594  0.2545E-01  0.3518E+00
     18.687  0.2282E-01  0.3539E+00
     18.781  0.1582E-01  0.3554E+00
     18.874  0.1511E-01  0.3568E+00
     18.967  0.8003E-02  0.3575E+00
     19.060  0.1420E-01  0.3589E+00
     19.153  0.7167E-02  0.3595E+00
     19.246  0.2056E-02  0.3597E+00
     19.339  0.9074E-03  0.3598E+00
     19.432  0.4481E-03  0.3598E+00
     19.525  0.1595E-02  0.3600E+00
     19.618  0.8200E-04  0.3600E+00
     19.711  0.1283E-07  0.3600E+00
     19.805  0.2853E-14  0.3600E+00
     19.898  0.0000E+00  0.3600E+00
     19.991  0.0000E+00  0.3600E+00
     20.084  0.0000E+00  0.3600E+00
     20.177  0.0000E+00  0.3600E+00
     20.270  0.0000E+00  0.3600E+00
     20.363  0.0000E+00  0.3600E+00
     20.456  0.0000E+00  0.3600E+00
     20.549  0.0000E+00  0.3600E+00
     20.642  0.0000E+00  0.3600E+00
     20.735  0.0000E+00  0.3600E+00
