       N       E                     dE             d eps       ncg     rms          rms(c)
DAV:   1    -0.120728018696E+03   -0.12073E+03   -0.24219E+00  5184   0.982E+00    0.558E+00
DAV:   2    -0.112924031660E+03    0.78040E+01   -0.60517E-01  5640   0.545E+00    0.412E+00
DAV:   3    -0.113111478788E+03   -0.18745E+00   -0.99747E-02  6456   0.187E+00    0.327E+00
DAV:   4    -0.113129281466E+03   -0.17803E-01   -0.48526E-02  6492   0.102E+00    0.107E+00
DAV:   5    -0.113130431758E+03   -0.11503E-02   -0.22447E-03  6444   0.278E-01    0.268E-01
DAV:   6    -0.113130406814E+03    0.24944E-04   -0.96957E-04  6480   0.136E-01    0.132E-01
DAV:   7    -0.113130369569E+03    0.37245E-04   -0.57148E-05  6468   0.480E-02    0.321E-02
DAV:   8    -0.113130375598E+03   -0.60288E-05   -0.33460E-05  5364   0.321E-02
   1 F= -.89096246E+02 E0= -.89095840E+02  d E =-.890962E+02
       N       E                     dE             d eps       ncg     rms          rms(c)
DAV:   1    -0.112360004174E+03    0.77037E+00   -0.14874E+00  6144   0.671E+00    0.120E+00
DAV:   2    -0.112342048232E+03    0.17956E-01   -0.84141E-02  6408   0.131E+00    0.656E-01
DAV:   3    -0.112341886674E+03    0.16156E-03   -0.99198E-03  6456   0.427E-01    0.269E-01
DAV:   4    -0.112341975188E+03   -0.88514E-04   -0.37861E-04  6432   0.109E-01    0.123E-01
DAV:   5    -0.112341949836E+03    0.25351E-04   -0.79323E-05  6312   0.500E-02    0.762E-02
DAV:   6    -0.112341918286E+03    0.31550E-04   -0.36748E-05  5976   0.393E-02    0.261E-02
DAV:   7    -0.112341927860E+03   -0.95736E-05   -0.24561E-06  3300   0.815E-03
   2 F= -.89068819E+02 E0= -.89068421E+02  d E =0.274266E-01
       N       E                     dE             d eps       ncg     rms          rms(c)
DAV:   1    -0.112853508218E+03   -0.51159E+00   -0.53607E-01  6120   0.397E+00    0.726E-01
DAV:   2    -0.112848129422E+03    0.53788E-02   -0.31677E-02  6396   0.798E-01    0.391E-01
DAV:   3    -0.112848443863E+03   -0.31444E-03   -0.35478E-03  6480   0.256E-01    0.160E-01
DAV:   4    -0.112848597454E+03   -0.15359E-03   -0.14662E-04  6384   0.673E-02    0.744E-02
DAV:   5    -0.112848629690E+03   -0.32236E-04   -0.26235E-05  5268   0.301E-02    0.445E-02
DAV:   6    -0.112848654427E+03   -0.24737E-04   -0.13493E-05  3588   0.256E-02    0.135E-02
DAV:   7    -0.112848650118E+03    0.43086E-05   -0.13129E-06  3060   0.646E-03
   3 F= -.89116795E+02 E0= -.89116385E+02  d E =-.205491E-01
       N       E                     dE             d eps       ncg     rms          rms(c)
DAV:   1    -0.112841999011E+03    0.66554E-02   -0.10781E-04  6084   0.572E-02    0.120E-02
DAV:   2    -0.112841991850E+03    0.71611E-05   -0.58810E-06  2868   0.113E-02
   4 F= -.89116793E+02 E0= -.89116383E+02  d E =-.205467E-01
       N       E                     dE             d eps       ncg     rms          rms(c)
DAV:   1    -0.112845220244E+03   -0.32212E-02   -0.18166E-02  5184   0.698E-01    0.257E-02
DAV:   2    -0.112845214970E+03    0.52735E-05   -0.30269E-04  6852   0.882E-02    0.185E-02
DAV:   3    -0.112845211149E+03    0.38211E-05   -0.15439E-05  4572   0.222E-02
   5 F= -.89117186E+02 E0= -.89116775E+02  d E =-.393447E-03
       N       E                     dE             d eps       ncg     rms          rms(c)
DAV:   1    -0.112848580824E+03   -0.33659E-02   -0.23187E-02  5184   0.789E-01    0.307E-02
DAV:   2    -0.112848573199E+03    0.76246E-05   -0.36329E-04  6864   0.973E-02    0.228E-02
DAV:   3    -0.112848569134E+03    0.40654E-05   -0.21316E-05  5124   0.256E-02
   6 F= -.89117330E+02 E0= -.89116918E+02  d E =-.537432E-03
       N       E                     dE             d eps       ncg     rms          rms(c)
DAV:   1    -0.112848738821E+03   -0.16562E-03   -0.20290E-02  5208   0.750E-01    0.265E-02
DAV:   2    -0.112848750872E+03   -0.12051E-04   -0.24384E-04  6756   0.845E-02    0.166E-02
DAV:   3    -0.112848746561E+03    0.43108E-05   -0.95502E-06  4104   0.199E-02
   7 F= -.89117626E+02 E0= -.89117213E+02  d E =-.295565E-03
       N       E                     dE             d eps       ncg     rms          rms(c)
DAV:   1    -0.112848696684E+03    0.54188E-04   -0.71905E-02  5184   0.141E+00    0.475E-02
DAV:   2    -0.112848734174E+03   -0.37490E-04   -0.79484E-04  6756   0.153E-01    0.293E-02
DAV:   3    -0.112848720654E+03    0.13520E-04   -0.38259E-05  6132   0.364E-02    0.197E-02
DAV:   4    -0.112848716290E+03    0.43641E-05   -0.37477E-05  6324   0.355E-02
   8 F= -.89117819E+02 E0= -.89117408E+02  d E =-.489447E-03
       N       E                     dE             d eps       ncg     rms          rms(c)
DAV:   1    -0.112848748816E+03   -0.28162E-04   -0.12928E-03  5184   0.190E-01    0.671E-03
DAV:   2    -0.112848748911E+03   -0.95260E-07   -0.13576E-05  5448   0.211E-02
   9 F= -.89117822E+02 E0= -.89117410E+02  d E =-.491830E-03
       N       E                     dE             d eps       ncg     rms          rms(c)
DAV:   1    -0.112847804292E+03    0.94452E-03   -0.35377E-03  5316   0.327E-01    0.103E-02
DAV:   2    -0.112847808157E+03   -0.38649E-05   -0.65394E-05  6792   0.398E-02
  10 F= -.89117867E+02 E0= -.89117455E+02  d E =-.454656E-04
       N       E                     dE             d eps       ncg     rms          rms(c)
DAV:   1    -0.112848039744E+03   -0.23545E-03   -0.18535E-04  5268   0.760E-02    0.540E-03
DAV:   2    -0.112848039519E+03    0.22478E-06   -0.63237E-06  3612   0.124E-02
  11 F= -.89117870E+02 E0= -.89117458E+02  d E =-.478754E-04
