Al4C3 Pbam - r2SCAN H(P) scan @ 30 GPa (
           1
     8.662017    0.000000    0.000000
     0.000000    5.001524    0.000000
     0.000000    0.000000    2.962759
   Al   C 
     8     6
Direct configuration=     1
   0.78570159  0.15927990  0.00000000
   0.21429841  0.84072010  0.00000000
   0.71429841  0.65927990  0.00000000
   0.28570159  0.34072010  0.00000000
   0.02940037  0.25327660  0.50000000
   0.97059965  0.74672340  0.50000000
   0.47059962  0.75327660  0.50000000
   0.52940035  0.24672340  0.50000000
   0.00000000  0.00000000  0.00000000
   0.50000000  0.50000000  0.00000000
   0.82535222  0.44876590  0.50000000
   0.17464778  0.55123410  0.50000000
   0.67464778  0.94876590  0.50000000
   0.32535222  0.05123410  0.50000000
Al4C3 Pbam - r2SCAN H(P) scan @ 30 GPa (
           1
     8.569610    0.000000    0.000000
     0.000000    4.948167    0.000000
     0.000000    0.000000    2.931152
   Al   C 
     8     6
Direct configuration=     2
   0.78586662  0.15939612  0.00000000
   0.21413338  0.84060388  0.00000000
   0.71413338  0.65939612  0.00000000
   0.28586662  0.34060388  0.00000000
   0.02896623  0.25308158  0.50000000
   0.97103379  0.74691842  0.50000000
   0.47103376  0.75308158  0.50000000
   0.52896621  0.24691842  0.50000000
   0.00000000  0.00000000  0.00000000
   0.50000000  0.50000000  0.00000000
   0.82598223  0.44911574  0.50000000
   0.17401777  0.55088426  0.50000000
   0.67401777  0.94911574  0.50000000
   0.32598223  0.05088426  0.50000000
Al4C3 Pbam - r2SCAN H(P) scan @ 30 GPa (
           1
     8.625550    0.000000    0.000000
     0.000000    4.980467    0.000000
     0.000000    0.000000    2.950286
   Al   C 
     8     6
Direct configuration=     3
   0.78576564  0.15932501  0.00000000
   0.21423436  0.84067499  0.00000000
   0.71423436  0.65932501  0.00000000
   0.28576564  0.34067499  0.00000000
   0.02923188  0.25320091  0.50000000
   0.97076814  0.74679909  0.50000000
   0.47076811  0.75320091  0.50000000
   0.52923186  0.24679909  0.50000000
   0.00000000  0.00000000  0.00000000
   0.50000000  0.50000000  0.00000000
   0.82559673  0.44890168  0.50000000
   0.17440327  0.55109832  0.50000000
   0.67440327  0.94890168  0.50000000
   0.32559673  0.05109832  0.50000000
Al4C3 Pbam - r2SCAN H(P) scan @ 30 GPa (
           1
     8.624744    0.000000    0.000000
     0.000000    4.980002    0.000000
     0.000000    0.000000    2.950010
   Al   C 
     8     6
Direct configuration=     4
   0.78576708  0.15932602  0.00000000
   0.21423292  0.84067398  0.00000000
   0.71423292  0.65932602  0.00000000
   0.28576708  0.34067398  0.00000000
   0.02922807  0.25319920  0.50000000
   0.97077195  0.74680080  0.50000000
   0.47077192  0.75319920  0.50000000
   0.52922805  0.24680080  0.50000000
   0.00000000  0.00000000  0.00000000
   0.50000000  0.50000000  0.00000000
   0.82560226  0.44890474  0.50000000
   0.17439774  0.55109526  0.50000000
   0.67439774  0.94890474  0.50000000
   0.32560226  0.05109526  0.50000000
Al4C3 Pbam - r2SCAN H(P) scan @ 30 GPa (
           1
     8.625086    0.000000    0.000000
     0.000000    4.980199    0.000000
     0.000000    0.000000    2.950127
   Al   C 
     8     6
Direct configuration=     5
   0.78567071  0.15963233  0.00000000
   0.21432929  0.84036767  0.00000000
   0.71432929  0.65963233  0.00000000
   0.28567071  0.34036767  0.00000000
   0.02913108  0.25313680  0.50000000
   0.97086895  0.74686320  0.50000000
   0.47086892  0.75313680  0.50000000
   0.52913105  0.24686320  0.50000000
  -0.00000000  0.00000000  0.00000000
   0.50000000  0.50000000  0.00000000
   0.82575206  0.44897189  0.50000000
   0.17424794  0.55102811  0.50000000
   0.67424794  0.94897189  0.50000000
   0.32575206  0.05102811  0.50000000
Al4C3 Pbam - r2SCAN H(P) scan @ 30 GPa (
           1
     8.625476    0.000000    0.000000
     0.000000    4.980424    0.000000
     0.000000    0.000000    2.950260
   Al   C 
     8     6
Direct configuration=     6
   0.78556110  0.15998067  0.00000000
   0.21443890  0.84001933  0.00000000
   0.71443890  0.65998067  0.00000000
   0.28556110  0.34001933  0.00000000
   0.02902077  0.25306584  0.50000000
   0.97097926  0.74693416  0.50000000
   0.47097923  0.75306584  0.50000000
   0.52902074  0.24693416  0.50000000
  -0.00000000  0.00000000  0.00000000
   0.50000000  0.50000000  0.00000000
   0.82592243  0.44904826  0.50000000
   0.17407757  0.55095174  0.50000000
   0.67407757  0.94904826  0.50000000
   0.32592243  0.05095174  0.50000000
Al4C3 Pbam - r2SCAN H(P) scan @ 30 GPa (
           1
     8.625461    0.000000    0.000000
     0.000000    4.980416    0.000000
     0.000000    0.000000    2.950256
   Al   C 
     8     6
Direct configuration=     7
   0.78544824  0.16029662 -0.00000000
   0.21455176  0.83970338  0.00000000
   0.71455176  0.66029662 -0.00000000
   0.28544824  0.33970338  0.00000000
   0.02892395  0.25306487  0.50000000
   0.97107607  0.74693513  0.50000000
   0.47107604  0.75306487  0.50000000
   0.52892393  0.24693513  0.50000000
  -0.00000000  0.00000000  0.00000000
   0.50000000  0.50000000  0.00000000
   0.82588007  0.44933336  0.50000000
   0.17411993  0.55066664  0.50000000
   0.67411993  0.94933336  0.50000000
   0.32588007  0.05066664  0.50000000
Al4C3 Pbam - r2SCAN H(P) scan @ 30 GPa (
           1
     8.625434    0.000000    0.000000
     0.000000    4.980400    0.000000
     0.000000    0.000000    2.950246
   Al   C 
     8     6
Direct configuration=     8
   0.78523410  0.16089612 -0.00000000
   0.21476590  0.83910388  0.00000000
   0.71476590  0.66089612 -0.00000000
   0.28523410  0.33910388  0.00000000
   0.02874026  0.25306304  0.50000000
   0.97125976  0.74693696  0.50000000
   0.47125973  0.75306304  0.50000000
   0.52874024  0.24693696  0.50000000
  -0.00000000  0.00000000  0.00000000
   0.50000000  0.50000000  0.00000000
   0.82579970  0.44987431  0.50000000
   0.17420030  0.55012569  0.50000000
   0.67420030  0.94987431  0.50000000
   0.32579970  0.05012569  0.50000000
Al4C3 Pbam - r2SCAN H(P) scan @ 30 GPa (
           1
     8.625438    0.000000    0.000000
     0.000000    4.980402    0.000000
     0.000000    0.000000    2.950247
   Al   C 
     8     6
Direct configuration=     9
   0.78526298  0.16081524 -0.00000000
   0.21473702  0.83918476  0.00000000
   0.71473702  0.66081524 -0.00000000
   0.28526298  0.33918476  0.00000000
   0.02876504  0.25306329  0.50000000
   0.97123498  0.74693671  0.50000000
   0.47123495  0.75306329  0.50000000
   0.52876502  0.24693671  0.50000000
  -0.00000000  0.00000000  0.00000000
   0.50000000  0.50000000  0.00000000
   0.82581054  0.44980134  0.50000000
   0.17418946  0.55019866  0.50000000
   0.67418946  0.94980134  0.50000000
   0.32581054  0.05019866  0.50000000
Al4C3 Pbam - r2SCAN H(P) scan @ 30 GPa (
           1
     8.625318    0.000000    0.000000
     0.000000    4.980333    0.000000
     0.000000    0.000000    2.950207
   Al   C 
     8     6
Direct configuration=    10
   0.78535066  0.16096743 -0.00000000
   0.21464934  0.83903257  0.00000000
   0.71464934  0.66096743 -0.00000000
   0.28535066  0.33903257  0.00000000
   0.02866002  0.25302358  0.50000000
   0.97134000  0.74697642  0.50000000
   0.47133997  0.75302358  0.50000000
   0.52866000  0.24697642  0.50000000
  -0.00000000  0.00000000  0.00000000
   0.50000000  0.50000000  0.00000000
   0.82576925  0.44989634  0.50000000
   0.17423075  0.55010366  0.50000000
   0.67423075  0.94989634  0.50000000
   0.32576925  0.05010366  0.50000000
Al4C3 Pbam - r2SCAN H(P) scan @ 30 GPa (
           1
     8.625346    0.000000    0.000000
     0.000000    4.980349    0.000000
     0.000000    0.000000    2.950216
   Al   C 
     8     6
Direct configuration=    11
   0.78533031  0.16093210 -0.00000000
   0.21466969  0.83906790  0.00000000
   0.71466969  0.66093210 -0.00000000
   0.28533031  0.33906790  0.00000000
   0.02868440  0.25303280  0.50000000
   0.97131562  0.74696720  0.50000000
   0.47131559  0.75303280  0.50000000
   0.52868438  0.24696720  0.50000000
  -0.00000000  0.00000000  0.00000000
   0.50000000  0.50000000  0.00000000
   0.82577884  0.44987428  0.50000000
   0.17422116  0.55012572  0.50000000
   0.67422116  0.94987428  0.50000000
   0.32577884  0.05012572  0.50000000
