Al4C3 I-43d polymorph (findsym-output, f
   1.00000000000000     
     6.1195659386347048    0.0000000000000000    0.0000000000000000
     0.0000000000000000    6.1195659386347048    0.0000000000000000
     0.0000000000000000    0.0000000000000000    6.1195659386347048
   Al   C 
    16    12
Direct
  0.3123825436426590  0.3123825436426590  0.3123825436426590
  0.1876174563573410  0.6876174563573410  0.8123825436426590
  0.6876174563573410  0.8123825436426590  0.1876174563573410
  0.8123825436426590  0.1876174563573410  0.6876174563573410
  0.5623825436426590  0.5623825436426590  0.5623825436426590
  0.9376174563573410  0.4376174563573410  0.0623825436426590
  0.0623825436426590  0.9376174563573410  0.4376174563573410
  0.4376174563573410  0.0623825436426590  0.9376174563573410
  0.8123825436426590  0.8123825436426590  0.8123825436426590
  0.6876174563573410  0.1876174563573410  0.3123825436426590
  0.1876174563573410  0.3123825436426590  0.6876174563573410
  0.3123825436426590  0.6876174563573410  0.1876174563573410
  0.0623825436426590  0.0623825436426590  0.0623825436426590
  0.4376174563573410  0.9376174563573410  0.5623825436426590
  0.5623825436426590  0.4376174563573410  0.9376174563573410
  0.9376174563573410  0.5623825436426590  0.4376174563573410
  0.3750000000000000 -0.0000000000000000  0.2500000000000000
  0.1250000000000000 -0.0000000000000000  0.7500000000000000
  0.6250000000000000  0.5000000000000000  0.2500000000000000
  0.8750000000000000  0.5000000000000000  0.7500000000000000
  0.2500000000000000  0.3750000000000000 -0.0000000000000000
  0.7500000000000000  0.1250000000000000 -0.0000000000000000
  0.2500000000000000  0.6250000000000000  0.5000000000000000
  0.7500000000000000  0.8750000000000000  0.5000000000000000
  0.0000000000000000  0.2500000000000000  0.3750000000000000
  0.0000000000000000  0.7500000000000000  0.1250000000000000
  0.5000000000000000  0.2500000000000000  0.6250000000000000
  0.5000000000000000  0.7500000000000000  0.8750000000000000
 
  0.00000000E+00  0.00000000E+00  0.00000000E+00
  0.00000000E+00  0.00000000E+00  0.00000000E+00
  0.00000000E+00  0.00000000E+00  0.00000000E+00
  0.00000000E+00  0.00000000E+00  0.00000000E+00
  0.00000000E+00  0.00000000E+00  0.00000000E+00
  0.00000000E+00  0.00000000E+00  0.00000000E+00
  0.00000000E+00  0.00000000E+00  0.00000000E+00
  0.00000000E+00  0.00000000E+00  0.00000000E+00
  0.00000000E+00  0.00000000E+00  0.00000000E+00
  0.00000000E+00  0.00000000E+00  0.00000000E+00
  0.00000000E+00  0.00000000E+00  0.00000000E+00
  0.00000000E+00  0.00000000E+00  0.00000000E+00
  0.00000000E+00  0.00000000E+00  0.00000000E+00
  0.00000000E+00  0.00000000E+00  0.00000000E+00
  0.00000000E+00  0.00000000E+00  0.00000000E+00
  0.00000000E+00  0.00000000E+00  0.00000000E+00
  0.00000000E+00  0.00000000E+00  0.00000000E+00
  0.00000000E+00  0.00000000E+00  0.00000000E+00
  0.00000000E+00  0.00000000E+00  0.00000000E+00
  0.00000000E+00  0.00000000E+00  0.00000000E+00
  0.00000000E+00  0.00000000E+00  0.00000000E+00
  0.00000000E+00  0.00000000E+00  0.00000000E+00
  0.00000000E+00  0.00000000E+00  0.00000000E+00
  0.00000000E+00  0.00000000E+00  0.00000000E+00
  0.00000000E+00  0.00000000E+00  0.00000000E+00
  0.00000000E+00  0.00000000E+00  0.00000000E+00
  0.00000000E+00  0.00000000E+00  0.00000000E+00
  0.00000000E+00  0.00000000E+00  0.00000000E+00
