       N       E                     dE             d eps       ncg     rms          rms(c)
DAV:   1    -0.230805333982E+03   -0.23081E+03   -0.48982E+00  2640   0.107E+01    0.780E+00
DAV:   2    -0.215765915130E+03    0.15039E+02   -0.10971E+00  2742   0.587E+00    0.567E+00
DAV:   3    -0.216086401610E+03   -0.32049E+00   -0.18718E-01  2934   0.195E+00    0.453E+00
DAV:   4    -0.216120322639E+03   -0.33921E-01   -0.91848E-02  3090   0.109E+00    0.818E-01
DAV:   5    -0.216120379886E+03   -0.57246E-04   -0.70007E-03  3096   0.277E-01    0.351E-01
DAV:   6    -0.216120441138E+03   -0.61252E-04   -0.10194E-03  3162   0.121E-01    0.966E-02
DAV:   7    -0.216120447943E+03   -0.68053E-05   -0.44112E-05  2958   0.312E-02
   1 F= -.15812326E+03 E0= -.15812326E+03  d E =-.158123E+03
       N       E                     dE             d eps       ncg     rms          rms(c)
DAV:   1    -0.214091221804E+03    0.20292E+01   -0.28391E+00  2922   0.707E+00    0.182E+00
DAV:   2    -0.214062159735E+03    0.29062E-01   -0.19000E-01  3102   0.143E+00    0.100E+00
DAV:   3    -0.214062034231E+03    0.12550E-03   -0.18239E-02  3132   0.432E-01    0.391E-01
DAV:   4    -0.214062230119E+03   -0.19589E-03   -0.67341E-04  3048   0.129E-01    0.175E-01
DAV:   5    -0.214062189421E+03    0.40698E-04   -0.17584E-04  2940   0.635E-02    0.108E-01
DAV:   6    -0.214062126570E+03    0.62851E-04   -0.60477E-05  2790   0.410E-02    0.322E-02
DAV:   7    -0.214062161847E+03   -0.35278E-04   -0.39350E-06  1548   0.743E-03    0.142E-02
DAV:   8    -0.214062175524E+03   -0.13677E-04   -0.10997E-06  1482   0.364E-03    0.599E-03
DAV:   9    -0.214062184161E+03   -0.86372E-05   -0.17124E-07  1470   0.169E-03
   2 F= -.15805014E+03 E0= -.15805014E+03  d E =0.731197E-01
       N       E                     dE             d eps       ncg     rms          rms(c)
DAV:   1    -0.215407698883E+03   -0.13455E+01   -0.10632E+00  2922   0.426E+00    0.112E+00
DAV:   2    -0.215400134159E+03    0.75647E-02   -0.75086E-02  3084   0.891E-01    0.602E-01
DAV:   3    -0.215401206865E+03   -0.10727E-02   -0.69048E-03  3120   0.265E-01    0.232E-01
DAV:   4    -0.215401530795E+03   -0.32393E-03   -0.26296E-04  3042   0.806E-02    0.108E-01
DAV:   5    -0.215401670877E+03   -0.14008E-03   -0.67851E-05  2910   0.396E-02    0.655E-02
DAV:   6    -0.215401725060E+03   -0.54183E-04   -0.21858E-05  1812   0.253E-02    0.162E-02
DAV:   7    -0.215401705262E+03    0.19799E-04   -0.14502E-06  1482   0.470E-03    0.881E-03
DAV:   8    -0.215401696600E+03    0.86620E-05   -0.42943E-07  1458   0.228E-03
   3 F= -.15816911E+03 E0= -.15816911E+03  d E =-.458564E-01
       N       E                     dE             d eps       ncg     rms          rms(c)
DAV:   1    -0.215384309771E+03    0.17395E-01   -0.20903E-04  2910   0.601E-02    0.157E-02
DAV:   2    -0.215384294935E+03    0.14836E-04   -0.13528E-05  1428   0.124E-02    0.981E-03
DAV:   3    -0.215384285709E+03    0.92256E-05   -0.34106E-06  1398   0.637E-03
   4 F= -.15816911E+03 E0= -.15816911E+03  d E =-.458486E-01
       N       E                     dE             d eps       ncg     rms          rms(c)
DAV:   1    -0.215384879043E+03   -0.58411E-03   -0.45191E-07  1392   0.326E-03    0.146E-03
DAV:   2    -0.215384878171E+03    0.87178E-06   -0.49359E-08  1392   0.102E-03
   5 F= -.15816910E+03 E0= -.15816910E+03  d E =-.458462E-01
       N       E                     dE             d eps       ncg     rms          rms(c)
DAV:   1    -0.215384588266E+03    0.29078E-03   -0.86218E-08  1392   0.119E-03    0.743E-04
DAV:   2    -0.215384587871E+03    0.39486E-06   -0.74105E-09  1392   0.393E-04
   6 F= -.15816910E+03 E0= -.15816910E+03  d E =-.458459E-01
       N       E                     dE             d eps       ncg     rms          rms(c)
DAV:   1    -0.215384435167E+03    0.15310E-03   -0.20788E-08  1374   0.657E-04    0.270E-04
DAV:   2    -0.215384435004E+03    0.16391E-06   -0.16352E-09  1374   0.188E-04
   7 F= -.15816910E+03 E0= -.15816910E+03  d E =-.458455E-01
       N       E                     dE             d eps       ncg     rms          rms(c)
DAV:   1    -0.215384358742E+03    0.76426E-04   -0.40434E-09  1374   0.292E-04    0.155E-04
DAV:   2    -0.215384358669E+03    0.72909E-07   -0.37366E-10  1374   0.882E-05
   8 F= -.15816910E+03 E0= -.15816910E+03  d E =-.458454E-01
       N       E                     dE             d eps       ncg     rms          rms(c)
DAV:   1    -0.215384320531E+03    0.38211E-04   -0.93589E-10  1374   0.143E-04    0.720E-05
DAV:   2    -0.215384320501E+03    0.29517E-07   -0.85730E-11  1374   0.429E-05
   9 F= -.15816910E+03 E0= -.15816910E+03  d E =-.458453E-01
       N       E                     dE             d eps       ncg     rms          rms(c)
DAV:   1    -0.215384301441E+03    0.19090E-04   -0.25674E-10  1374   0.722E-05    0.519E-05
DAV:   2    -0.215384301428E+03    0.12858E-07   -0.24188E-11  1374   0.223E-05
  10 F= -.15816910E+03 E0= -.15816910E+03  d E =-.458453E-01
       N       E                     dE             d eps       ncg     rms          rms(c)
DAV:   1    -0.215384291895E+03    0.95452E-05   -0.60317E-11  1374   0.360E-05    0.361E-05
DAV:   2    -0.215384291890E+03    0.51969E-08   -0.45907E-12  1374   0.109E-05
  11 F= -.15816910E+03 E0= -.15816910E+03  d E =-.458453E-01
       N       E                     dE             d eps       ncg     rms          rms(c)
DAV:   1    -0.215384287125E+03    0.47704E-05   -0.15584E-11  1368   0.181E-05    0.335E-05
DAV:   2    -0.215384287123E+03    0.22428E-08    0.65211E-13  1356   0.571E-06
  12 F= -.15816910E+03 E0= -.15816910E+03  d E =-.458453E-01
       N       E                     dE             d eps       ncg     rms          rms(c)
DAV:   1    -0.215384284740E+03    0.23854E-05   -0.23643E-12  1356   0.900E-06    0.316E-05
DAV:   2    -0.215384284739E+03    0.82582E-09   -0.10070E-12  1356   0.279E-06
  13 F= -.15816910E+03 E0= -.15816910E+03  d E =-.458453E-01
       N       E                     dE             d eps       ncg     rms          rms(c)
DAV:   1    -0.215384283548E+03    0.11920E-05   -0.13670E-12  1356   0.453E-06    0.314E-05
DAV:   2    -0.215384283547E+03    0.46384E-09   -0.12077E-12  1356   0.146E-06
  14 F= -.15816910E+03 E0= -.15816910E+03  d E =-.458453E-01
       N       E                     dE             d eps       ncg     rms          rms(c)
DAV:   1    -0.215384282951E+03    0.59632E-06    0.38766E-13  1356   0.227E-06    0.312E-05
DAV:   2    -0.215384282951E+03    0.45475E-10   -0.23684E-12  1356   0.714E-07
  15 F= -.15816910E+03 E0= -.15816910E+03  d E =-.458453E-01
       N       E                     dE             d eps       ncg     rms          rms(c)
DAV:   1    -0.215384282653E+03    0.29796E-06   -0.23200E-12  1356   0.114E-06    0.312E-05
DAV:   2    -0.215384282653E+03   -0.12733E-10   -0.13349E-12  1356   0.369E-07
  16 F= -.15816910E+03 E0= -.15816910E+03  d E =-.458453E-01
       N       E                     dE             d eps       ncg     rms          rms(c)
DAV:   1    -0.215384282504E+03    0.14887E-06    0.63204E-13  1356   0.571E-07    0.312E-05
DAV:   2    -0.215384282504E+03    0.12551E-09    0.52528E-13  1356   0.178E-07
  17 F= -.15816910E+03 E0= -.15816910E+03  d E =-.458453E-01
       N       E                     dE             d eps       ncg     rms          rms(c)
DAV:   1    -0.215384282430E+03    0.74562E-07    0.30022E-12  1356   0.287E-07    0.312E-05
DAV:   2    -0.215384282430E+03    0.13279E-09   -0.31216E-13  1356   0.913E-08
  18 F= -.15816910E+03 E0= -.15816910E+03  d E =-.458453E-01
       N       E                     dE             d eps       ncg     rms          rms(c)
DAV:   1    -0.215384282393E+03    0.37260E-07    0.11410E-12  1356   0.142E-07    0.312E-05
DAV:   2    -0.215384282393E+03    0.23647E-10    0.52482E-13  1356   0.421E-08
  19 F= -.15816910E+03 E0= -.15816910E+03  d E =-.458453E-01
       N       E                     dE             d eps       ncg     rms          rms(c)
DAV:   1    -0.216122734823E+03   -0.73845E+00   -0.42638E-01  2910   0.269E+00    0.704E-01
DAV:   2    -0.216119663371E+03    0.30715E-02   -0.30300E-02  3078   0.563E-01    0.381E-01
DAV:   3    -0.216120209502E+03   -0.54613E-03   -0.27446E-03  3126   0.167E-01    0.152E-01
DAV:   4    -0.216120362664E+03   -0.15316E-03   -0.10728E-04  3006   0.518E-02    0.668E-02
DAV:   5    -0.216120445619E+03   -0.82955E-04   -0.25389E-05  1812   0.259E-02    0.356E-02
DAV:   6    -0.216120478030E+03   -0.32411E-04   -0.76919E-06  1476   0.166E-02    0.115E-02
DAV:   7    -0.216120467759E+03    0.10271E-04   -0.69299E-07  1428   0.339E-03    0.761E-03
DAV:   8    -0.216120460858E+03    0.69017E-05   -0.12104E-07  1428   0.152E-03
  20 F= -.15812327E+03 E0= -.15812327E+03  d E =-.129145E-04
