Al4C3 I-43d - r2SCAN H(P) scan @ 40 GPa 
           1
     6.147320    0.000000    0.000000
     0.000000    6.147320    0.000000
     0.000000    0.000000    6.147320
   Al   C 
    16    12
Direct configuration=     1
   0.31251694  0.31251694  0.31251694
   0.18748306  0.68748306  0.81251694
   0.68748306  0.81251694  0.18748306
   0.81251694  0.18748306  0.68748306
   0.56251694  0.56251694  0.56251694
   0.93748306  0.43748306  0.06251694
   0.06251694  0.93748306  0.43748306
   0.43748306  0.06251694  0.93748306
   0.81251694  0.81251694  0.81251694
   0.68748306  0.18748306  0.31251694
   0.18748306  0.31251694  0.68748306
   0.31251694  0.68748306  0.18748306
   0.06251694  0.06251694  0.06251694
   0.43748306  0.93748306  0.56251694
   0.56251694  0.43748306  0.93748306
   0.93748306  0.56251694  0.43748306
   0.37500000  0.00000000  0.25000000
   0.12500000  0.00000000  0.75000000
   0.62500000  0.50000000  0.25000000
   0.87500000  0.50000000  0.75000000
   0.25000000  0.37500000  0.00000000
   0.75000000  0.12500000  0.00000000
   0.25000000  0.62500000  0.50000000
   0.75000000  0.87500000  0.50000000
   0.00000000  0.25000000  0.37500000
   0.00000000  0.75000000  0.12500000
   0.50000000  0.25000000  0.62500000
   0.50000000  0.75000000  0.87500000
Al4C3 I-43d - r2SCAN H(P) scan @ 40 GPa 
           1
     6.076367    0.000000    0.000000
     0.000000    6.076367    0.000000
     0.000000    0.000000    6.076367
   Al   C 
    16    12
Direct configuration=     2
   0.31216694  0.31216694  0.31216694
   0.18783306  0.68783306  0.81216694
   0.68783306  0.81216694  0.18783306
   0.81216694  0.18783306  0.68783306
   0.56216694  0.56216694  0.56216694
   0.93783306  0.43783306  0.06216694
   0.06216694  0.93783306  0.43783306
   0.43783306  0.06216694  0.93783306
   0.81216694  0.81216694  0.81216694
   0.68783306  0.18783306  0.31216694
   0.18783306  0.31216694  0.68783306
   0.31216694  0.68783306  0.18783306
   0.06216694  0.06216694  0.06216694
   0.43783306  0.93783306  0.56216694
   0.56216694  0.43783306  0.93783306
   0.93783306  0.56216694  0.43783306
   0.37500000 -0.00000000  0.25000000
   0.12500000 -0.00000000  0.75000000
   0.62500000  0.50000000  0.25000000
   0.87500000  0.50000000  0.75000000
   0.25000000  0.37500000 -0.00000000
   0.75000000  0.12500000 -0.00000000
   0.25000000  0.62500000  0.50000000
   0.75000000  0.87500000  0.50000000
   0.00000000  0.25000000  0.37500000
   0.00000000  0.75000000  0.12500000
   0.50000000  0.25000000  0.62500000
   0.50000000  0.75000000  0.87500000
Al4C3 I-43d - r2SCAN H(P) scan @ 40 GPa 
           1
     6.120186    0.000000    0.000000
     0.000000    6.120186    0.000000
     0.000000    0.000000    6.120186
   Al   C 
    16    12
Direct configuration=     3
   0.31238562  0.31238562  0.31238562
   0.18761438  0.68761438  0.81238562
   0.68761438  0.81238562  0.18761438
   0.81238562  0.18761438  0.68761438
   0.56238562  0.56238562  0.56238562
   0.93761438  0.43761438  0.06238562
   0.06238562  0.93761438  0.43761438
   0.43761438  0.06238562  0.93761438
   0.81238562  0.81238562  0.81238562
   0.68761438  0.18761438  0.31238562
   0.18761438  0.31238562  0.68761438
   0.31238562  0.68761438  0.18761438
   0.06238562  0.06238562  0.06238562
   0.43761438  0.93761438  0.56238562
   0.56238562  0.43761438  0.93761438
   0.93761438  0.56238562  0.43761438
   0.37500000 -0.00000000  0.25000000
   0.12500000 -0.00000000  0.75000000
   0.62500000  0.50000000  0.25000000
   0.87500000  0.50000000  0.75000000
   0.25000000  0.37500000 -0.00000000
   0.75000000  0.12500000 -0.00000000
   0.25000000  0.62500000  0.50000000
   0.75000000  0.87500000  0.50000000
   0.00000000  0.25000000  0.37500000
   0.00000000  0.75000000  0.12500000
   0.50000000  0.25000000  0.62500000
   0.50000000  0.75000000  0.87500000
Al4C3 I-43d - r2SCAN H(P) scan @ 40 GPa 
           1
     6.119566    0.000000    0.000000
     0.000000    6.119566    0.000000
     0.000000    0.000000    6.119566
   Al   C 
    16    12
Direct configuration=     4
   0.31238254  0.31238254  0.31238254
   0.18761746  0.68761746  0.81238254
   0.68761746  0.81238254  0.18761746
   0.81238254  0.18761746  0.68761746
   0.56238254  0.56238254  0.56238254
   0.93761746  0.43761746  0.06238254
   0.06238254  0.93761746  0.43761746
   0.43761746  0.06238254  0.93761746
   0.81238254  0.81238254  0.81238254
   0.68761746  0.18761746  0.31238254
   0.18761746  0.31238254  0.68761746
   0.31238254  0.68761746  0.18761746
   0.06238254  0.06238254  0.06238254
   0.43761746  0.93761746  0.56238254
   0.56238254  0.43761746  0.93761746
   0.93761746  0.56238254  0.43761746
   0.37500000 -0.00000000  0.25000000
   0.12500000 -0.00000000  0.75000000
   0.62500000  0.50000000  0.25000000
   0.87500000  0.50000000  0.75000000
   0.25000000  0.37500000 -0.00000000
   0.75000000  0.12500000 -0.00000000
   0.25000000  0.62500000  0.50000000
   0.75000000  0.87500000  0.50000000
   0.00000000  0.25000000  0.37500000
   0.00000000  0.75000000  0.12500000
   0.50000000  0.25000000  0.62500000
   0.50000000  0.75000000  0.87500000
Al4C3 I-43d - r2SCAN H(P) scan @ 40 GPa 
           1
     6.119587    0.000000    0.000000
     0.000000    6.119587    0.000000
     0.000000    0.000000    6.119587
   Al   C 
    16    12
Direct configuration=     5
   0.31238265  0.31238265  0.31238265
   0.18761735  0.68761735  0.81238265
   0.68761735  0.81238265  0.18761735
   0.81238265  0.18761735  0.68761735
   0.56238265  0.56238265  0.56238265
   0.93761735  0.43761735  0.06238265
   0.06238265  0.93761735  0.43761735
   0.43761735  0.06238265  0.93761735
   0.81238265  0.81238265  0.81238265
   0.68761735  0.18761735  0.31238265
   0.18761735  0.31238265  0.68761735
   0.31238265  0.68761735  0.18761735
   0.06238265  0.06238265  0.06238265
   0.43761735  0.93761735  0.56238265
   0.56238265  0.43761735  0.93761735
   0.93761735  0.56238265  0.43761735
   0.37500000 -0.00000000  0.25000000
   0.12500000 -0.00000000  0.75000000
   0.62500000  0.50000000  0.25000000
   0.87500000  0.50000000  0.75000000
   0.25000000  0.37500000 -0.00000000
   0.75000000  0.12500000 -0.00000000
   0.25000000  0.62500000  0.50000000
   0.75000000  0.87500000  0.50000000
   0.00000000  0.25000000  0.37500000
   0.00000000  0.75000000  0.12500000
   0.50000000  0.25000000  0.62500000
   0.50000000  0.75000000  0.87500000
Al4C3 I-43d - r2SCAN H(P) scan @ 40 GPa 
           1
     6.119577    0.000000    0.000000
     0.000000    6.119577    0.000000
     0.000000    0.000000    6.119577
   Al   C 
    16    12
Direct configuration=     6
   0.31238260  0.31238260  0.31238260
   0.18761740  0.68761740  0.81238260
   0.68761740  0.81238260  0.18761740
   0.81238260  0.18761740  0.68761740
   0.56238260  0.56238260  0.56238260
   0.93761740  0.43761740  0.06238260
   0.06238260  0.93761740  0.43761740
   0.43761740  0.06238260  0.93761740
   0.81238260  0.81238260  0.81238260
   0.68761740  0.18761740  0.31238260
   0.18761740  0.31238260  0.68761740
   0.31238260  0.68761740  0.18761740
   0.06238260  0.06238260  0.06238260
   0.43761740  0.93761740  0.56238260
   0.56238260  0.43761740  0.93761740
   0.93761740  0.56238260  0.43761740
   0.37500000 -0.00000000  0.25000000
   0.12500000 -0.00000000  0.75000000
   0.62500000  0.50000000  0.25000000
   0.87500000  0.50000000  0.75000000
   0.25000000  0.37500000 -0.00000000
   0.75000000  0.12500000 -0.00000000
   0.25000000  0.62500000  0.50000000
   0.75000000  0.87500000  0.50000000
   0.00000000  0.25000000  0.37500000
   0.00000000  0.75000000  0.12500000
   0.50000000  0.25000000  0.62500000
   0.50000000  0.75000000  0.87500000
Al4C3 I-43d - r2SCAN H(P) scan @ 40 GPa 
           1
     6.119571    0.000000    0.000000
     0.000000    6.119571    0.000000
     0.000000    0.000000    6.119571
   Al   C 
    16    12
Direct configuration=     7
   0.31238257  0.31238257  0.31238257
   0.18761743  0.68761743  0.81238257
   0.68761743  0.81238257  0.18761743
   0.81238257  0.18761743  0.68761743
   0.56238257  0.56238257  0.56238257
   0.93761743  0.43761743  0.06238257
   0.06238257  0.93761743  0.43761743
   0.43761743  0.06238257  0.93761743
   0.81238257  0.81238257  0.81238257
   0.68761743  0.18761743  0.31238257
   0.18761743  0.31238257  0.68761743
   0.31238257  0.68761743  0.18761743
   0.06238257  0.06238257  0.06238257
   0.43761743  0.93761743  0.56238257
   0.56238257  0.43761743  0.93761743
   0.93761743  0.56238257  0.43761743
   0.37500000 -0.00000000  0.25000000
   0.12500000 -0.00000000  0.75000000
   0.62500000  0.50000000  0.25000000
   0.87500000  0.50000000  0.75000000
   0.25000000  0.37500000 -0.00000000
   0.75000000  0.12500000 -0.00000000
   0.25000000  0.62500000  0.50000000
   0.75000000  0.87500000  0.50000000
   0.00000000  0.25000000  0.37500000
   0.00000000  0.75000000  0.12500000
   0.50000000  0.25000000  0.62500000
   0.50000000  0.75000000  0.87500000
Al4C3 I-43d - r2SCAN H(P) scan @ 40 GPa 
           1
     6.119569    0.000000    0.000000
     0.000000    6.119569    0.000000
     0.000000    0.000000    6.119569
   Al   C 
    16    12
Direct configuration=     8
   0.31238256  0.31238256  0.31238256
   0.18761744  0.68761744  0.81238256
   0.68761744  0.81238256  0.18761744
   0.81238256  0.18761744  0.68761744
   0.56238256  0.56238256  0.56238256
   0.93761744  0.43761744  0.06238256
   0.06238256  0.93761744  0.43761744
   0.43761744  0.06238256  0.93761744
   0.81238256  0.81238256  0.81238256
   0.68761744  0.18761744  0.31238256
   0.18761744  0.31238256  0.68761744
   0.31238256  0.68761744  0.18761744
   0.06238256  0.06238256  0.06238256
   0.43761744  0.93761744  0.56238256
   0.56238256  0.43761744  0.93761744
   0.93761744  0.56238256  0.43761744
   0.37500000 -0.00000000  0.25000000
   0.12500000 -0.00000000  0.75000000
   0.62500000  0.50000000  0.25000000
   0.87500000  0.50000000  0.75000000
   0.25000000  0.37500000 -0.00000000
   0.75000000  0.12500000 -0.00000000
   0.25000000  0.62500000  0.50000000
   0.75000000  0.87500000  0.50000000
   0.00000000  0.25000000  0.37500000
   0.00000000  0.75000000  0.12500000
   0.50000000  0.25000000  0.62500000
   0.50000000  0.75000000  0.87500000
Al4C3 I-43d - r2SCAN H(P) scan @ 40 GPa 
           1
     6.119567    0.000000    0.000000
     0.000000    6.119567    0.000000
     0.000000    0.000000    6.119567
   Al   C 
    16    12
Direct configuration=     9
   0.31238255  0.31238255  0.31238255
   0.18761745  0.68761745  0.81238255
   0.68761745  0.81238255  0.18761745
   0.81238255  0.18761745  0.68761745
   0.56238255  0.56238255  0.56238255
   0.93761745  0.43761745  0.06238255
   0.06238255  0.93761745  0.43761745
   0.43761745  0.06238255  0.93761745
   0.81238255  0.81238255  0.81238255
   0.68761745  0.18761745  0.31238255
   0.18761745  0.31238255  0.68761745
   0.31238255  0.68761745  0.18761745
   0.06238255  0.06238255  0.06238255
   0.43761745  0.93761745  0.56238255
   0.56238255  0.43761745  0.93761745
   0.93761745  0.56238255  0.43761745
   0.37500000 -0.00000000  0.25000000
   0.12500000 -0.00000000  0.75000000
   0.62500000  0.50000000  0.25000000
   0.87500000  0.50000000  0.75000000
   0.25000000  0.37500000 -0.00000000
   0.75000000  0.12500000 -0.00000000
   0.25000000  0.62500000  0.50000000
   0.75000000  0.87500000  0.50000000
   0.00000000  0.25000000  0.37500000
   0.00000000  0.75000000  0.12500000
   0.50000000  0.25000000  0.62500000
   0.50000000  0.75000000  0.87500000
Al4C3 I-43d - r2SCAN H(P) scan @ 40 GPa 
           1
     6.119567    0.000000    0.000000
     0.000000    6.119567    0.000000
     0.000000    0.000000    6.119567
   Al   C 
    16    12
Direct configuration=    10
   0.31238255  0.31238255  0.31238255
   0.18761745  0.68761745  0.81238255
   0.68761745  0.81238255  0.18761745
   0.81238255  0.18761745  0.68761745
   0.56238255  0.56238255  0.56238255
   0.93761745  0.43761745  0.06238255
   0.06238255  0.93761745  0.43761745
   0.43761745  0.06238255  0.93761745
   0.81238255  0.81238255  0.81238255
   0.68761745  0.18761745  0.31238255
   0.18761745  0.31238255  0.68761745
   0.31238255  0.68761745  0.18761745
   0.06238255  0.06238255  0.06238255
   0.43761745  0.93761745  0.56238255
   0.56238255  0.43761745  0.93761745
   0.93761745  0.56238255  0.43761745
   0.37500000 -0.00000000  0.25000000
   0.12500000 -0.00000000  0.75000000
   0.62500000  0.50000000  0.25000000
   0.87500000  0.50000000  0.75000000
   0.25000000  0.37500000 -0.00000000
   0.75000000  0.12500000 -0.00000000
   0.25000000  0.62500000  0.50000000
   0.75000000  0.87500000  0.50000000
   0.00000000  0.25000000  0.37500000
   0.00000000  0.75000000  0.12500000
   0.50000000  0.25000000  0.62500000
   0.50000000  0.75000000  0.87500000
Al4C3 I-43d - r2SCAN H(P) scan @ 40 GPa 
           1
     6.119566    0.000000    0.000000
     0.000000    6.119566    0.000000
     0.000000    0.000000    6.119566
   Al   C 
    16    12
Direct configuration=    11
   0.31238255  0.31238255  0.31238255
   0.18761745  0.68761745  0.81238255
   0.68761745  0.81238255  0.18761745
   0.81238255  0.18761745  0.68761745
   0.56238255  0.56238255  0.56238255
   0.93761745  0.43761745  0.06238255
   0.06238255  0.93761745  0.43761745
   0.43761745  0.06238255  0.93761745
   0.81238255  0.81238255  0.81238255
   0.68761745  0.18761745  0.31238255
   0.18761745  0.31238255  0.68761745
   0.31238255  0.68761745  0.18761745
   0.06238255  0.06238255  0.06238255
   0.43761745  0.93761745  0.56238255
   0.56238255  0.43761745  0.93761745
   0.93761745  0.56238255  0.43761745
   0.37500000 -0.00000000  0.25000000
   0.12500000 -0.00000000  0.75000000
   0.62500000  0.50000000  0.25000000
   0.87500000  0.50000000  0.75000000
   0.25000000  0.37500000 -0.00000000
   0.75000000  0.12500000 -0.00000000
   0.25000000  0.62500000  0.50000000
   0.75000000  0.87500000  0.50000000
   0.00000000  0.25000000  0.37500000
   0.00000000  0.75000000  0.12500000
   0.50000000  0.25000000  0.62500000
   0.50000000  0.75000000  0.87500000
Al4C3 I-43d - r2SCAN H(P) scan @ 40 GPa 
           1
     6.119566    0.000000    0.000000
     0.000000    6.119566    0.000000
     0.000000    0.000000    6.119566
   Al   C 
    16    12
Direct configuration=    12
   0.31238254  0.31238254  0.31238254
   0.18761746  0.68761746  0.81238254
   0.68761746  0.81238254  0.18761746
   0.81238254  0.18761746  0.68761746
   0.56238254  0.56238254  0.56238254
   0.93761746  0.43761746  0.06238254
   0.06238254  0.93761746  0.43761746
   0.43761746  0.06238254  0.93761746
   0.81238254  0.81238254  0.81238254
   0.68761746  0.18761746  0.31238254
   0.18761746  0.31238254  0.68761746
   0.31238254  0.68761746  0.18761746
   0.06238254  0.06238254  0.06238254
   0.43761746  0.93761746  0.56238254
   0.56238254  0.43761746  0.93761746
   0.93761746  0.56238254  0.43761746
   0.37500000 -0.00000000  0.25000000
   0.12500000 -0.00000000  0.75000000
   0.62500000  0.50000000  0.25000000
   0.87500000  0.50000000  0.75000000
   0.25000000  0.37500000 -0.00000000
   0.75000000  0.12500000 -0.00000000
   0.25000000  0.62500000  0.50000000
   0.75000000  0.87500000  0.50000000
   0.00000000  0.25000000  0.37500000
   0.00000000  0.75000000  0.12500000
   0.50000000  0.25000000  0.62500000
   0.50000000  0.75000000  0.87500000
Al4C3 I-43d - r2SCAN H(P) scan @ 40 GPa 
           1
     6.119566    0.000000    0.000000
     0.000000    6.119566    0.000000
     0.000000    0.000000    6.119566
   Al   C 
    16    12
Direct configuration=    13
   0.31238254  0.31238254  0.31238254
   0.18761746  0.68761746  0.81238254
   0.68761746  0.81238254  0.18761746
   0.81238254  0.18761746  0.68761746
   0.56238254  0.56238254  0.56238254
   0.93761746  0.43761746  0.06238254
   0.06238254  0.93761746  0.43761746
   0.43761746  0.06238254  0.93761746
   0.81238254  0.81238254  0.81238254
   0.68761746  0.18761746  0.31238254
   0.18761746  0.31238254  0.68761746
   0.31238254  0.68761746  0.18761746
   0.06238254  0.06238254  0.06238254
   0.43761746  0.93761746  0.56238254
   0.56238254  0.43761746  0.93761746
   0.93761746  0.56238254  0.43761746
   0.37500000 -0.00000000  0.25000000
   0.12500000 -0.00000000  0.75000000
   0.62500000  0.50000000  0.25000000
   0.87500000  0.50000000  0.75000000
   0.25000000  0.37500000 -0.00000000
   0.75000000  0.12500000 -0.00000000
   0.25000000  0.62500000  0.50000000
   0.75000000  0.87500000  0.50000000
   0.00000000  0.25000000  0.37500000
   0.00000000  0.75000000  0.12500000
   0.50000000  0.25000000  0.62500000
   0.50000000  0.75000000  0.87500000
Al4C3 I-43d - r2SCAN H(P) scan @ 40 GPa 
           1
     6.119566    0.000000    0.000000
     0.000000    6.119566    0.000000
     0.000000    0.000000    6.119566
   Al   C 
    16    12
Direct configuration=    14
   0.31238254  0.31238254  0.31238254
   0.18761746  0.68761746  0.81238254
   0.68761746  0.81238254  0.18761746
   0.81238254  0.18761746  0.68761746
   0.56238254  0.56238254  0.56238254
   0.93761746  0.43761746  0.06238254
   0.06238254  0.93761746  0.43761746
   0.43761746  0.06238254  0.93761746
   0.81238254  0.81238254  0.81238254
   0.68761746  0.18761746  0.31238254
   0.18761746  0.31238254  0.68761746
   0.31238254  0.68761746  0.18761746
   0.06238254  0.06238254  0.06238254
   0.43761746  0.93761746  0.56238254
   0.56238254  0.43761746  0.93761746
   0.93761746  0.56238254  0.43761746
   0.37500000 -0.00000000  0.25000000
   0.12500000 -0.00000000  0.75000000
   0.62500000  0.50000000  0.25000000
   0.87500000  0.50000000  0.75000000
   0.25000000  0.37500000 -0.00000000
   0.75000000  0.12500000 -0.00000000
   0.25000000  0.62500000  0.50000000
   0.75000000  0.87500000  0.50000000
   0.00000000  0.25000000  0.37500000
   0.00000000  0.75000000  0.12500000
   0.50000000  0.25000000  0.62500000
   0.50000000  0.75000000  0.87500000
Al4C3 I-43d - r2SCAN H(P) scan @ 40 GPa 
           1
     6.119566    0.000000    0.000000
     0.000000    6.119566    0.000000
     0.000000    0.000000    6.119566
   Al   C 
    16    12
Direct configuration=    15
   0.31238254  0.31238254  0.31238254
   0.18761746  0.68761746  0.81238254
   0.68761746  0.81238254  0.18761746
   0.81238254  0.18761746  0.68761746
   0.56238254  0.56238254  0.56238254
   0.93761746  0.43761746  0.06238254
   0.06238254  0.93761746  0.43761746
   0.43761746  0.06238254  0.93761746
   0.81238254  0.81238254  0.81238254
   0.68761746  0.18761746  0.31238254
   0.18761746  0.31238254  0.68761746
   0.31238254  0.68761746  0.18761746
   0.06238254  0.06238254  0.06238254
   0.43761746  0.93761746  0.56238254
   0.56238254  0.43761746  0.93761746
   0.93761746  0.56238254  0.43761746
   0.37500000 -0.00000000  0.25000000
   0.12500000 -0.00000000  0.75000000
   0.62500000  0.50000000  0.25000000
   0.87500000  0.50000000  0.75000000
   0.25000000  0.37500000 -0.00000000
   0.75000000  0.12500000 -0.00000000
   0.25000000  0.62500000  0.50000000
   0.75000000  0.87500000  0.50000000
   0.00000000  0.25000000  0.37500000
   0.00000000  0.75000000  0.12500000
   0.50000000  0.25000000  0.62500000
   0.50000000  0.75000000  0.87500000
Al4C3 I-43d - r2SCAN H(P) scan @ 40 GPa 
           1
     6.119566    0.000000    0.000000
     0.000000    6.119566    0.000000
     0.000000    0.000000    6.119566
   Al   C 
    16    12
Direct configuration=    16
   0.31238254  0.31238254  0.31238254
   0.18761746  0.68761746  0.81238254
   0.68761746  0.81238254  0.18761746
   0.81238254  0.18761746  0.68761746
   0.56238254  0.56238254  0.56238254
   0.93761746  0.43761746  0.06238254
   0.06238254  0.93761746  0.43761746
   0.43761746  0.06238254  0.93761746
   0.81238254  0.81238254  0.81238254
   0.68761746  0.18761746  0.31238254
   0.18761746  0.31238254  0.68761746
   0.31238254  0.68761746  0.18761746
   0.06238254  0.06238254  0.06238254
   0.43761746  0.93761746  0.56238254
   0.56238254  0.43761746  0.93761746
   0.93761746  0.56238254  0.43761746
   0.37500000 -0.00000000  0.25000000
   0.12500000 -0.00000000  0.75000000
   0.62500000  0.50000000  0.25000000
   0.87500000  0.50000000  0.75000000
   0.25000000  0.37500000 -0.00000000
   0.75000000  0.12500000 -0.00000000
   0.25000000  0.62500000  0.50000000
   0.75000000  0.87500000  0.50000000
   0.00000000  0.25000000  0.37500000
   0.00000000  0.75000000  0.12500000
   0.50000000  0.25000000  0.62500000
   0.50000000  0.75000000  0.87500000
Al4C3 I-43d - r2SCAN H(P) scan @ 40 GPa 
           1
     6.119566    0.000000    0.000000
     0.000000    6.119566    0.000000
     0.000000    0.000000    6.119566
   Al   C 
    16    12
Direct configuration=    17
   0.31238254  0.31238254  0.31238254
   0.18761746  0.68761746  0.81238254
   0.68761746  0.81238254  0.18761746
   0.81238254  0.18761746  0.68761746
   0.56238254  0.56238254  0.56238254
   0.93761746  0.43761746  0.06238254
   0.06238254  0.93761746  0.43761746
   0.43761746  0.06238254  0.93761746
   0.81238254  0.81238254  0.81238254
   0.68761746  0.18761746  0.31238254
   0.18761746  0.31238254  0.68761746
   0.31238254  0.68761746  0.18761746
   0.06238254  0.06238254  0.06238254
   0.43761746  0.93761746  0.56238254
   0.56238254  0.43761746  0.93761746
   0.93761746  0.56238254  0.43761746
   0.37500000 -0.00000000  0.25000000
   0.12500000 -0.00000000  0.75000000
   0.62500000  0.50000000  0.25000000
   0.87500000  0.50000000  0.75000000
   0.25000000  0.37500000 -0.00000000
   0.75000000  0.12500000 -0.00000000
   0.25000000  0.62500000  0.50000000
   0.75000000  0.87500000  0.50000000
   0.00000000  0.25000000  0.37500000
   0.00000000  0.75000000  0.12500000
   0.50000000  0.25000000  0.62500000
   0.50000000  0.75000000  0.87500000
Al4C3 I-43d - r2SCAN H(P) scan @ 40 GPa 
           1
     6.119566    0.000000    0.000000
     0.000000    6.119566    0.000000
     0.000000    0.000000    6.119566
   Al   C 
    16    12
Direct configuration=    18
   0.31238254  0.31238254  0.31238254
   0.18761746  0.68761746  0.81238254
   0.68761746  0.81238254  0.18761746
   0.81238254  0.18761746  0.68761746
   0.56238254  0.56238254  0.56238254
   0.93761746  0.43761746  0.06238254
   0.06238254  0.93761746  0.43761746
   0.43761746  0.06238254  0.93761746
   0.81238254  0.81238254  0.81238254
   0.68761746  0.18761746  0.31238254
   0.18761746  0.31238254  0.68761746
   0.31238254  0.68761746  0.18761746
   0.06238254  0.06238254  0.06238254
   0.43761746  0.93761746  0.56238254
   0.56238254  0.43761746  0.93761746
   0.93761746  0.56238254  0.43761746
   0.37500000 -0.00000000  0.25000000
   0.12500000 -0.00000000  0.75000000
   0.62500000  0.50000000  0.25000000
   0.87500000  0.50000000  0.75000000
   0.25000000  0.37500000 -0.00000000
   0.75000000  0.12500000 -0.00000000
   0.25000000  0.62500000  0.50000000
   0.75000000  0.87500000  0.50000000
   0.00000000  0.25000000  0.37500000
   0.00000000  0.75000000  0.12500000
   0.50000000  0.25000000  0.62500000
   0.50000000  0.75000000  0.87500000
Al4C3 I-43d - r2SCAN H(P) scan @ 40 GPa 
           1
     6.119566    0.000000    0.000000
     0.000000    6.119566    0.000000
     0.000000    0.000000    6.119566
   Al   C 
    16    12
Direct configuration=    19
   0.31238254  0.31238254  0.31238254
   0.18761746  0.68761746  0.81238254
   0.68761746  0.81238254  0.18761746
   0.81238254  0.18761746  0.68761746
   0.56238254  0.56238254  0.56238254
   0.93761746  0.43761746  0.06238254
   0.06238254  0.93761746  0.43761746
   0.43761746  0.06238254  0.93761746
   0.81238254  0.81238254  0.81238254
   0.68761746  0.18761746  0.31238254
   0.18761746  0.31238254  0.68761746
   0.31238254  0.68761746  0.18761746
   0.06238254  0.06238254  0.06238254
   0.43761746  0.93761746  0.56238254
   0.56238254  0.43761746  0.93761746
   0.93761746  0.56238254  0.43761746
   0.37500000 -0.00000000  0.25000000
   0.12500000 -0.00000000  0.75000000
   0.62500000  0.50000000  0.25000000
   0.87500000  0.50000000  0.75000000
   0.25000000  0.37500000 -0.00000000
   0.75000000  0.12500000 -0.00000000
   0.25000000  0.62500000  0.50000000
   0.75000000  0.87500000  0.50000000
   0.00000000  0.25000000  0.37500000
   0.00000000  0.75000000  0.12500000
   0.50000000  0.25000000  0.62500000
   0.50000000  0.75000000  0.87500000
