Al4C3 I-43d polymorph (findsym-output, f
   1.00000000000000     
     6.5427397033172046    0.0000000000000000    0.0000000000000000
     0.0000000000000000    6.5427397033172046    0.0000000000000000
     0.0000000000000000    0.0000000000000000    6.5427397033172046
   Al   C 
    16    12
Direct
     0.2994176511794155    0.2994176511794155    0.2994176511794155
     0.2005823488205845    0.7005823488205846    0.7994176511794154
     0.7005823488205846    0.7994176511794154    0.2005823488205845
     0.7994176511794154    0.2005823488205845    0.7005823488205846
     0.5494176511794154    0.5494176511794154    0.5494176511794154
     0.9505823488205846    0.4505823488205845    0.0494176511794155
     0.0494176511794155    0.9505823488205846    0.4505823488205845
     0.4505823488205845    0.0494176511794155    0.9505823488205846
     0.7994176511794154    0.7994176511794154    0.7994176511794154
     0.7005823488205846    0.2005823488205845    0.2994176511794155
     0.2005823488205845    0.2994176511794155    0.7005823488205846
     0.2994176511794155    0.7005823488205846    0.2005823488205845
     0.0494176511794155    0.0494176511794155    0.0494176511794155
     0.4505823488205845    0.9505823488205846    0.5494176511794154
     0.5494176511794154    0.4505823488205845    0.9505823488205846
     0.9505823488205846    0.5494176511794154    0.4505823488205845
     0.3750000000000000    0.0000000000000000    0.2500000000000000
     0.1250000000000000    0.0000000000000000    0.7500000000000000
     0.6250000000000000    0.5000000000000000    0.2500000000000000
     0.8750000000000000    0.5000000000000000    0.7500000000000000
     0.2500000000000000    0.3750000000000000    0.0000000000000000
     0.7500000000000000    0.1250000000000000    0.0000000000000000
     0.2500000000000000    0.6250000000000000    0.5000000000000000
     0.7500000000000000    0.8750000000000000    0.5000000000000000
     0.0000000000000000    0.2500000000000000    0.3750000000000000
     0.0000000000000000    0.7500000000000000    0.1250000000000000
     0.5000000000000000    0.2500000000000000    0.6250000000000000
     0.5000000000000000    0.7500000000000000    0.8750000000000000
 
  0.00000000E+00  0.00000000E+00  0.00000000E+00
  0.00000000E+00  0.00000000E+00  0.00000000E+00
  0.00000000E+00  0.00000000E+00  0.00000000E+00
  0.00000000E+00  0.00000000E+00  0.00000000E+00
  0.00000000E+00  0.00000000E+00  0.00000000E+00
  0.00000000E+00  0.00000000E+00  0.00000000E+00
  0.00000000E+00  0.00000000E+00  0.00000000E+00
  0.00000000E+00  0.00000000E+00  0.00000000E+00
  0.00000000E+00  0.00000000E+00  0.00000000E+00
  0.00000000E+00  0.00000000E+00  0.00000000E+00
  0.00000000E+00  0.00000000E+00  0.00000000E+00
  0.00000000E+00  0.00000000E+00  0.00000000E+00
  0.00000000E+00  0.00000000E+00  0.00000000E+00
  0.00000000E+00  0.00000000E+00  0.00000000E+00
  0.00000000E+00  0.00000000E+00  0.00000000E+00
  0.00000000E+00  0.00000000E+00  0.00000000E+00
  0.00000000E+00  0.00000000E+00  0.00000000E+00
  0.00000000E+00  0.00000000E+00  0.00000000E+00
  0.00000000E+00  0.00000000E+00  0.00000000E+00
  0.00000000E+00  0.00000000E+00  0.00000000E+00
  0.00000000E+00  0.00000000E+00  0.00000000E+00
  0.00000000E+00  0.00000000E+00  0.00000000E+00
  0.00000000E+00  0.00000000E+00  0.00000000E+00
  0.00000000E+00  0.00000000E+00  0.00000000E+00
  0.00000000E+00  0.00000000E+00  0.00000000E+00
  0.00000000E+00  0.00000000E+00  0.00000000E+00
  0.00000000E+00  0.00000000E+00  0.00000000E+00
  0.00000000E+00  0.00000000E+00  0.00000000E+00
