Al4C3 I-43d polymorph (findsym-output, f
   1.00000000000000     
     6.5451257908178153    0.0000000000000000    0.0000000000000000
     0.0000000000000000    6.5451257908178153    0.0000000000000000
     0.0000000000000000    0.0000000000000000    6.5451257908178153
   Al   C 
    16    12
Direct
     0.2994485801225865    0.2994485801225865    0.2994485801225865
     0.2005514198774135    0.7005514198774133    0.7994485801225867
     0.7005514198774133    0.7994485801225867    0.2005514198774135
     0.7994485801225867    0.2005514198774135    0.7005514198774133
     0.5494485801225867    0.5494485801225867    0.5494485801225867
     0.9505514198774133    0.4505514198774135    0.0494485801225865
     0.0494485801225865    0.9505514198774133    0.4505514198774135
     0.4505514198774135    0.0494485801225865    0.9505514198774133
     0.7994485801225867    0.7994485801225867    0.7994485801225867
     0.7005514198774133    0.2005514198774135    0.2994485801225865
     0.2005514198774135    0.2994485801225865    0.7005514198774133
     0.2994485801225865    0.7005514198774133    0.2005514198774135
     0.0494485801225865    0.0494485801225865    0.0494485801225865
     0.4505514198774135    0.9505514198774133    0.5494485801225867
     0.5494485801225866    0.4505514198774135    0.9505514198774133
     0.9505514198774133    0.5494485801225867    0.4505514198774135
     0.3750000000000000    0.0000000000000000    0.2500000000000000
     0.1250000000000000    0.0000000000000000    0.7500000000000000
     0.6250000000000000    0.5000000000000000    0.2500000000000000
     0.8750000000000000    0.5000000000000000    0.7500000000000000
     0.2500000000000000    0.3750000000000000    0.0000000000000000
     0.7500000000000000    0.1250000000000000    0.0000000000000000
     0.2500000000000000    0.6250000000000000    0.5000000000000000
     0.7500000000000000    0.8750000000000000    0.5000000000000000
     0.0000000000000000    0.2500000000000000    0.3750000000000000
     0.0000000000000000    0.7500000000000000    0.1250000000000000
     0.5000000000000000    0.2500000000000000    0.6250000000000000
     0.5000000000000000    0.7500000000000000    0.8750000000000000
 
  0.00000000E+00  0.00000000E+00  0.00000000E+00
  0.00000000E+00  0.00000000E+00  0.00000000E+00
  0.00000000E+00  0.00000000E+00  0.00000000E+00
  0.00000000E+00  0.00000000E+00  0.00000000E+00
  0.00000000E+00  0.00000000E+00  0.00000000E+00
  0.00000000E+00  0.00000000E+00  0.00000000E+00
  0.00000000E+00  0.00000000E+00  0.00000000E+00
  0.00000000E+00  0.00000000E+00  0.00000000E+00
  0.00000000E+00  0.00000000E+00  0.00000000E+00
  0.00000000E+00  0.00000000E+00  0.00000000E+00
  0.00000000E+00  0.00000000E+00  0.00000000E+00
  0.00000000E+00  0.00000000E+00  0.00000000E+00
  0.00000000E+00  0.00000000E+00  0.00000000E+00
  0.00000000E+00  0.00000000E+00  0.00000000E+00
  0.00000000E+00  0.00000000E+00  0.00000000E+00
  0.00000000E+00  0.00000000E+00  0.00000000E+00
  0.00000000E+00  0.00000000E+00  0.00000000E+00
  0.00000000E+00  0.00000000E+00  0.00000000E+00
  0.00000000E+00  0.00000000E+00  0.00000000E+00
  0.00000000E+00  0.00000000E+00  0.00000000E+00
  0.00000000E+00  0.00000000E+00  0.00000000E+00
  0.00000000E+00  0.00000000E+00  0.00000000E+00
  0.00000000E+00  0.00000000E+00  0.00000000E+00
  0.00000000E+00  0.00000000E+00  0.00000000E+00
  0.00000000E+00  0.00000000E+00  0.00000000E+00
  0.00000000E+00  0.00000000E+00  0.00000000E+00
  0.00000000E+00  0.00000000E+00  0.00000000E+00
  0.00000000E+00  0.00000000E+00  0.00000000E+00
