  28  28   0   0
  0.1001373E+02  0.6545126E-09  0.6545126E-09  0.6545126E-09  0.5000000E-15
  1.000000000000000E-004
  CAR 
 Al4C3 I-43d - relax @ 0 GPa (ISIF=8)    
     15.54102410     -6.24655221  301     10.02604385      1.00000000
     -6.247  0.0000E+00  0.0000E+00
     -6.174  0.0000E+00  0.0000E+00
     -6.101  0.0000E+00  0.0000E+00
     -6.029  0.0000E+00  0.0000E+00
     -5.956  0.0000E+00  0.0000E+00
     -5.883  0.0000E+00  0.0000E+00
     -5.811  0.0000E+00  0.0000E+00
     -5.738  0.0000E+00  0.0000E+00
     -5.666  0.0000E+00  0.0000E+00
     -5.593  0.0000E+00  0.0000E+00
     -5.520  0.1834E-17  0.1332E-18
     -5.448  0.2157E-11  0.1567E-12
     -5.375  0.4943E-07  0.3590E-08
     -5.302  0.2869E-04  0.2087E-05
     -5.230  0.7768E-03  0.5850E-04
     -5.157  0.2844E-02  0.2651E-03
     -5.085  0.4430E-02  0.5868E-03
     -5.012  0.5552E-02  0.9900E-03
     -4.939  0.6485E-02  0.1461E-02
     -4.867  0.7307E-02  0.1992E-02
     -4.794  0.8055E-02  0.2577E-02
     -4.721  0.8750E-02  0.3212E-02
     -4.649  0.9404E-02  0.3895E-02
     -4.576  0.1002E-01  0.4623E-02
     -4.504  0.1061E-01  0.5393E-02
     -4.431  0.1118E-01  0.6205E-02
     -4.358  0.1175E-01  0.7058E-02
     -4.286  0.1228E-01  0.7950E-02
     -4.213  0.1277E-01  0.8878E-02
     -4.140  0.1333E-01  0.9846E-02
     -4.068  0.1384E-01  0.1085E-01
     -3.995  0.1428E-01  0.1189E-01
     -3.923  0.1487E-01  0.1297E-01
     -3.850  0.1529E-01  0.1408E-01
     -3.777  0.1578E-01  0.1522E-01
     -3.705  0.1633E-01  0.1641E-01
     -3.632  0.1670E-01  0.1762E-01
     -3.559  0.1737E-01  0.1888E-01
     -3.487  0.1767E-01  0.2017E-01
     -3.414  0.1834E-01  0.2150E-01
     -3.342  0.1865E-01  0.2285E-01
     -3.269  0.1938E-01  0.2426E-01
     -3.196  0.1971E-01  0.2569E-01
     -3.124  0.2039E-01  0.2717E-01
     -3.051  0.2076E-01  0.2868E-01
     -2.978  0.2157E-01  0.3025E-01
     -2.906  0.2189E-01  0.3184E-01
     -2.833  0.2272E-01  0.3349E-01
     -2.761  0.2313E-01  0.3517E-01
     -2.688  0.2409E-01  0.3692E-01
     -2.615  0.2438E-01  0.3869E-01
     -2.543  0.2556E-01  0.4054E-01
     -2.470  0.2600E-01  0.4243E-01
     -2.397  0.2717E-01  0.4440E-01
     -2.325  0.2784E-01  0.4643E-01
     -2.252  0.2923E-01  0.4855E-01
     -2.180  0.3017E-01  0.5074E-01
     -2.107  0.3170E-01  0.5304E-01
     -2.034  0.3349E-01  0.5548E-01
     -1.962  0.3542E-01  0.5805E-01
     -1.889  0.3848E-01  0.6084E-01
     -1.816  0.4258E-01  0.6393E-01
     -1.744  0.5162E-01  0.6768E-01
     -1.671  0.5860E-01  0.7194E-01
     -1.599  0.5662E-01  0.7605E-01
     -1.526  0.4271E-01  0.7915E-01
     -1.453  0.2652E-01  0.8108E-01
     -1.381  0.1999E-01  0.8253E-01
     -1.308  0.1790E-01  0.8383E-01
     -1.235  0.1559E-01  0.8496E-01
     -1.163  0.1473E-01  0.8603E-01
     -1.090  0.1520E-01  0.8714E-01
     -1.018  0.1874E-01  0.8850E-01
     -0.945  0.2271E-01  0.9015E-01
     -0.872  0.2986E-01  0.9232E-01
     -0.800  0.4047E-01  0.9526E-01
     -0.727  0.4280E-01  0.9836E-01
     -0.654  0.4984E-01  0.1020E+00
     -0.582  0.5958E-01  0.1063E+00
     -0.509  0.6087E-01  0.1107E+00
     -0.437  0.4364E-01  0.1139E+00
     -0.364  0.2559E-01  0.1158E+00
     -0.291  0.1908E-01  0.1171E+00
     -0.219  0.1514E-01  0.1182E+00
     -0.146  0.1166E-01  0.1191E+00
     -0.073  0.8166E-02  0.1197E+00
     -0.001  0.3861E-02  0.1200E+00
      0.072  0.4943E-03  0.1200E+00
      0.144  0.5217E-05  0.1200E+00
      0.217  0.1863E-08  0.1200E+00
      0.290  0.1462E-13  0.1200E+00
      0.362  0.0000E+00  0.1200E+00
      0.435  0.0000E+00  0.1200E+00
      0.508  0.0000E+00  0.1200E+00
      0.580  0.0000E+00  0.1200E+00
      0.653  0.0000E+00  0.1200E+00
      0.725  0.0000E+00  0.1200E+00
      0.798  0.0000E+00  0.1200E+00
      0.871  0.0000E+00  0.1200E+00
      0.943  0.0000E+00  0.1200E+00
      1.016  0.0000E+00  0.1200E+00
      1.089  0.0000E+00  0.1200E+00
      1.161  0.0000E+00  0.1200E+00
      1.234  0.0000E+00  0.1200E+00
      1.306  0.2368E-15  0.1200E+00
      1.379  0.1010E-09  0.1200E+00
      1.452  0.8827E-06  0.1200E+00
      1.524  0.2210E-03  0.1200E+00
      1.597  0.3375E-02  0.1203E+00
      1.670  0.1056E-01  0.1210E+00
      1.742  0.2466E-01  0.1228E+00
      1.815  0.4333E-01  0.1260E+00
      1.887  0.4264E-01  0.1291E+00
      1.960  0.3612E-01  0.1317E+00
      2.033  0.3157E-01  0.1340E+00
      2.105  0.3715E-01  0.1367E+00
      2.178  0.4518E-01  0.1400E+00
      2.251  0.4920E-01  0.1435E+00
      2.323  0.4423E-01  0.1467E+00
      2.396  0.3637E-01  0.1494E+00
      2.468  0.3177E-01  0.1517E+00
      2.541  0.2924E-01  0.1538E+00
      2.614  0.2778E-01  0.1558E+00
      2.686  0.2685E-01  0.1578E+00
      2.759  0.2653E-01  0.1597E+00
      2.832  0.2668E-01  0.1616E+00
      2.904  0.2703E-01  0.1636E+00
      2.977  0.2784E-01  0.1656E+00
      3.049  0.2931E-01  0.1678E+00
      3.122  0.3516E-01  0.1703E+00
      3.195  0.4318E-01  0.1735E+00
      3.267  0.4511E-01  0.1767E+00
      3.340  0.4661E-01  0.1801E+00
      3.413  0.4939E-01  0.1837E+00
      3.485  0.5454E-01  0.1877E+00
      3.558  0.5291E-01  0.1915E+00
      3.630  0.4789E-01  0.1950E+00
      3.703  0.4758E-01  0.1984E+00
      3.776  0.4813E-01  0.2019E+00
      3.848  0.5127E-01  0.2057E+00
      3.921  0.4389E-01  0.2088E+00
      3.994  0.3927E-01  0.2117E+00
      4.066  0.3595E-01  0.2143E+00
      4.139  0.3341E-01  0.2167E+00
      4.211  0.3234E-01  0.2191E+00
      4.284  0.3452E-01  0.2216E+00
      4.357  0.3706E-01  0.2243E+00
      4.429  0.3680E-01  0.2270E+00
      4.502  0.3512E-01  0.2295E+00
      4.575  0.3499E-01  0.2320E+00
      4.647  0.3825E-01  0.2348E+00
      4.720  0.4128E-01  0.2378E+00
      4.792  0.4276E-01  0.2409E+00
      4.865  0.4209E-01  0.2440E+00
      4.938  0.4228E-01  0.2471E+00
      5.010  0.4080E-01  0.2500E+00
      5.083  0.3899E-01  0.2528E+00
      5.156  0.3931E-01  0.2557E+00
      5.228  0.4298E-01  0.2588E+00
      5.301  0.4979E-01  0.2624E+00
      5.373  0.4943E-01  0.2660E+00
      5.446  0.5191E-01  0.2698E+00
      5.519  0.5583E-01  0.2739E+00
      5.591  0.5468E-01  0.2778E+00
      5.664  0.5601E-01  0.2819E+00
      5.737  0.5474E-01  0.2859E+00
      5.809  0.5091E-01  0.2896E+00
      5.882  0.5012E-01  0.2932E+00
      5.954  0.5178E-01  0.2970E+00
      6.027  0.5076E-01  0.3007E+00
      6.100  0.4916E-01  0.3042E+00
      6.172  0.4962E-01  0.3078E+00
      6.245  0.5583E-01  0.3119E+00
      6.318  0.5854E-01  0.3161E+00
      6.390  0.4303E-01  0.3193E+00
      6.463  0.2554E-01  0.3211E+00
      6.535  0.2372E-01  0.3228E+00
      6.608  0.3165E-01  0.3251E+00
      6.681  0.4102E-01  0.3281E+00
      6.753  0.3521E-01  0.3307E+00
      6.826  0.2998E-01  0.3328E+00
      6.899  0.3644E-01  0.3355E+00
      6.971  0.5943E-01  0.3398E+00
      7.044  0.7340E-01  0.3451E+00
      7.116  0.5876E-01  0.3494E+00
      7.189  0.4706E-01  0.3528E+00
      7.262  0.4803E-01  0.3563E+00
      7.334  0.4717E-01  0.3597E+00
      7.407  0.4675E-01  0.3631E+00
      7.480  0.5006E-01  0.3668E+00
      7.552  0.5202E-01  0.3705E+00
      7.625  0.4848E-01  0.3741E+00
      7.697  0.4114E-01  0.3771E+00
      7.770  0.3774E-01  0.3798E+00
      7.843  0.3936E-01  0.3827E+00
      7.915  0.4784E-01  0.3861E+00
      7.988  0.5279E-01  0.3900E+00
      8.061  0.6469E-01  0.3947E+00
      8.133  0.8346E-01  0.4007E+00
      8.206  0.7576E-01  0.4062E+00
      8.278  0.5919E-01  0.4105E+00
      8.351  0.5060E-01  0.4142E+00
      8.424  0.4627E-01  0.4176E+00
      8.496  0.4467E-01  0.4208E+00
      8.569  0.4171E-01  0.4238E+00
      8.642  0.3974E-01  0.4267E+00
      8.714  0.4089E-01  0.4297E+00
      8.787  0.4258E-01  0.4328E+00
      8.860  0.4143E-01  0.4358E+00
      8.932  0.4265E-01  0.4389E+00
      9.005  0.4489E-01  0.4421E+00
      9.077  0.6290E-01  0.4467E+00
      9.150  0.1087E+00  0.4546E+00
      9.223  0.1392E+00  0.4647E+00
      9.295  0.9931E-01  0.4719E+00
      9.368  0.4862E-01  0.4755E+00
      9.441  0.2202E-01  0.4771E+00
      9.513  0.1259E-01  0.4780E+00
      9.586  0.9981E-02  0.4787E+00
      9.658  0.7617E-02  0.4793E+00
      9.731  0.5668E-02  0.4797E+00
      9.804  0.3505E-02  0.4799E+00
      9.876  0.1019E-02  0.4800E+00
      9.949  0.4497E-04  0.4800E+00
     10.022  0.1006E-06  0.4800E+00
     10.094  0.6142E-11  0.4800E+00
     10.167  0.7618E-17  0.4800E+00
     10.239  0.0000E+00  0.4800E+00
     10.312  0.0000E+00  0.4800E+00
     10.385  0.0000E+00  0.4800E+00
     10.457  0.0000E+00  0.4800E+00
     10.530  0.3919E-19  0.4800E+00
     10.603  0.1209E-12  0.4800E+00
     10.675  0.6973E-08  0.4800E+00
     10.748  0.9090E-05  0.4800E+00
     10.820  0.4642E-03  0.4800E+00
     10.893  0.2495E-02  0.4802E+00
     10.966  0.4619E-02  0.4806E+00
     11.038  0.6396E-02  0.4810E+00
     11.111  0.8218E-02  0.4816E+00
     11.184  0.1054E-01  0.4824E+00
     11.256  0.1358E-01  0.4834E+00
     11.329  0.1782E-01  0.4847E+00
     11.401  0.2521E-01  0.4865E+00
     11.474  0.3647E-01  0.4891E+00
     11.547  0.3503E-01  0.4917E+00
     11.619  0.3425E-01  0.4942E+00
     11.692  0.4565E-01  0.4975E+00
     11.765  0.7273E-01  0.5028E+00
     11.837  0.7089E-01  0.5079E+00
     11.910  0.4518E-01  0.5112E+00
     11.982  0.3715E-01  0.5139E+00
     12.055  0.4188E-01  0.5169E+00
     12.128  0.4481E-01  0.5202E+00
     12.200  0.5195E-01  0.5240E+00
     12.273  0.6367E-01  0.5286E+00
     12.346  0.6057E-01  0.5330E+00
     12.418  0.5756E-01  0.5372E+00
     12.491  0.4822E-01  0.5407E+00
     12.563  0.3739E-01  0.5434E+00
     12.636  0.3156E-01  0.5457E+00
     12.709  0.2699E-01  0.5476E+00
     12.781  0.2576E-01  0.5495E+00
     12.854  0.2840E-01  0.5516E+00
     12.927  0.3058E-01  0.5538E+00
     12.999  0.3065E-01  0.5560E+00
     13.072  0.3364E-01  0.5585E+00
     13.144  0.3959E-01  0.5613E+00
     13.217  0.4809E-01  0.5648E+00
     13.290  0.7479E-01  0.5703E+00
     13.362  0.9401E-01  0.5771E+00
     13.435  0.7776E-01  0.5827E+00
     13.508  0.7639E-01  0.5883E+00
     13.580  0.8699E-01  0.5946E+00
     13.653  0.8489E-01  0.6008E+00
     13.725  0.7251E-01  0.6060E+00
     13.798  0.7094E-01  0.6112E+00
     13.871  0.5913E-01  0.6155E+00
     13.943  0.4644E-01  0.6189E+00
     14.016  0.4409E-01  0.6221E+00
     14.089  0.4614E-01  0.6254E+00
     14.161  0.4646E-01  0.6288E+00
     14.234  0.4221E-01  0.6318E+00
     14.306  0.3648E-01  0.6345E+00
     14.379  0.3328E-01  0.6369E+00
     14.452  0.2741E-01  0.6389E+00
     14.524  0.1291E-01  0.6398E+00
     14.597  0.2191E-02  0.6400E+00
     14.670  0.5477E-04  0.6400E+00
     14.742  0.9164E-07  0.6400E+00
     14.815  0.4995E-11  0.6400E+00
     14.887  0.5453E-17  0.6400E+00
     14.960  0.0000E+00  0.6400E+00
     15.033  0.0000E+00  0.6400E+00
     15.105  0.0000E+00  0.6400E+00
     15.178  0.0000E+00  0.6400E+00
     15.251  0.0000E+00  0.6400E+00
     15.323  0.0000E+00  0.6400E+00
     15.396  0.0000E+00  0.6400E+00
     15.468  0.0000E+00  0.6400E+00
     15.541  0.0000E+00  0.6400E+00
