       N       E                     dE             d eps       ncg     rms          rms(c)
DAV:   1     0.294655716188E+03    0.29466E+03   -0.45175E+04124032   0.149E+03
DAV:   2    -0.146682001974E+03   -0.44134E+03   -0.41291E+03155440   0.228E+02
DAV:   3    -0.182206045757E+03   -0.35524E+02   -0.35017E+02152160   0.596E+01
DAV:   4    -0.183014869216E+03   -0.80882E+00   -0.80392E+00153248   0.954E+00
DAV:   5    -0.183035125577E+03   -0.20256E-01   -0.20230E-01149528   0.146E+00    0.237E+01
DAV:   6    -0.161261616555E+03    0.21774E+02   -0.80600E+01139784   0.241E+01    0.687E+00
DAV:   7    -0.161096617774E+03    0.16500E+00   -0.34151E+00156840   0.576E+00    0.478E+00
DAV:   8    -0.160953778757E+03    0.14284E+00   -0.34799E-01142704   0.227E+00    0.903E-01
DAV:   9    -0.160940293982E+03    0.13485E-01   -0.44257E-02149448   0.638E-01    0.437E-01
DAV:  10    -0.160939992198E+03    0.30178E-03   -0.53076E-03149480   0.222E-01    0.704E-02
DAV:  11    -0.160939986058E+03    0.61402E-05   -0.15064E-04153784   0.408E-02    0.590E-02
DAV:  12    -0.160939987420E+03   -0.13626E-05   -0.38080E-06 87648   0.727E-03
   1 F= -.16093999E+03 E0= -.16093999E+03  d E =-.160940E+03
       N       E                     dE             d eps       ncg     rms          rms(c)
DAV:   1    -0.160940313846E+03   -0.32779E-03   -0.12912E-02139624   0.466E-01    0.115E-01
DAV:   2    -0.160940044245E+03    0.26960E-03   -0.86236E-04147120   0.911E-02    0.481E-02
DAV:   3    -0.160940032004E+03    0.12241E-04   -0.64390E-05141984   0.251E-02    0.176E-02
DAV:   4    -0.160940029361E+03    0.26431E-05   -0.63752E-06 84144   0.763E-03
   2 F= -.16094003E+03 E0= -.16094003E+03  d E =-.419408E-04
       N       E                     dE             d eps       ncg     rms          rms(c)
DAV:   1    -0.160940310131E+03   -0.27813E-03   -0.34587E-03137856   0.238E-01    0.572E-02
DAV:   2    -0.160940237188E+03    0.72942E-04   -0.21608E-04146248   0.461E-02    0.253E-02
DAV:   3    -0.160940230685E+03    0.65039E-05   -0.14895E-05 83400   0.126E-02
   3 F= -.16094023E+03 E0= -.16094023E+03  d E =-.243264E-03
