Al4C3 I-43d - relax @ 0 GPa (ISIF=8)    
           1
     6.545126    0.000000    0.000000
     0.000000    6.545126    0.000000
     0.000000    0.000000    6.545126
   Al   C 
    16    12
Direct configuration=     1
   0.29944858  0.29944858  0.29944858
   0.20055142  0.70055142  0.79944858
   0.70055142  0.79944858  0.20055142
   0.79944858  0.20055142  0.70055142
   0.54944858  0.54944858  0.54944858
   0.95055142  0.45055142  0.04944858
   0.04944858  0.95055142  0.45055142
   0.45055142  0.04944858  0.95055142
   0.79944858  0.79944858  0.79944858
   0.70055142  0.20055142  0.29944858
   0.20055142  0.29944858  0.70055142
   0.29944858  0.70055142  0.20055142
   0.04944858  0.04944858  0.04944858
   0.45055142  0.95055142  0.54944858
   0.54944858  0.45055142  0.95055142
   0.95055142  0.54944858  0.45055142
   0.37500000  0.00000000  0.25000000
   0.12500000  0.00000000  0.75000000
   0.62500000  0.50000000  0.25000000
   0.87500000  0.50000000  0.75000000
   0.25000000  0.37500000  0.00000000
   0.75000000  0.12500000  0.00000000
   0.25000000  0.62500000  0.50000000
   0.75000000  0.87500000  0.50000000
   0.00000000  0.25000000  0.37500000
   0.00000000  0.75000000  0.12500000
   0.50000000  0.25000000  0.62500000
   0.50000000  0.75000000  0.87500000
Al4C3 I-43d - relax @ 0 GPa (ISIF=8)    
           1
     6.540363    0.000000    0.000000
     0.000000    6.540363    0.000000
     0.000000    0.000000    6.540363
   Al   C 
    16    12
Direct configuration=     2
   0.29938680  0.29938680  0.29938680
   0.20061320  0.70061320  0.79938680
   0.70061320  0.79938680  0.20061320
   0.79938680  0.20061320  0.70061320
   0.54938680  0.54938680  0.54938680
   0.95061320  0.45061320  0.04938680
   0.04938680  0.95061320  0.45061320
   0.45061320  0.04938680  0.95061320
   0.79938680  0.79938680  0.79938680
   0.70061320  0.20061320  0.29938680
   0.20061320  0.29938680  0.70061320
   0.29938680  0.70061320  0.20061320
   0.04938680  0.04938680  0.04938680
   0.45061320  0.95061320  0.54938680
   0.54938680  0.45061320  0.95061320
   0.95061320  0.54938680  0.45061320
   0.37500000  1.00000000  0.25000000
   0.12500000  1.00000000  0.75000000
   0.62500000  0.50000000  0.25000000
   0.87500000  0.50000000  0.75000000
   0.25000000  0.37500000  0.00000000
   0.75000000  0.12500000  0.00000000
   0.25000000  0.62500000  0.50000000
   0.75000000  0.87500000  0.50000000
   0.00000000  0.25000000  0.37500000
   0.00000000  0.75000000  0.12500000
   0.50000000  0.25000000  0.62500000
   0.50000000  0.75000000  0.87500000
Al4C3 I-43d - relax @ 0 GPa (ISIF=8)    
           1
     6.542740    0.000000    0.000000
     0.000000    6.542740    0.000000
     0.000000    0.000000    6.542740
   Al   C 
    16    12
Direct configuration=     3
   0.29941765  0.29941765  0.29941765
   0.20058235  0.70058235  0.79941765
   0.70058235  0.79941765  0.20058235
   0.79941765  0.20058235  0.70058235
   0.54941765  0.54941765  0.54941765
   0.95058235  0.45058235  0.04941765
   0.04941765  0.95058235  0.45058235
   0.45058235  0.04941765  0.95058235
   0.79941765  0.79941765  0.79941765
   0.70058235  0.20058235  0.29941765
   0.20058235  0.29941765  0.70058235
   0.29941765  0.70058235  0.20058235
   0.04941765  0.04941765  0.04941765
   0.45058235  0.95058235  0.54941765
   0.54941765  0.45058235  0.95058235
   0.95058235  0.54941765  0.45058235
   0.37500000  0.00000000  0.25000000
   0.12500000  0.00000000  0.75000000
   0.62500000  0.50000000  0.25000000
   0.87500000  0.50000000  0.75000000
   0.25000000  0.37500000  0.00000000
   0.75000000  0.12500000  0.00000000
   0.25000000  0.62500000  0.50000000
   0.75000000  0.87500000  0.50000000
   0.00000000  0.25000000  0.37500000
   0.00000000  0.75000000  0.12500000
   0.50000000  0.25000000  0.62500000
   0.50000000  0.75000000  0.87500000
