Al4C3 Pnma (POSCAR.III, symmetrized via 
   1.00000000000000     
     8.4630415055754771    0.0000000000000000    0.0000000000000000
     0.0000000000000000    2.8539039529270389    0.0000000000000000
     0.0000000000000000    0.0000000000000000    9.2273075319197400
   Al   C 
    16    12
Direct
  0.7361938965687306  0.2500000000000000  0.7126834477303972
  0.7638061034312694  0.7500000000000000  0.2126834477303972
  0.2638061034312694  0.7500000000000000  0.2873165522696028
  0.2361938965687306  0.2500000000000000  0.7873165522696028
  0.6056994944562072  0.2500000000000000  0.4695520035705341
  0.8943005055437928  0.7500000000000000  0.9695520035705344
  0.3943005055437928  0.7500000000000000  0.5304479964294656
  0.1056994944562072  0.2500000000000000  0.0304479964294658
  0.1389796317128598  0.2500000000000000  0.5177485949487461
  0.3610203682871401  0.7500000000000000  0.0177485949487459
  0.8610203682871402  0.7500000000000000  0.4822514050512541
  0.6389796317128598  0.2500000000000000  0.9822514050512539
  0.9950829361396314  0.2500000000000000  0.2787219314196069
  0.5049170638603686  0.7500000000000000  0.7787219314196069
  0.0049170638603686  0.7500000000000000  0.7212780685803931
  0.4950829361396315  0.2500000000000000  0.2212780685803931
  0.9287491353561559  0.2500000000000000  0.6180763751423716
  0.5712508646438441  0.7500000000000000  0.1180763751423716
  0.0712508646438512  0.7500000000000000  0.3819236248576284
  0.4287491353561559  0.2500000000000000  0.8819236248576284
  0.3896782299139491  0.2500000000000000  0.4027426383822198
  0.1103217700860509  0.7500000000000000  0.9027426383822127
  0.6103217700860509  0.7500000000000000  0.5972573616177873
  0.8896782299139491  0.2500000000000000  0.0972573616177872
  0.7738587061643077  0.2500000000000000  0.3527067045436628
  0.7261412938356923  0.7500000000000000  0.8527067045436627
  0.2261412938356921  0.7500000000000000  0.6472932954563373
  0.2738587061643079  0.2500000000000000  0.1472932954563372
 
  0.00000000E+00  0.00000000E+00  0.00000000E+00
  0.00000000E+00  0.00000000E+00  0.00000000E+00
  0.00000000E+00  0.00000000E+00  0.00000000E+00
  0.00000000E+00  0.00000000E+00  0.00000000E+00
  0.00000000E+00  0.00000000E+00  0.00000000E+00
  0.00000000E+00  0.00000000E+00  0.00000000E+00
  0.00000000E+00  0.00000000E+00  0.00000000E+00
  0.00000000E+00  0.00000000E+00  0.00000000E+00
  0.00000000E+00  0.00000000E+00  0.00000000E+00
  0.00000000E+00  0.00000000E+00  0.00000000E+00
  0.00000000E+00  0.00000000E+00  0.00000000E+00
  0.00000000E+00  0.00000000E+00  0.00000000E+00
  0.00000000E+00  0.00000000E+00  0.00000000E+00
  0.00000000E+00  0.00000000E+00  0.00000000E+00
  0.00000000E+00  0.00000000E+00  0.00000000E+00
  0.00000000E+00  0.00000000E+00  0.00000000E+00
  0.00000000E+00  0.00000000E+00  0.00000000E+00
  0.00000000E+00  0.00000000E+00  0.00000000E+00
  0.00000000E+00  0.00000000E+00  0.00000000E+00
  0.00000000E+00  0.00000000E+00  0.00000000E+00
  0.00000000E+00  0.00000000E+00  0.00000000E+00
  0.00000000E+00  0.00000000E+00  0.00000000E+00
  0.00000000E+00  0.00000000E+00  0.00000000E+00
  0.00000000E+00  0.00000000E+00  0.00000000E+00
  0.00000000E+00  0.00000000E+00  0.00000000E+00
  0.00000000E+00  0.00000000E+00  0.00000000E+00
  0.00000000E+00  0.00000000E+00  0.00000000E+00
  0.00000000E+00  0.00000000E+00  0.00000000E+00
