  28  28   0   0
  0.8018284E+01  0.8483844E-09  0.2860919E-09  0.9249989E-09  0.5000000E-15
  1.000000000000000E-004
  CAR 
 Al4C3 Pnma-III - r2SCAN H(P) scan @ 80 G
     22.31589395     -6.69293044  301     12.26554500      1.00000000
     -6.693  0.0000E+00  0.0000E+00
     -6.596  0.0000E+00  0.0000E+00
     -6.500  0.0000E+00  0.0000E+00
     -6.403  0.0000E+00  0.0000E+00
     -6.306  0.0000E+00  0.0000E+00
     -6.209  0.0000E+00  0.0000E+00
     -6.113  0.0000E+00  0.0000E+00
     -6.016  0.0000E+00  0.0000E+00
     -5.919  0.0000E+00  0.0000E+00
     -5.823  0.0000E+00  0.0000E+00
     -5.726  0.0000E+00  0.0000E+00
     -5.629  0.1639E-15  0.1585E-16
     -5.533  0.2241E-08  0.2167E-09
     -5.436  0.2403E-04  0.2324E-05
     -5.339  0.5374E-03  0.5429E-04
     -5.242  0.2430E-02  0.2893E-03
     -5.146  0.4600E-02  0.7341E-03
     -5.049  0.5040E-02  0.1221E-02
     -4.952  0.4500E-02  0.1657E-02
     -4.856  0.5113E-02  0.2151E-02
     -4.759  0.9294E-02  0.3050E-02
     -4.662  0.1150E-01  0.4161E-02
     -4.566  0.5436E-02  0.4687E-02
     -4.469  0.4395E-02  0.5112E-02
     -4.372  0.1264E-01  0.6334E-02
     -4.276  0.1427E-01  0.7714E-02
     -4.179  0.7342E-02  0.8424E-02
     -4.082  0.8699E-02  0.9265E-02
     -3.985  0.1457E-01  0.1067E-01
     -3.889  0.1472E-01  0.1210E-01
     -3.792  0.1091E-01  0.1315E-01
     -3.695  0.1238E-01  0.1435E-01
     -3.599  0.1336E-01  0.1564E-01
     -3.502  0.1765E-01  0.1735E-01
     -3.405  0.1597E-01  0.1889E-01
     -3.309  0.9052E-02  0.1977E-01
     -3.212  0.1128E-01  0.2086E-01
     -3.115  0.2167E-01  0.2295E-01
     -3.018  0.1485E-01  0.2439E-01
     -2.922  0.1751E-01  0.2608E-01
     -2.825  0.1929E-01  0.2795E-01
     -2.728  0.1189E-01  0.2910E-01
     -2.632  0.8464E-02  0.2992E-01
     -2.535  0.2732E-01  0.3256E-01
     -2.438  0.2686E-01  0.3516E-01
     -2.342  0.1216E-01  0.3633E-01
     -2.245  0.1054E-01  0.3735E-01
     -2.148  0.2334E-01  0.3961E-01
     -2.052  0.2280E-01  0.4181E-01
     -1.955  0.2187E-01  0.4393E-01
     -1.858  0.2752E-01  0.4659E-01
     -1.761  0.2360E-01  0.4887E-01
     -1.665  0.2528E-01  0.5131E-01
     -1.568  0.2911E-01  0.5413E-01
     -1.471  0.1916E-01  0.5598E-01
     -1.375  0.2504E-01  0.5840E-01
     -1.278  0.1918E-01  0.6026E-01
     -1.181  0.1852E-01  0.6205E-01
     -1.085  0.3814E-01  0.6574E-01
     -0.988  0.3644E-01  0.6926E-01
     -0.891  0.2908E-01  0.7207E-01
     -0.794  0.2490E-01  0.7448E-01
     -0.698  0.2892E-01  0.7727E-01
     -0.601  0.3945E-01  0.8109E-01
     -0.504  0.3716E-01  0.8468E-01
     -0.408  0.4349E-01  0.8889E-01
     -0.311  0.4294E-01  0.9304E-01
     -0.214  0.3780E-01  0.9670E-01
     -0.118  0.2934E-01  0.9953E-01
     -0.021  0.2946E-01  0.1024E+00
      0.076  0.2147E-01  0.1045E+00
      0.172  0.2329E-01  0.1067E+00
      0.269  0.2336E-01  0.1090E+00
      0.366  0.1855E-01  0.1108E+00
      0.463  0.2054E-01  0.1127E+00
      0.559  0.1444E-01  0.1141E+00
      0.656  0.2092E-01  0.1162E+00
      0.753  0.1064E-01  0.1172E+00
      0.849  0.1720E-01  0.1189E+00
      0.946  0.9244E-02  0.1198E+00
      1.043  0.2443E-02  0.1200E+00
      1.139  0.1133E-03  0.1200E+00
      1.236  0.2420E-07  0.1200E+00
      1.333  0.4749E-14  0.1200E+00
      1.430  0.0000E+00  0.1200E+00
      1.526  0.0000E+00  0.1200E+00
      1.623  0.0000E+00  0.1200E+00
      1.720  0.0000E+00  0.1200E+00
      1.816  0.0000E+00  0.1200E+00
      1.913  0.0000E+00  0.1200E+00
      2.010  0.0000E+00  0.1200E+00
      2.106  0.0000E+00  0.1200E+00
      2.203  0.1186E-15  0.1200E+00
      2.300  0.2337E-08  0.1200E+00
      2.397  0.3551E-04  0.1200E+00
      2.493  0.9161E-03  0.1201E+00
      2.590  0.1796E-02  0.1203E+00
      2.687  0.5239E-02  0.1208E+00
      2.783  0.8445E-02  0.1216E+00
      2.880  0.8963E-02  0.1225E+00
      2.977  0.1983E-01  0.1244E+00
      3.073  0.1189E-01  0.1255E+00
      3.170  0.1679E-01  0.1271E+00
      3.267  0.2194E-01  0.1293E+00
      3.363  0.2636E-01  0.1318E+00
      3.460  0.3129E-01  0.1348E+00
      3.557  0.2866E-01  0.1376E+00
      3.654  0.3541E-01  0.1410E+00
      3.750  0.3968E-01  0.1449E+00
      3.847  0.4299E-01  0.1490E+00
      3.944  0.4328E-01  0.1532E+00
      4.040  0.2740E-01  0.1559E+00
      4.137  0.3446E-01  0.1592E+00
      4.234  0.3211E-01  0.1623E+00
      4.330  0.4293E-01  0.1665E+00
      4.427  0.3327E-01  0.1697E+00
      4.524  0.3141E-01  0.1727E+00
      4.621  0.2947E-01  0.1756E+00
      4.717  0.3555E-01  0.1790E+00
      4.814  0.4412E-01  0.1833E+00
      4.911  0.4496E-01  0.1876E+00
      5.007  0.3876E-01  0.1914E+00
      5.104  0.3615E-01  0.1949E+00
      5.201  0.3615E-01  0.1983E+00
      5.297  0.3477E-01  0.2017E+00
      5.394  0.2091E-01  0.2037E+00
      5.491  0.2554E-01  0.2062E+00
      5.587  0.2758E-01  0.2089E+00
      5.684  0.2537E-01  0.2113E+00
      5.781  0.4964E-01  0.2161E+00
      5.878  0.4603E-01  0.2206E+00
      5.974  0.3383E-01  0.2238E+00
      6.071  0.2293E-01  0.2261E+00
      6.168  0.4119E-01  0.2300E+00
      6.264  0.3139E-01  0.2331E+00
      6.361  0.3256E-01  0.2362E+00
      6.458  0.2732E-01  0.2389E+00
      6.554  0.4227E-01  0.2430E+00
      6.651  0.3004E-01  0.2459E+00
      6.748  0.4732E-01  0.2504E+00
      6.845  0.4775E-01  0.2551E+00
      6.941  0.4291E-01  0.2592E+00
      7.038  0.3755E-01  0.2628E+00
      7.135  0.5058E-01  0.2677E+00
      7.231  0.5124E-01  0.2727E+00
      7.328  0.1783E-01  0.2744E+00
      7.425  0.2407E-01  0.2767E+00
      7.521  0.4090E-01  0.2807E+00
      7.618  0.4146E-01  0.2847E+00
      7.715  0.3113E-01  0.2877E+00
      7.811  0.4533E-01  0.2921E+00
      7.908  0.4275E-01  0.2962E+00
      8.005  0.4163E-01  0.3002E+00
      8.102  0.2862E-01  0.3030E+00
      8.198  0.4337E-01  0.3072E+00
      8.295  0.3453E-01  0.3106E+00
      8.392  0.4573E-01  0.3150E+00
      8.488  0.4722E-01  0.3195E+00
      8.585  0.4895E-01  0.3243E+00
      8.682  0.3212E-01  0.3274E+00
      8.778  0.2817E-01  0.3301E+00
      8.875  0.3552E-01  0.3335E+00
      8.972  0.4567E-01  0.3380E+00
      9.069  0.4947E-01  0.3427E+00
      9.165  0.4471E-01  0.3471E+00
      9.262  0.3882E-01  0.3508E+00
      9.359  0.5098E-01  0.3557E+00
      9.455  0.5421E-01  0.3610E+00
      9.552  0.5346E-01  0.3662E+00
      9.649  0.7093E-01  0.3730E+00
      9.745  0.5991E-01  0.3788E+00
      9.842  0.5151E-01  0.3838E+00
      9.939  0.4720E-01  0.3883E+00
     10.035  0.6147E-01  0.3943E+00
     10.132  0.5787E-01  0.3999E+00
     10.229  0.5379E-01  0.4051E+00
     10.326  0.5315E-01  0.4102E+00
     10.422  0.4428E-01  0.4145E+00
     10.519  0.4509E-01  0.4189E+00
     10.616  0.5782E-01  0.4245E+00
     10.712  0.5719E-01  0.4300E+00
     10.809  0.6059E-01  0.4359E+00
     10.906  0.5522E-01  0.4412E+00
     11.002  0.4681E-01  0.4457E+00
     11.099  0.5839E-01  0.4514E+00
     11.196  0.5177E-01  0.4564E+00
     11.293  0.4674E-01  0.4609E+00
     11.389  0.3865E-01  0.4646E+00
     11.486  0.4216E-01  0.4687E+00
     11.583  0.2507E-01  0.4711E+00
     11.679  0.2639E-01  0.4737E+00
     11.776  0.2109E-01  0.4757E+00
     11.873  0.2375E-01  0.4780E+00
     11.969  0.1631E-01  0.4796E+00
     12.066  0.4015E-02  0.4800E+00
     12.163  0.2017E-03  0.4800E+00
     12.260  0.8247E-07  0.4800E+00
     12.356  0.4438E-13  0.4800E+00
     12.453  0.0000E+00  0.4800E+00
     12.550  0.0000E+00  0.4800E+00
     12.646  0.0000E+00  0.4800E+00
     12.743  0.0000E+00  0.4800E+00
     12.840  0.0000E+00  0.4800E+00
     12.936  0.0000E+00  0.4800E+00
     13.033  0.0000E+00  0.4800E+00
     13.130  0.0000E+00  0.4800E+00
     13.226  0.0000E+00  0.4800E+00
     13.323  0.0000E+00  0.4800E+00
     13.420  0.0000E+00  0.4800E+00
     13.517  0.0000E+00  0.4800E+00
     13.613  0.0000E+00  0.4800E+00
     13.710  0.0000E+00  0.4800E+00
     13.807  0.2088E-16  0.4800E+00
     13.903  0.9615E-09  0.4800E+00
     14.000  0.3301E-04  0.4800E+00
     14.097  0.1629E-02  0.4802E+00
     14.193  0.1711E-02  0.4803E+00
     14.290  0.2734E-02  0.4806E+00
     14.387  0.1188E-01  0.4817E+00
     14.484  0.5898E-02  0.4823E+00
     14.580  0.1045E-01  0.4833E+00
     14.677  0.9164E-02  0.4842E+00
     14.774  0.4992E-02  0.4847E+00
     14.870  0.2097E-01  0.4867E+00
     14.967  0.2177E-01  0.4888E+00
     15.064  0.1434E-01  0.4902E+00
     15.160  0.2414E-01  0.4925E+00
     15.257  0.3255E-01  0.4957E+00
     15.354  0.1514E-01  0.4972E+00
     15.450  0.2404E-01  0.4995E+00
     15.547  0.3036E-01  0.5024E+00
     15.644  0.3224E-01  0.5055E+00
     15.741  0.3948E-01  0.5093E+00
     15.837  0.3512E-01  0.5127E+00
     15.934  0.3576E-01  0.5162E+00
     16.031  0.2239E-01  0.5184E+00
     16.127  0.2636E-01  0.5209E+00
     16.224  0.2397E-01  0.5232E+00
     16.321  0.2600E-01  0.5257E+00
     16.417  0.3705E-01  0.5293E+00
     16.514  0.4407E-01  0.5336E+00
     16.611  0.3636E-01  0.5371E+00
     16.708  0.3214E-01  0.5402E+00
     16.804  0.2154E-01  0.5423E+00
     16.901  0.1656E-01  0.5439E+00
     16.998  0.2730E-01  0.5465E+00
     17.094  0.3316E-01  0.5497E+00
     17.191  0.3935E-01  0.5536E+00
     17.288  0.5649E-01  0.5590E+00
     17.384  0.3058E-01  0.5620E+00
     17.481  0.1554E-01  0.5635E+00
     17.578  0.2389E-01  0.5658E+00
     17.674  0.2213E-01  0.5679E+00
     17.771  0.2536E-01  0.5704E+00
     17.868  0.4187E-01  0.5744E+00
     17.965  0.2722E-01  0.5771E+00
     18.061  0.4312E-01  0.5812E+00
     18.158  0.4947E-01  0.5860E+00
     18.255  0.4504E-01  0.5904E+00
     18.351  0.5359E-01  0.5955E+00
     18.448  0.3055E-01  0.5985E+00
     18.545  0.3049E-01  0.6014E+00
     18.641  0.3482E-01  0.6048E+00
     18.738  0.2794E-01  0.6075E+00
     18.835  0.3146E-01  0.6106E+00
     18.932  0.3463E-01  0.6139E+00
     19.028  0.2888E-01  0.6167E+00
     19.125  0.3232E-01  0.6198E+00
     19.222  0.3344E-01  0.6231E+00
     19.318  0.3420E-01  0.6264E+00
     19.415  0.3081E-01  0.6293E+00
     19.512  0.2708E-01  0.6320E+00
     19.608  0.2776E-01  0.6346E+00
     19.705  0.3040E-01  0.6376E+00
     19.802  0.2272E-01  0.6398E+00
     19.898  0.2273E-01  0.6420E+00
     19.995  0.3105E-01  0.6450E+00
     20.092  0.2554E-01  0.6475E+00
     20.189  0.3204E-01  0.6506E+00
     20.285  0.2996E-01  0.6535E+00
     20.382  0.1710E-01  0.6551E+00
     20.479  0.1561E-01  0.6566E+00
     20.575  0.1258E-01  0.6578E+00
     20.672  0.9716E-02  0.6588E+00
     20.769  0.8312E-02  0.6596E+00
     20.865  0.2465E-02  0.6598E+00
     20.962  0.1369E-02  0.6599E+00
     21.059  0.5507E-03  0.6600E+00
     21.156  0.2404E-04  0.6600E+00
     21.252  0.2241E-08  0.6600E+00
     21.349  0.1639E-15  0.6600E+00
     21.446  0.0000E+00  0.6600E+00
     21.542  0.0000E+00  0.6600E+00
     21.639  0.0000E+00  0.6600E+00
     21.736  0.0000E+00  0.6600E+00
     21.832  0.0000E+00  0.6600E+00
     21.929  0.0000E+00  0.6600E+00
     22.026  0.0000E+00  0.6600E+00
     22.123  0.0000E+00  0.6600E+00
     22.219  0.0000E+00  0.6600E+00
     22.316  0.0000E+00  0.6600E+00
