       N       E                     dE             d eps       ncg     rms          rms(c)
DAV:   1    -0.230944835133E+03   -0.23094E+03   -0.46930E+00  7128   0.104E+01    0.889E+00
DAV:   2    -0.215825528550E+03    0.15119E+02   -0.12775E+00  7776   0.618E+00    0.646E+00
DAV:   3    -0.216218466790E+03   -0.39294E+00   -0.20944E-01  8262   0.211E+00    0.501E+00
DAV:   4    -0.216256906392E+03   -0.38440E-01   -0.11698E-01  8382   0.123E+00    0.967E-01
DAV:   5    -0.216258316237E+03   -0.14098E-02   -0.81119E-03  8130   0.344E-01    0.440E-01
DAV:   6    -0.216258847250E+03   -0.53101E-03   -0.19678E-03  8340   0.164E-01    0.157E-01
DAV:   7    -0.216258870801E+03   -0.23550E-04   -0.84397E-05  8448   0.374E-02    0.107E-01
DAV:   8    -0.216258844920E+03    0.25881E-04   -0.16034E-04  8478   0.538E-02    0.457E-02
DAV:   9    -0.216258834109E+03    0.10811E-04   -0.49824E-05  7710   0.286E-02    0.801E-03
DAV:  10    -0.216258835865E+03   -0.17561E-05   -0.83206E-07  4134   0.530E-03
   1 F= -.10415541E+03 E0= -.10415541E+03  d E =-.104155E+03
       N       E                     dE             d eps       ncg     rms          rms(c)
DAV:   1    -0.213188517341E+03    0.30703E+01   -0.33628E+00  7374   0.791E+00    0.143E+00
DAV:   2    -0.213170177860E+03    0.18339E-01   -0.12169E-01  8514   0.130E+00    0.839E-01
DAV:   3    -0.213170014946E+03    0.16291E-03   -0.20366E-02  8286   0.459E-01    0.320E-01
DAV:   4    -0.213170506837E+03   -0.49189E-03   -0.86549E-04  8550   0.119E-01    0.165E-01
DAV:   5    -0.213170598672E+03   -0.91835E-04   -0.21715E-04  8202   0.564E-02    0.119E-01
DAV:   6    -0.213170715947E+03   -0.11727E-03   -0.54399E-05  8130   0.390E-02    0.274E-02
DAV:   7    -0.213170713822E+03    0.21244E-05   -0.12107E-05  4398   0.143E-02
   2 F= -.10404664E+03 E0= -.10404664E+03  d E =0.108776E+00
       N       E                     dE             d eps       ncg     rms          rms(c)
DAV:   1    -0.215374993759E+03   -0.22043E+01   -0.15975E+00  7350   0.539E+00    0.987E-01
DAV:   2    -0.215366552101E+03    0.84417E-02   -0.58782E-02  8520   0.899E-01    0.587E-01
DAV:   3    -0.215365940098E+03    0.61200E-03   -0.98508E-03  8316   0.317E-01    0.230E-01
DAV:   4    -0.215365927485E+03    0.12613E-04   -0.40004E-04  8550   0.820E-02    0.115E-01
DAV:   5    -0.215365886045E+03    0.41440E-04   -0.11493E-04  7998   0.407E-02    0.819E-02
DAV:   6    -0.215365822622E+03    0.63423E-04   -0.27032E-05  5964   0.271E-02    0.170E-02
DAV:   7    -0.215365820467E+03    0.21550E-05   -0.69031E-06  4344   0.111E-02
   3 F= -.10418120E+03 E0= -.10418120E+03  d E =-.257816E-01
       N       E                     dE             d eps       ncg     rms          rms(c)
DAV:   1    -0.215440072002E+03   -0.74249E-01   -0.16215E-01  7158   0.167E+00    0.886E-02
DAV:   2    -0.215440075197E+03   -0.31944E-05   -0.29194E-03  8688   0.214E-01    0.624E-02
DAV:   3    -0.215440019229E+03    0.55968E-04   -0.22693E-04  8802   0.678E-02    0.349E-02
DAV:   4    -0.215440026715E+03   -0.74855E-05   -0.10722E-04  8310   0.381E-02    0.146E-02
DAV:   5    -0.215440027576E+03   -0.86171E-06   -0.62531E-06  4350   0.115E-02
   4 F= -.10418323E+03 E0= -.10418323E+03  d E =-.203552E-02
       N       E                     dE             d eps       ncg     rms          rms(c)
DAV:   1    -0.215443791739E+03   -0.37650E-02   -0.42752E-04  7530   0.857E-02    0.533E-03
DAV:   2    -0.215443793996E+03   -0.22571E-05   -0.69764E-06  5238   0.112E-02
   5 F= -.10418325E+03 E0= -.10418325E+03  d E =-.205006E-02
       N       E                     dE             d eps       ncg     rms          rms(c)
DAV:   1    -0.215481783506E+03   -0.37992E-01   -0.73939E-02  7140   0.112E+00    0.604E-02
DAV:   2    -0.215481779011E+03    0.44944E-05   -0.11513E-03  8568   0.135E-01    0.385E-02
DAV:   3    -0.215481741129E+03    0.37883E-04   -0.64300E-05  8412   0.337E-02    0.208E-02
DAV:   4    -0.215481732720E+03    0.84091E-05   -0.50513E-05  7794   0.265E-02
   6 F= -.10418366E+03 E0= -.10418366E+03  d E =-.416547E-03
       N       E                     dE             d eps       ncg     rms          rms(c)
DAV:   1    -0.215475317229E+03    0.64239E-02   -0.21227E-03  7170   0.189E-01    0.104E-02
DAV:   2    -0.215475318679E+03   -0.14500E-05   -0.31345E-05  7236   0.223E-02
   7 F= -.10418368E+03 E0= -.10418368E+03  d E =-.432042E-03
       N       E                     dE             d eps       ncg     rms          rms(c)
DAV:   1    -0.215448440242E+03    0.26877E-01   -0.32016E-02  7140   0.737E-01    0.377E-02
DAV:   2    -0.215448437236E+03    0.30051E-05   -0.57161E-04  8586   0.930E-02    0.252E-02
DAV:   3    -0.215448429746E+03    0.74906E-05   -0.27928E-05  6564   0.237E-02
   8 F= -.10418388E+03 E0= -.10418388E+03  d E =-.205091E-03
       N       E                     dE             d eps       ncg     rms          rms(c)
DAV:   1    -0.215452511010E+03   -0.40738E-02   -0.78731E-04  7188   0.116E-01    0.732E-03
DAV:   2    -0.215452514738E+03   -0.37280E-05   -0.22827E-05  5652   0.176E-02
   9 F= -.10418390E+03 E0= -.10418390E+03  d E =-.219613E-03
       N       E                     dE             d eps       ncg     rms          rms(c)
DAV:   1    -0.215472297032E+03   -0.19786E-01   -0.15438E-02  7152   0.497E-01    0.269E-02
DAV:   2    -0.215472295039E+03    0.19926E-05   -0.28837E-04  8628   0.671E-02    0.184E-02
DAV:   3    -0.215472289948E+03    0.50909E-05   -0.15857E-05  5352   0.185E-02
  10 F= -.10418398E+03 E0= -.10418398E+03  d E =-.854529E-04
       N       E                     dE             d eps       ncg     rms          rms(c)
DAV:   1    -0.215469553031E+03    0.27420E-02   -0.33605E-04  7164   0.737E-02    0.448E-03
DAV:   2    -0.215469554175E+03   -0.11439E-05   -0.10581E-05  4080   0.127E-02
  11 F= -.10418399E+03 E0= -.10418399E+03  d E =-.902612E-04
       N       E                     dE             d eps       ncg     rms          rms(c)
DAV:   1    -0.215464808933E+03    0.47441E-02   -0.26192E-03  7200   0.202E-01    0.119E-02
DAV:   2    -0.215464816159E+03   -0.72263E-05   -0.60464E-05  8436   0.307E-02
  12 F= -.10418402E+03 E0= -.10418402E+03  d E =-.317987E-04
