Al4C3 Pnma-III - r2SCAN H(P) scan @ 80 G
           1
     8.483844    0.000000    0.000000
     0.000000    2.860919    0.000000
     0.000000    0.000000    9.249989
   Al   C 
    16    12
Direct configuration=     1
   0.73600680  0.25000000  0.71218306
   0.76399320  0.75000000  0.21218306
   0.26399320  0.75000000  0.28781694
   0.23600680  0.25000000  0.78781694
   0.60555780  0.25000000  0.46869209
   0.89444220  0.75000000  0.96869209
   0.39444220  0.75000000  0.53130791
   0.10555780  0.25000000  0.03130791
   0.13911469  0.25000000  0.51776413
   0.36088531  0.75000000  0.01776413
   0.86088531  0.75000000  0.48223587
   0.63911469  0.25000000  0.98223587
   0.99571165  0.25000000  0.27825402
   0.50428835  0.75000000  0.77825402
   0.00428835  0.75000000  0.72174598
   0.49571165  0.25000000  0.22174598
   0.92871444  0.25000000  0.61760876
   0.57128556  0.75000000  0.11760876
   0.07128556  0.75000000  0.38239124
   0.42871444  0.25000000  0.88239124
   0.38893002  0.25000000  0.40293886
   0.11106998  0.75000000  0.90293886
   0.61106998  0.75000000  0.59706114
   0.88893002  0.25000000  0.09706114
   0.77427280  0.25000000  0.35231086
   0.72572720  0.75000000  0.85231086
   0.22572720  0.75000000  0.64768914
   0.27427280  0.25000000  0.14768914
Al4C3 Pnma-III - r2SCAN H(P) scan @ 80 G
           1
     8.408011    0.000000    0.000000
     0.000000    2.835346    0.000000
     0.000000    0.000000    9.167307
   Al   C 
    16    12
Direct configuration=     2
   0.73609944  0.25000000  0.71235377
   0.76390056  0.75000000  0.21235377
   0.26390056  0.75000000  0.28764623
   0.23609944  0.25000000  0.78764623
   0.60576943  0.25000000  0.46946411
   0.89423057  0.75000000  0.96946411
   0.39423057  0.75000000  0.53053589
   0.10576943  0.25000000  0.03053589
   0.13880075  0.25000000  0.51802635
   0.36119925  0.75000000  0.01802635
   0.86119925  0.75000000  0.48197365
   0.63880075  0.25000000  0.98197365
   0.99533164  0.25000000  0.27915366
   0.50466836  0.75000000  0.77915366
   0.00466836  0.75000000  0.72084634
   0.49533164  0.25000000  0.22084634
   0.92881328  0.25000000  0.61844728
   0.57118672  0.75000000  0.11844728
   0.07118672  0.75000000  0.38155272
   0.42881328  0.25000000  0.88155272
   0.38985677  0.25000000  0.40359627
   0.11014323  0.75000000  0.90359627
   0.61014323  0.75000000  0.59640373
   0.88985677  0.25000000  0.09640373
   0.77379588  0.25000000  0.35252736
   0.72620412  0.75000000  0.85252736
   0.22620412  0.75000000  0.64747264
   0.27379588  0.25000000  0.14747264
Al4C3 Pnma-III - r2SCAN H(P) scan @ 80 G
           1
     8.460603    0.000000    0.000000
     0.000000    2.853082    0.000000
     0.000000    0.000000    9.224649
   Al   C 
    16    12
Direct configuration=     3
   0.73603461  0.25000000  0.71223431
   0.76396539  0.75000000  0.21223431
   0.26396539  0.75000000  0.28776569
   0.23603461  0.25000000  0.78776569
   0.60562134  0.25000000  0.46892387
   0.89437866  0.75000000  0.96892387
   0.39437866  0.75000000  0.53107613
   0.10562134  0.25000000  0.03107613
   0.13902044  0.25000000  0.51784286
   0.36097956  0.75000000  0.01784286
   0.86097956  0.75000000  0.48215714
   0.63902044  0.25000000  0.98215714
   0.99559756  0.25000000  0.27852411
   0.50440244  0.75000000  0.77852411
   0.00440244  0.75000000  0.72147589
   0.49559756  0.25000000  0.22147589
   0.92874411  0.25000000  0.61786051
   0.57125589  0.75000000  0.11786051
   0.07125589  0.75000000  0.38213949
   0.42874411  0.25000000  0.88213949
   0.38920826  0.25000000  0.40313623
   0.11079174  0.75000000  0.90313623
   0.61079174  0.75000000  0.59686377
   0.88920826  0.25000000  0.09686377
   0.77412962  0.25000000  0.35237586
   0.72587038  0.75000000  0.85237586
   0.22587038  0.75000000  0.64762414
   0.27412962  0.25000000  0.14762414
Al4C3 Pnma-III - r2SCAN H(P) scan @ 80 G
           1
     8.462433    0.000000    0.000000
     0.000000    2.853699    0.000000
     0.000000    0.000000    9.226644
   Al   C 
    16    12
Direct configuration=     4
   0.73591911  0.25000000  0.71235317
   0.76408089  0.75000000  0.21235317
   0.26408089  0.75000000  0.28764683
   0.23591911  0.25000000  0.78764683
   0.60566408  0.25000000  0.46925010
   0.89433592  0.75000000  0.96925010
   0.39433592  0.75000000  0.53074990
   0.10566408  0.25000000  0.03074990
   0.13901272  0.25000000  0.51792932
   0.36098728  0.75000000  0.01792932
   0.86098728  0.75000000  0.48207068
   0.63901272  0.25000000  0.98207068
   0.99522312  0.25000000  0.27861013
   0.50477688  0.75000000  0.77861013
   0.00477688  0.75000000  0.72138987
   0.49522312  0.25000000  0.22138987
   0.92877843  0.25000000  0.61806412
   0.57122157  0.75000000  0.11806412
   0.07122157  0.75000000  0.38193588
   0.42877843  0.25000000  0.88193588
   0.38957462  0.25000000  0.40308577
   0.11042538  0.75000000  0.90308577
   0.61042538  0.75000000  0.59691423
   0.88957462  0.25000000  0.09691423
   0.77393795  0.25000000  0.35241870
   0.72606205  0.75000000  0.85241870
   0.22606205  0.75000000  0.64758130
   0.27393795  0.25000000  0.14758130
Al4C3 Pnma-III - r2SCAN H(P) scan @ 80 G
           1
     8.462528    0.000000    0.000000
     0.000000    2.853731    0.000000
     0.000000    0.000000    9.226748
   Al   C 
    16    12
Direct configuration=     5
   0.73591311  0.25000000  0.71235934
   0.76408689  0.75000000  0.21235934
   0.26408689  0.75000000  0.28764066
   0.23591311  0.25000000  0.78764066
   0.60566630  0.25000000  0.46926706
   0.89433370  0.75000000  0.96926706
   0.39433370  0.75000000  0.53073294
   0.10566630  0.25000000  0.03073294
   0.13901232  0.25000000  0.51793381
   0.36098768  0.75000000  0.01793381
   0.86098768  0.75000000  0.48206619
   0.63901232  0.25000000  0.98206619
   0.99520366  0.25000000  0.27861460
   0.50479634  0.75000000  0.77861460
   0.00479634  0.75000000  0.72138540
   0.49520366  0.25000000  0.22138540
   0.92878021  0.25000000  0.61807470
   0.57121979  0.75000000  0.11807470
   0.07121979  0.75000000  0.38192530
   0.42878021  0.25000000  0.88192530
   0.38959366  0.25000000  0.40308314
   0.11040634  0.75000000  0.90308314
   0.61040634  0.75000000  0.59691686
   0.88959366  0.25000000  0.09691686
   0.77392799  0.25000000  0.35242092
   0.72607201  0.75000000  0.85242092
   0.22607201  0.75000000  0.64757908
   0.27392799  0.25000000  0.14757908
Al4C3 Pnma-III - r2SCAN H(P) scan @ 80 G
           1
     8.463479    0.000000    0.000000
     0.000000    2.854052    0.000000
     0.000000    0.000000    9.227785
   Al   C 
    16    12
Direct configuration=     6
   0.73607689  0.25000000  0.71241396
   0.76392311  0.75000000  0.21241396
   0.26392311  0.75000000  0.28758604
   0.23607689  0.25000000  0.78758604
   0.60575446  0.25000000  0.46935413
   0.89424554  0.75000000  0.96935413
   0.39424554  0.75000000  0.53064587
   0.10575446  0.25000000  0.03064587
   0.13892077  0.25000000  0.51783591
   0.36107923  0.75000000  0.01783591
   0.86107923  0.75000000  0.48216409
   0.63892077  0.25000000  0.98216409
   0.99512351  0.25000000  0.27868043
   0.50487649  0.75000000  0.77868043
   0.00487649  0.75000000  0.72131957
   0.49512351  0.25000000  0.22131957
   0.92870504  0.25000000  0.61810961
   0.57129496  0.75000000  0.11810961
   0.07129496  0.75000000  0.38189039
   0.42870504  0.25000000  0.88189039
   0.38969637  0.25000000  0.40286354
   0.11030363  0.75000000  0.90286354
   0.61030363  0.75000000  0.59713646
   0.88969637  0.25000000  0.09713646
   0.77381477  0.25000000  0.35253661
   0.72618523  0.75000000  0.85253661
   0.22618523  0.75000000  0.64746339
   0.27381477  0.25000000  0.14746339
Al4C3 Pnma-III - r2SCAN H(P) scan @ 80 G
           1
     8.463316    0.000000    0.000000
     0.000000    2.853997    0.000000
     0.000000    0.000000    9.227607
   Al   C 
    16    12
Direct configuration=     7
   0.73604883  0.25000000  0.71240460
   0.76395117  0.75000000  0.21240460
   0.26395117  0.75000000  0.28759540
   0.23604883  0.25000000  0.78759540
   0.60573936  0.25000000  0.46933921
   0.89426064  0.75000000  0.96933921
   0.39426064  0.75000000  0.53066079
   0.10573936  0.25000000  0.03066079
   0.13893645  0.25000000  0.51785268
   0.36106355  0.75000000  0.01785268
   0.86106355  0.75000000  0.48214732
   0.63893645  0.25000000  0.98214732
   0.99513724  0.25000000  0.27866915
   0.50486276  0.75000000  0.77866915
   0.00486276  0.75000000  0.72133085
   0.49513724  0.25000000  0.22133085
   0.92871792  0.25000000  0.61810363
   0.57128208  0.75000000  0.11810363
   0.07128208  0.75000000  0.38189637
   0.42871792  0.25000000  0.88189637
   0.38967877  0.25000000  0.40290117
   0.11032123  0.75000000  0.90290117
   0.61032123  0.75000000  0.59709883
   0.88967877  0.25000000  0.09709883
   0.77383417  0.25000000  0.35251679
   0.72616583  0.75000000  0.85251679
   0.22616583  0.75000000  0.64748321
   0.27383417  0.25000000  0.14748321
Al4C3 Pnma-III - r2SCAN H(P) scan @ 80 G
           1
     8.462630    0.000000    0.000000
     0.000000    2.853765    0.000000
     0.000000    0.000000    9.226858
   Al   C 
    16    12
Direct configuration=     8
   0.73614330  0.25000000  0.71254526
   0.76385670  0.75000000  0.21254526
   0.26385670  0.75000000  0.28745474
   0.23614330  0.25000000  0.78745474
   0.60567706  0.25000000  0.46949348
   0.89432294  0.75000000  0.96949348
   0.39432294  0.75000000  0.53050652
   0.10567706  0.25000000  0.03050652
   0.13889087  0.25000000  0.51778087
   0.36110913  0.75000000  0.01778087
   0.86110913  0.75000000  0.48221913
   0.63889087  0.25000000  0.98221913
   0.99508320  0.25000000  0.27872019
   0.50491680  0.75000000  0.77872019
   0.00491680  0.75000000  0.72127981
   0.49508320  0.25000000  0.22127981
   0.92874755  0.25000000  0.61804317
   0.57125245  0.75000000  0.11804317
   0.07125245  0.75000000  0.38195683
   0.42874755  0.25000000  0.88195683
   0.38970971  0.25000000  0.40274999
   0.11029029  0.75000000  0.90274999
   0.61029029  0.75000000  0.59725001
   0.88970971  0.25000000  0.09725001
   0.77388025  0.25000000  0.35259800
   0.72611975  0.75000000  0.85259800
   0.22611975  0.75000000  0.64740200
   0.27388025  0.25000000  0.14740200
Al4C3 Pnma-III - r2SCAN H(P) scan @ 80 G
           1
     8.462733    0.000000    0.000000
     0.000000    2.853800    0.000000
     0.000000    0.000000    9.226971
   Al   C 
    16    12
Direct configuration=     9
   0.73612911  0.25000000  0.71252413
   0.76387089  0.75000000  0.21252413
   0.26387089  0.75000000  0.28747587
   0.23612911  0.25000000  0.78747587
   0.60568642  0.25000000  0.46947030
   0.89431358  0.75000000  0.96947030
   0.39431358  0.75000000  0.53052970
   0.10568642  0.25000000  0.03052970
   0.13889772  0.25000000  0.51779166
   0.36110228  0.75000000  0.01779166
   0.86110228  0.75000000  0.48220834
   0.63889772  0.25000000  0.98220834
   0.99509132  0.25000000  0.27871252
   0.50490868  0.75000000  0.77871252
   0.00490868  0.75000000  0.72128748
   0.49509132  0.25000000  0.22128748
   0.92874310  0.25000000  0.61805226
   0.57125690  0.75000000  0.11805226
   0.07125690  0.75000000  0.38194774
   0.42874310  0.25000000  0.88194774
   0.38970506  0.25000000  0.40277271
   0.11029494  0.75000000  0.90277271
   0.61029494  0.75000000  0.59722729
   0.88970506  0.25000000  0.09722729
   0.77387332  0.25000000  0.35258580
   0.72612668  0.75000000  0.85258580
   0.22612668  0.75000000  0.64741420
   0.27387332  0.25000000  0.14741420
Al4C3 Pnma-III - r2SCAN H(P) scan @ 80 G
           1
     8.463232    0.000000    0.000000
     0.000000    2.853968    0.000000
     0.000000    0.000000    9.227515
   Al   C 
    16    12
Direct configuration=    10
   0.73618093  0.25000000  0.71266423
   0.76381907  0.75000000  0.21266423
   0.26381907  0.75000000  0.28733577
   0.23618093  0.25000000  0.78733577
   0.60571499  0.25000000  0.46954277
   0.89428501  0.75000000  0.96954277
   0.39428501  0.75000000  0.53045723
   0.10571499  0.25000000  0.03045723
   0.13894042  0.25000000  0.51776926
   0.36105958  0.75000000  0.01776926
   0.86105958  0.75000000  0.48223074
   0.63894042  0.25000000  0.98223074
   0.99508666  0.25000000  0.27874340
   0.50491334  0.75000000  0.77874340
   0.00491334  0.75000000  0.72125660
   0.49508666  0.25000000  0.22125660
   0.92877129  0.25000000  0.61803146
   0.57122871  0.75000000  0.11803146
   0.07122871  0.75000000  0.38196854
   0.42877129  0.25000000  0.88196854
   0.38969101  0.25000000  0.40274609
   0.11030899  0.75000000  0.90274609
   0.61030899  0.75000000  0.59725391
   0.88969101  0.25000000  0.09725391
   0.77385927  0.25000000  0.35270722
   0.72614073  0.75000000  0.85270722
   0.22614073  0.75000000  0.64729278
   0.27385927  0.25000000  0.14729278
Al4C3 Pnma-III - r2SCAN H(P) scan @ 80 G
           1
     8.463162    0.000000    0.000000
     0.000000    2.853945    0.000000
     0.000000    0.000000    9.227439
   Al   C 
    16    12
Direct configuration=    11
   0.73617372  0.25000000  0.71264473
   0.76382628  0.75000000  0.21264473
   0.26382628  0.75000000  0.28735527
   0.23617372  0.25000000  0.78735527
   0.60571101  0.25000000  0.46953269
   0.89428899  0.75000000  0.96953269
   0.39428899  0.75000000  0.53046731
   0.10571101  0.25000000  0.03046731
   0.13893448  0.25000000  0.51777238
   0.36106552  0.75000000  0.01777238
   0.86106552  0.75000000  0.48222762
   0.63893448  0.25000000  0.98222762
   0.99508731  0.25000000  0.27873910
   0.50491269  0.75000000  0.77873910
   0.00491269  0.75000000  0.72126090
   0.49508731  0.25000000  0.22126090
   0.92876736  0.25000000  0.61803435
   0.57123264  0.75000000  0.11803435
   0.07123264  0.75000000  0.38196565
   0.42876736  0.25000000  0.88196565
   0.38969297  0.25000000  0.40274979
   0.11030703  0.75000000  0.90274979
   0.61030703  0.75000000  0.59725021
   0.88969297  0.25000000  0.09725021
   0.77386122  0.25000000  0.35269033
   0.72613878  0.75000000  0.85269033
   0.22613878  0.75000000  0.64730967
   0.27386122  0.25000000  0.14730967
Al4C3 Pnma-III - r2SCAN H(P) scan @ 80 G
           1
     8.463042    0.000000    0.000000
     0.000000    2.853904    0.000000
     0.000000    0.000000    9.227308
   Al   C 
    16    12
Direct configuration=    12
   0.73619390  0.25000000  0.71268345
   0.76380610  0.75000000  0.21268345
   0.26380610  0.75000000  0.28731655
   0.23619390  0.25000000  0.78731655
   0.60569949  0.25000000  0.46955200
   0.89430051  0.75000000  0.96955200
   0.39430051  0.75000000  0.53044800
   0.10569949  0.25000000  0.03044800
   0.13897963  0.25000000  0.51774859
   0.36102037  0.75000000  0.01774859
   0.86102037  0.75000000  0.48225141
   0.63897963  0.25000000  0.98225141
   0.99508294  0.25000000  0.27872193
   0.50491706  0.75000000  0.77872193
   0.00491706  0.75000000  0.72127807
   0.49508294  0.25000000  0.22127807
   0.92874914  0.25000000  0.61807638
   0.57125086  0.75000000  0.11807638
   0.07125086  0.75000000  0.38192362
   0.42874914  0.25000000  0.88192362
   0.38967823  0.25000000  0.40274264
   0.11032177  0.75000000  0.90274264
   0.61032177  0.75000000  0.59725736
   0.88967823  0.25000000  0.09725736
   0.77385871  0.25000000  0.35270670
   0.72614129  0.75000000  0.85270670
   0.22614129  0.75000000  0.64729330
   0.27385871  0.25000000  0.14729330
