Al4C3 R-3m polymorph (findsym-output, fr
   1.00000000000000     
     3.0479483815482289    0.0000000000000000    0.0000000000000000
    -1.5239741907741144    2.6396007278783271    0.0000000000000000
     0.0000000000000000    0.0000000000000000   22.7864742473711708
   Al   C 
    12     9
Direct
 -0.0000000000000000  0.0000000000000000  0.6292927614299572
 -0.0000000000000000 -0.0000000000000000  0.3707072385700429
  0.6666666870000029  0.3333333429999996  0.9626260744299543
  0.6666666870000029  0.3333333429999996  0.7040405525700436
  0.3333333429999996  0.6666666870000029  0.2959594174299539
  0.3333333429999996  0.6666666870000029  0.0373739065700477
 -0.0000000000000000 -0.0000000000000000  0.2059591300372363
 -0.0000000000000000  0.0000000000000000  0.7940408699627636
  0.6666666870000029  0.3333333429999996  0.5392924440372372
  0.6666666870000029  0.3333333429999996  0.1273741979627656
  0.3333333429999996  0.6666666870000029  0.8726258170372393
  0.3333333429999996  0.6666666870000029  0.4607075259627605
  0.0000000000000000 -0.0000000000000000  0.7166562845172203
 -0.0000000000000000  0.0000000000000000  0.2833437154827796
  0.6666666870000029  0.3333333429999996  0.0499896165172226
  0.6666666870000029  0.3333333429999996  0.6166770284827768
  0.3333333429999996  0.6666666870000029  0.3833229415172208
  0.3333333429999996  0.6666666870000029  0.9500104024827755
  0.0000000000000000 -0.0000000000000000  0.5000000000000000
  0.6666666870000029  0.3333333429999996  0.8333333129999971
  0.3333333429999996  0.6666666870000029  0.1666666719999981
 
  0.00000000E+00  0.00000000E+00  0.00000000E+00
  0.00000000E+00  0.00000000E+00  0.00000000E+00
  0.00000000E+00  0.00000000E+00  0.00000000E+00
  0.00000000E+00  0.00000000E+00  0.00000000E+00
  0.00000000E+00  0.00000000E+00  0.00000000E+00
  0.00000000E+00  0.00000000E+00  0.00000000E+00
  0.00000000E+00  0.00000000E+00  0.00000000E+00
  0.00000000E+00  0.00000000E+00  0.00000000E+00
  0.00000000E+00  0.00000000E+00  0.00000000E+00
  0.00000000E+00  0.00000000E+00  0.00000000E+00
  0.00000000E+00  0.00000000E+00  0.00000000E+00
  0.00000000E+00  0.00000000E+00  0.00000000E+00
  0.00000000E+00  0.00000000E+00  0.00000000E+00
  0.00000000E+00  0.00000000E+00  0.00000000E+00
  0.00000000E+00  0.00000000E+00  0.00000000E+00
  0.00000000E+00  0.00000000E+00  0.00000000E+00
  0.00000000E+00  0.00000000E+00  0.00000000E+00
  0.00000000E+00  0.00000000E+00  0.00000000E+00
  0.00000000E+00  0.00000000E+00  0.00000000E+00
  0.00000000E+00  0.00000000E+00  0.00000000E+00
  0.00000000E+00  0.00000000E+00  0.00000000E+00
