       N       E                     dE             d eps       ncg     rms          rms(c)
DAV:   1    -0.119929142458E+03   -0.11993E+03   -0.58415E-05  3576   0.782E-02    0.125E-02
DAV:   2    -0.119929148680E+03   -0.62219E-05   -0.16114E-06  1956   0.844E-03
   1 F= -.26145656E+02 E0= -.26145656E+02  d E =-.261457E+02
       N       E                     dE             d eps       ncg     rms          rms(c)
DAV:   1    -0.112279842994E+03    0.76493E+01   -0.13463E+01  4248   0.185E+01    0.399E+00
DAV:   2    -0.111919043972E+03    0.36080E+00   -0.92039E-01  4308   0.370E+00    0.180E+00
DAV:   3    -0.111885514911E+03    0.33529E-01   -0.18346E-01  4320   0.150E+00    0.500E-01
DAV:   4    -0.111881595622E+03    0.39193E-02   -0.12706E-02  4392   0.438E-01    0.177E-01
DAV:   5    -0.111881014330E+03    0.58129E-03   -0.11445E-03  4380   0.135E-01    0.121E-01
DAV:   6    -0.111880905614E+03    0.10872E-03   -0.27865E-04  4440   0.611E-02    0.256E-02
DAV:   7    -0.111880895413E+03    0.10201E-04   -0.28289E-05  3708   0.296E-02    0.926E-03
DAV:   8    -0.111880897240E+03   -0.18263E-05   -0.21551E-05  2592   0.187E-02
   2 F= -.25459081E+02 E0= -.25459081E+02  d E =0.686575E+00
       N       E                     dE             d eps       ncg     rms          rms(c)
DAV:   1    -0.118077643870E+03   -0.61967E+01   -0.64889E+00  4260   0.124E+01    0.281E+00
DAV:   2    -0.117894637920E+03    0.18301E+00   -0.46200E-01  4236   0.259E+00    0.125E+00
DAV:   3    -0.117878351679E+03    0.16286E-01   -0.92506E-02  4356   0.104E+00    0.358E-01
DAV:   4    -0.117876089194E+03    0.22625E-02   -0.76546E-03  4284   0.324E-01    0.125E-01
DAV:   5    -0.117875686882E+03    0.40231E-03   -0.87092E-04  4380   0.112E-01    0.814E-02
DAV:   6    -0.117875581119E+03    0.10576E-03   -0.14705E-04  4416   0.440E-02    0.147E-02
DAV:   7    -0.117875572348E+03    0.87712E-05   -0.11776E-05  2952   0.194E-02
   3 F= -.26287955E+02 E0= -.26287955E+02  d E =-.142300E+00
       N       E                     dE             d eps       ncg     rms          rms(c)
DAV:   1    -0.117832180143E+03    0.43401E-01   -0.43474E-04  4368   0.102E-01    0.226E-02
DAV:   2    -0.117832171194E+03    0.89493E-05   -0.29391E-05  3372   0.210E-02
   4 F= -.26288016E+02 E0= -.26288016E+02  d E =-.142360E+00
       N       E                     dE             d eps       ncg     rms          rms(c)
DAV:   1    -0.117826692543E+03    0.54876E-02   -0.45157E-06  1944   0.101E-02    0.639E-03
DAV:   2    -0.117826693263E+03   -0.72012E-06   -0.83293E-07  1932   0.357E-03
   5 F= -.26288017E+02 E0= -.26288017E+02  d E =-.142362E+00
       N       E                     dE             d eps       ncg     rms          rms(c)
DAV:   1    -0.117829161674E+03   -0.24691E-02   -0.17319E-06  1932   0.646E-03    0.115E-03
DAV:   2    -0.117829161671E+03    0.33051E-08   -0.13933E-07  1920   0.165E-03
   6 F= -.26288019E+02 E0= -.26288019E+02  d E =-.142363E+00
       N       E                     dE             d eps       ncg     rms          rms(c)
DAV:   1    -0.117831088501E+03   -0.19268E-02   -0.56736E-07  1932   0.408E-03    0.109E-03
DAV:   2    -0.117831088398E+03    0.10360E-06   -0.39931E-08  1908   0.104E-03
   7 F= -.26288019E+02 E0= -.26288019E+02  d E =-.142363E+00
       N       E                     dE             d eps       ncg     rms          rms(c)
DAV:   1    -0.117820663439E+03    0.10425E-01   -0.36964E-02  3804   0.912E-01    0.556E-02
DAV:   2    -0.117820567844E+03    0.95594E-04   -0.11006E-03  4776   0.157E-01    0.406E-02
DAV:   3    -0.117820539115E+03    0.28729E-04   -0.13293E-04  4440   0.510E-02    0.201E-02
DAV:   4    -0.117820533738E+03    0.53770E-05   -0.32009E-05  3504   0.221E-02
   8 F= -.26287545E+02 E0= -.26287545E+02  d E =0.473100E-03
       N       E                     dE             d eps       ncg     rms          rms(c)
DAV:   1    -0.117827690437E+03   -0.71513E-02   -0.14916E-02  3768   0.577E-01    0.354E-02
DAV:   2    -0.117827647947E+03    0.42490E-04   -0.42745E-04  4716   0.984E-02    0.254E-02
DAV:   3    -0.117827636458E+03    0.11490E-04   -0.54795E-05  4452   0.327E-02    0.122E-02
DAV:   4    -0.117827634920E+03    0.15380E-05   -0.12455E-05  3108   0.134E-02
   9 F= -.26288250E+02 E0= -.26288250E+02  d E =-.231066E-03
       N       E                     dE             d eps       ncg     rms          rms(c)
DAV:   1    -0.117826541985E+03    0.10945E-02   -0.33567E-03  3660   0.237E-01    0.187E-02
DAV:   2    -0.117826529225E+03    0.12760E-04   -0.14619E-04  4104   0.551E-02    0.999E-03
DAV:   3    -0.117826526433E+03    0.27916E-05   -0.15311E-05  2628   0.180E-02
  10 F= -.26288323E+02 E0= -.26288323E+02  d E =-.735693E-04
