Al4C3 R-3m polymorph (findsym-output, fr
   1.00000000000000     
     3.0726678385346675    0.0000000000000000    0.0000000000000000
    -1.5363339192673338    2.6610084055966143    0.0000000000000000
     0.0000000000000000    0.0000000000000000   22.9712770063156491
   Al   C 
    12     9
Direct
  0.0000000000000000  0.0000000000000000  0.6293611130279543
 -0.0000000000000000 -0.0000000000000000  0.3706388869720459
  0.6666666870000029  0.3333333429999996  0.9626944260279514
  0.6666666870000029  0.3333333429999996  0.7039722009720465
  0.3333333429999996  0.6666666870000029  0.2960277690279508
  0.3333333429999996  0.6666666870000029  0.0373055549720507
  0.0000000000000000  0.0000000000000000  0.2059943893560274
 -0.0000000000000000 -0.0000000000000000  0.7940056106439727
  0.6666666870000029  0.3333333429999996  0.5393277033560281
  0.6666666870000029  0.3333333429999996  0.1273389386439745
  0.3333333429999996  0.6666666870000029  0.8726610763560302
  0.3333333429999996  0.6666666870000029  0.4606722666439693
 -0.0000000000000000  0.0000000000000000  0.7166675295137270
  0.0000000000000000 -0.0000000000000000  0.2833324704862730
  0.6666666870000029  0.3333333429999996  0.0500008615137292
  0.6666666870000029  0.3333333429999996  0.6166657834862701
  0.3333333429999996  0.6666666870000029  0.3833341865137274
  0.3333333429999996  0.6666666870000029  0.9499991574862687
 -0.0000000000000000 -0.0000000000000000  0.5000000000000000
  0.6666666870000029  0.3333333429999996  0.8333333129999971
  0.3333333429999996  0.6666666870000029  0.1666666719999981
 
  0.00000000E+00  0.00000000E+00  0.00000000E+00
  0.00000000E+00  0.00000000E+00  0.00000000E+00
  0.00000000E+00  0.00000000E+00  0.00000000E+00
  0.00000000E+00  0.00000000E+00  0.00000000E+00
  0.00000000E+00  0.00000000E+00  0.00000000E+00
  0.00000000E+00  0.00000000E+00  0.00000000E+00
  0.00000000E+00  0.00000000E+00  0.00000000E+00
  0.00000000E+00  0.00000000E+00  0.00000000E+00
  0.00000000E+00  0.00000000E+00  0.00000000E+00
  0.00000000E+00  0.00000000E+00  0.00000000E+00
  0.00000000E+00  0.00000000E+00  0.00000000E+00
  0.00000000E+00  0.00000000E+00  0.00000000E+00
  0.00000000E+00  0.00000000E+00  0.00000000E+00
  0.00000000E+00  0.00000000E+00  0.00000000E+00
  0.00000000E+00  0.00000000E+00  0.00000000E+00
  0.00000000E+00  0.00000000E+00  0.00000000E+00
  0.00000000E+00  0.00000000E+00  0.00000000E+00
  0.00000000E+00  0.00000000E+00  0.00000000E+00
  0.00000000E+00  0.00000000E+00  0.00000000E+00
  0.00000000E+00  0.00000000E+00  0.00000000E+00
  0.00000000E+00  0.00000000E+00  0.00000000E+00
