Al4C3 Pnma (POSCAR.III, symmetrized via 
   1.00000000000000     
     8.7040056536013886    0.0000000000000000    0.0000000000000000
     0.0000000000000000    2.9351618002519988    0.0000000000000000
     0.0000000000000000    0.0000000000000000    9.4900322623298781
   Al   C 
    16    12
Direct
     0.7376759601231182    0.2500000000000000    0.7136263679226620
     0.7623240398768818    0.7500000000000000    0.2136263679226619
     0.2623240398768819    0.7500000000000000    0.2863736320773381
     0.2376759601231181    0.2500000000000000    0.7863736320773380
     0.6061285043338137    0.2500000000000000    0.4702322590345059
     0.8938714956661863    0.7500000000000000    0.9702322590345062
     0.3938714956661863    0.7500000000000000    0.5297677409654938
     0.1061285043338136    0.2500000000000000    0.0297677409654940
     0.1377170987207464    0.2500000000000000    0.5173025634377161
     0.3622829012792536    0.7500000000000000    0.0173025634377162
     0.8622829012792536    0.7500000000000000    0.4826974365622838
     0.6377170987207464    0.2500000000000000    0.9826974365622839
     0.9921832544545381    0.2500000000000000    0.2796920475991961
     0.5078167455454619    0.7500000000000000    0.7796920475991963
     0.0078167455454621    0.7500000000000000    0.7203079524008037
     0.4921832544545379    0.2500000000000000    0.2203079524008039
     0.9291618482102507    0.2500000000000000    0.6188234829951738
     0.5708381517897493    0.7500000000000000    0.1188234829951738
     0.0708381517897494    0.7500000000000000    0.3811765170048263
     0.4291618482102506    0.2500000000000000    0.8811765170048262
     0.3905926560034059    0.2500000000000000    0.4022398611289383
     0.1094073439965942    0.7500000000000000    0.9022398611289379
     0.6094073439965941    0.7500000000000000    0.5977601388710621
     0.8905926560034059    0.2500000000000000    0.0977601388710618
     0.7744053417658024    0.2500000000000000    0.3539758416228638
     0.7255946582341976    0.7500000000000000    0.8539758416228637
     0.2255946582341973    0.7500000000000000    0.6460241583771363
     0.2744053417658028    0.2500000000000000    0.1460241583771363
 
  0.00000000E+00  0.00000000E+00  0.00000000E+00
  0.00000000E+00  0.00000000E+00  0.00000000E+00
  0.00000000E+00  0.00000000E+00  0.00000000E+00
  0.00000000E+00  0.00000000E+00  0.00000000E+00
  0.00000000E+00  0.00000000E+00  0.00000000E+00
  0.00000000E+00  0.00000000E+00  0.00000000E+00
  0.00000000E+00  0.00000000E+00  0.00000000E+00
  0.00000000E+00  0.00000000E+00  0.00000000E+00
  0.00000000E+00  0.00000000E+00  0.00000000E+00
  0.00000000E+00  0.00000000E+00  0.00000000E+00
  0.00000000E+00  0.00000000E+00  0.00000000E+00
  0.00000000E+00  0.00000000E+00  0.00000000E+00
  0.00000000E+00  0.00000000E+00  0.00000000E+00
  0.00000000E+00  0.00000000E+00  0.00000000E+00
  0.00000000E+00  0.00000000E+00  0.00000000E+00
  0.00000000E+00  0.00000000E+00  0.00000000E+00
  0.00000000E+00  0.00000000E+00  0.00000000E+00
  0.00000000E+00  0.00000000E+00  0.00000000E+00
  0.00000000E+00  0.00000000E+00  0.00000000E+00
  0.00000000E+00  0.00000000E+00  0.00000000E+00
  0.00000000E+00  0.00000000E+00  0.00000000E+00
  0.00000000E+00  0.00000000E+00  0.00000000E+00
  0.00000000E+00  0.00000000E+00  0.00000000E+00
  0.00000000E+00  0.00000000E+00  0.00000000E+00
  0.00000000E+00  0.00000000E+00  0.00000000E+00
  0.00000000E+00  0.00000000E+00  0.00000000E+00
  0.00000000E+00  0.00000000E+00  0.00000000E+00
  0.00000000E+00  0.00000000E+00  0.00000000E+00
