  28  28   0   0
  0.1036676E+02  0.9242296E-09  0.3116684E-09  0.1007693E-08  0.5000000E-15
  1.000000000000000E-004
  CAR 
 Al4C3 Pnma (POSCAR.III) - relax @ 50 GPa
     19.50927465     -6.03787103  301     11.25435320      1.00000000
     -6.038  0.0000E+00  0.0000E+00
     -5.953  0.0000E+00  0.0000E+00
     -5.868  0.0000E+00  0.0000E+00
     -5.782  0.0000E+00  0.0000E+00
     -5.697  0.0000E+00  0.0000E+00
     -5.612  0.0000E+00  0.0000E+00
     -5.527  0.0000E+00  0.0000E+00
     -5.442  0.0000E+00  0.0000E+00
     -5.357  0.0000E+00  0.0000E+00
     -5.271  0.0000E+00  0.0000E+00
     -5.186  0.0000E+00  0.0000E+00
     -5.101  0.4658E-14  0.3967E-15
     -5.016  0.3247E-08  0.2765E-09
     -4.931  0.1277E-04  0.1088E-05
     -4.846  0.6856E-03  0.5947E-04
     -4.761  0.2772E-02  0.2955E-03
     -4.675  0.4287E-02  0.6605E-03
     -4.590  0.5373E-02  0.1118E-02
     -4.505  0.6286E-02  0.1653E-02
     -4.420  0.7103E-02  0.2258E-02
     -4.335  0.7864E-02  0.2928E-02
     -4.250  0.8615E-02  0.3662E-02
     -4.164  0.9433E-02  0.4465E-02
     -4.079  0.9677E-02  0.5289E-02
     -3.994  0.1001E-01  0.6142E-02
     -3.909  0.1078E-01  0.7060E-02
     -3.824  0.1143E-01  0.8034E-02
     -3.739  0.1206E-01  0.9061E-02
     -3.653  0.1274E-01  0.1015E-01
     -3.568  0.1328E-01  0.1128E-01
     -3.483  0.1373E-01  0.1245E-01
     -3.398  0.1401E-01  0.1364E-01
     -3.313  0.1461E-01  0.1488E-01
     -3.228  0.1543E-01  0.1620E-01
     -3.143  0.1682E-01  0.1763E-01
     -3.057  0.1662E-01  0.1905E-01
     -2.972  0.1604E-01  0.2041E-01
     -2.887  0.1626E-01  0.2180E-01
     -2.802  0.1598E-01  0.2316E-01
     -2.717  0.1593E-01  0.2451E-01
     -2.632  0.1698E-01  0.2596E-01
     -2.546  0.1899E-01  0.2758E-01
     -2.461  0.1971E-01  0.2925E-01
     -2.376  0.1961E-01  0.3092E-01
     -2.291  0.1963E-01  0.3260E-01
     -2.206  0.1966E-01  0.3427E-01
     -2.121  0.2000E-01  0.3597E-01
     -2.035  0.2077E-01  0.3774E-01
     -1.950  0.2264E-01  0.3967E-01
     -1.865  0.2318E-01  0.4164E-01
     -1.780  0.2352E-01  0.4365E-01
     -1.695  0.2453E-01  0.4574E-01
     -1.610  0.2674E-01  0.4801E-01
     -1.525  0.2783E-01  0.5038E-01
     -1.439  0.2779E-01  0.5275E-01
     -1.354  0.2726E-01  0.5507E-01
     -1.269  0.2642E-01  0.5732E-01
     -1.184  0.2550E-01  0.5949E-01
     -1.099  0.2590E-01  0.6170E-01
     -1.014  0.2925E-01  0.6419E-01
     -0.928  0.3252E-01  0.6696E-01
     -0.843  0.3133E-01  0.6963E-01
     -0.758  0.3309E-01  0.7244E-01
     -0.673  0.3613E-01  0.7552E-01
     -0.588  0.3795E-01  0.7875E-01
     -0.503  0.4077E-01  0.8222E-01
     -0.417  0.4536E-01  0.8609E-01
     -0.332  0.4800E-01  0.9017E-01
     -0.247  0.4267E-01  0.9381E-01
     -0.162  0.3792E-01  0.9704E-01
     -0.077  0.3286E-01  0.9983E-01
      0.008  0.3103E-01  0.1025E+00
      0.093  0.2544E-01  0.1046E+00
      0.179  0.2426E-01  0.1067E+00
      0.264  0.2125E-01  0.1085E+00
      0.349  0.2191E-01  0.1104E+00
      0.434  0.2347E-01  0.1124E+00
      0.519  0.2004E-01  0.1141E+00
      0.604  0.1701E-01  0.1155E+00
      0.690  0.1739E-01  0.1170E+00
      0.775  0.1740E-01  0.1185E+00
      0.860  0.1159E-01  0.1195E+00
      0.945  0.5446E-02  0.1200E+00
      1.030  0.5843E-03  0.1200E+00
      1.115  0.1968E-05  0.1200E+00
      1.200  0.5125E-10  0.1200E+00
      1.286  0.6025E-17  0.1200E+00
      1.371  0.0000E+00  0.1200E+00
      1.456  0.0000E+00  0.1200E+00
      1.541  0.0000E+00  0.1200E+00
      1.626  0.0000E+00  0.1200E+00
      1.711  0.0000E+00  0.1200E+00
      1.797  0.0000E+00  0.1200E+00
      1.882  0.0000E+00  0.1200E+00
      1.967  0.6746E-17  0.1200E+00
      2.052  0.4233E-10  0.1200E+00
      2.137  0.1215E-05  0.1200E+00
      2.222  0.2892E-03  0.1200E+00
      2.308  0.2367E-02  0.1202E+00
      2.393  0.4226E-02  0.1206E+00
      2.478  0.5883E-02  0.1211E+00
      2.563  0.1149E-01  0.1221E+00
      2.648  0.1597E-01  0.1234E+00
      2.733  0.1752E-01  0.1249E+00
      2.818  0.1992E-01  0.1266E+00
      2.904  0.2416E-01  0.1287E+00
      2.989  0.2615E-01  0.1309E+00
      3.074  0.2953E-01  0.1334E+00
      3.159  0.3376E-01  0.1363E+00
      3.244  0.3121E-01  0.1389E+00
      3.329  0.3097E-01  0.1416E+00
      3.415  0.3676E-01  0.1447E+00
      3.500  0.4249E-01  0.1483E+00
      3.585  0.4405E-01  0.1521E+00
      3.670  0.4574E-01  0.1560E+00
      3.755  0.4195E-01  0.1596E+00
      3.840  0.3868E-01  0.1628E+00
      3.926  0.3721E-01  0.1660E+00
      4.011  0.3584E-01  0.1691E+00
      4.096  0.3611E-01  0.1721E+00
      4.181  0.4124E-01  0.1757E+00
      4.266  0.4359E-01  0.1794E+00
      4.351  0.4125E-01  0.1829E+00
      4.436  0.3729E-01  0.1861E+00
      4.522  0.3536E-01  0.1891E+00
      4.607  0.3586E-01  0.1921E+00
      4.692  0.3683E-01  0.1953E+00
      4.777  0.3689E-01  0.1984E+00
      4.862  0.3818E-01  0.2016E+00
      4.947  0.3831E-01  0.2049E+00
      5.033  0.3755E-01  0.2081E+00
      5.118  0.3536E-01  0.2111E+00
      5.203  0.3425E-01  0.2140E+00
      5.288  0.3434E-01  0.2170E+00
      5.373  0.3441E-01  0.2199E+00
      5.458  0.3417E-01  0.2228E+00
      5.544  0.3583E-01  0.2258E+00
      5.629  0.3737E-01  0.2290E+00
      5.714  0.3963E-01  0.2324E+00
      5.799  0.3962E-01  0.2358E+00
      5.884  0.3669E-01  0.2389E+00
      5.969  0.3717E-01  0.2421E+00
      6.054  0.4136E-01  0.2456E+00
      6.140  0.4361E-01  0.2493E+00
      6.225  0.4592E-01  0.2532E+00
      6.310  0.4633E-01  0.2572E+00
      6.395  0.4274E-01  0.2608E+00
      6.480  0.4154E-01  0.2643E+00
      6.565  0.4010E-01  0.2678E+00
      6.651  0.3863E-01  0.2710E+00
      6.736  0.3884E-01  0.2743E+00
      6.821  0.4167E-01  0.2779E+00
      6.906  0.4407E-01  0.2817E+00
      6.991  0.4396E-01  0.2854E+00
      7.076  0.4386E-01  0.2891E+00
      7.161  0.4204E-01  0.2927E+00
      7.247  0.4258E-01  0.2963E+00
      7.332  0.4296E-01  0.3000E+00
      7.417  0.4127E-01  0.3035E+00
      7.502  0.4086E-01  0.3070E+00
      7.587  0.4410E-01  0.3107E+00
      7.672  0.4667E-01  0.3147E+00
      7.758  0.4170E-01  0.3183E+00
      7.843  0.4072E-01  0.3217E+00
      7.928  0.4290E-01  0.3254E+00
      8.013  0.4327E-01  0.3291E+00
      8.098  0.4355E-01  0.3328E+00
      8.183  0.4811E-01  0.3369E+00
      8.269  0.4989E-01  0.3411E+00
      8.354  0.5139E-01  0.3455E+00
      8.439  0.5429E-01  0.3501E+00
      8.524  0.5591E-01  0.3549E+00
      8.609  0.5841E-01  0.3599E+00
      8.694  0.6090E-01  0.3650E+00
      8.779  0.6326E-01  0.3704E+00
      8.865  0.6114E-01  0.3756E+00
      8.950  0.5523E-01  0.3803E+00
      9.035  0.5390E-01  0.3849E+00
      9.120  0.5668E-01  0.3898E+00
      9.205  0.6071E-01  0.3949E+00
      9.290  0.6336E-01  0.4003E+00
      9.376  0.6277E-01  0.4057E+00
      9.461  0.5966E-01  0.4108E+00
      9.546  0.5841E-01  0.4157E+00
      9.631  0.5567E-01  0.4205E+00
      9.716  0.5455E-01  0.4251E+00
      9.801  0.6030E-01  0.4302E+00
      9.887  0.6255E-01  0.4356E+00
      9.972  0.6490E-01  0.4411E+00
     10.057  0.6074E-01  0.4463E+00
     10.142  0.5590E-01  0.4510E+00
     10.227  0.5353E-01  0.4556E+00
     10.312  0.4837E-01  0.4597E+00
     10.397  0.3791E-01  0.4629E+00
     10.483  0.3650E-01  0.4661E+00
     10.568  0.3675E-01  0.4692E+00
     10.653  0.3336E-01  0.4720E+00
     10.738  0.3175E-01  0.4747E+00
     10.823  0.2709E-01  0.4770E+00
     10.908  0.2098E-01  0.4788E+00
     10.994  0.1131E-01  0.4798E+00
     11.079  0.2443E-02  0.4800E+00
     11.164  0.1245E-03  0.4800E+00
     11.249  0.2333E-06  0.4800E+00
     11.334  0.3400E-11  0.4800E+00
     11.419  0.2278E-18  0.4800E+00
     11.505  0.0000E+00  0.4800E+00
     11.590  0.0000E+00  0.4800E+00
     11.675  0.0000E+00  0.4800E+00
     11.760  0.0000E+00  0.4800E+00
     11.845  0.0000E+00  0.4800E+00
     11.930  0.0000E+00  0.4800E+00
     12.015  0.0000E+00  0.4800E+00
     12.101  0.0000E+00  0.4800E+00
     12.186  0.0000E+00  0.4800E+00
     12.271  0.0000E+00  0.4800E+00
     12.356  0.0000E+00  0.4800E+00
     12.441  0.1080E-16  0.4800E+00
     12.526  0.6238E-10  0.4800E+00
     12.612  0.1676E-05  0.4800E+00
     12.697  0.3742E-03  0.4800E+00
     12.782  0.2989E-02  0.4803E+00
     12.867  0.5603E-02  0.4808E+00
     12.952  0.7748E-02  0.4814E+00
     13.037  0.8988E-02  0.4822E+00
     13.122  0.1013E-01  0.4831E+00
     13.208  0.1212E-01  0.4841E+00
     13.293  0.1689E-01  0.4855E+00
     13.378  0.2229E-01  0.4874E+00
     13.463  0.2349E-01  0.4894E+00
     13.548  0.2275E-01  0.4914E+00
     13.633  0.2307E-01  0.4933E+00
     13.719  0.2379E-01  0.4953E+00
     13.804  0.2837E-01  0.4978E+00
     13.889  0.3136E-01  0.5004E+00
     13.974  0.3192E-01  0.5032E+00
     14.059  0.3470E-01  0.5061E+00
     14.144  0.3472E-01  0.5091E+00
     14.230  0.3575E-01  0.5121E+00
     14.315  0.3786E-01  0.5153E+00
     14.400  0.3505E-01  0.5183E+00
     14.485  0.3119E-01  0.5210E+00
     14.570  0.3086E-01  0.5236E+00
     14.655  0.3267E-01  0.5264E+00
     14.740  0.3465E-01  0.5293E+00
     14.826  0.3690E-01  0.5325E+00
     14.911  0.3835E-01  0.5357E+00
     14.996  0.3684E-01  0.5389E+00
     15.081  0.3413E-01  0.5418E+00
     15.166  0.2941E-01  0.5443E+00
     15.251  0.3091E-01  0.5469E+00
     15.337  0.3856E-01  0.5502E+00
     15.422  0.4446E-01  0.5540E+00
     15.507  0.4019E-01  0.5574E+00
     15.592  0.3659E-01  0.5605E+00
     15.677  0.3745E-01  0.5637E+00
     15.762  0.3840E-01  0.5670E+00
     15.848  0.3985E-01  0.5704E+00
     15.933  0.3799E-01  0.5736E+00
     16.018  0.3799E-01  0.5769E+00
     16.103  0.4143E-01  0.5804E+00
     16.188  0.4450E-01  0.5842E+00
     16.273  0.4540E-01  0.5880E+00
     16.358  0.4484E-01  0.5919E+00
     16.444  0.4164E-01  0.5954E+00
     16.529  0.3859E-01  0.5987E+00
     16.614  0.3762E-01  0.6019E+00
     16.699  0.3433E-01  0.6048E+00
     16.784  0.3433E-01  0.6077E+00
     16.869  0.3277E-01  0.6105E+00
     16.955  0.2809E-01  0.6129E+00
     17.040  0.2832E-01  0.6153E+00
     17.125  0.2930E-01  0.6178E+00
     17.210  0.2883E-01  0.6203E+00
     17.295  0.2638E-01  0.6225E+00
     17.380  0.2358E-01  0.6245E+00
     17.466  0.2341E-01  0.6265E+00
     17.551  0.2330E-01  0.6285E+00
     17.636  0.2335E-01  0.6305E+00
     17.721  0.2320E-01  0.6325E+00
     17.806  0.2645E-01  0.6347E+00
     17.891  0.2190E-01  0.6366E+00
     17.976  0.1680E-01  0.6380E+00
     18.062  0.1087E-01  0.6390E+00
     18.147  0.6273E-02  0.6395E+00
     18.232  0.4489E-02  0.6399E+00
     18.317  0.1301E-02  0.6400E+00
     18.402  0.2105E-03  0.6400E+00
     18.487  0.5964E-05  0.6400E+00
     18.573  0.2279E-08  0.6400E+00
     18.658  0.4512E-14  0.6400E+00
     18.743  0.0000E+00  0.6400E+00
     18.828  0.0000E+00  0.6400E+00
     18.913  0.0000E+00  0.6400E+00
     18.998  0.0000E+00  0.6400E+00
     19.083  0.0000E+00  0.6400E+00
     19.169  0.0000E+00  0.6400E+00
     19.254  0.0000E+00  0.6400E+00
     19.339  0.0000E+00  0.6400E+00
     19.424  0.0000E+00  0.6400E+00
     19.509  0.0000E+00  0.6400E+00
