       N       E                     dE             d eps       ncg     rms          rms(c)
DAV:   1     0.304373610537E+03    0.30437E+03   -0.45163E+04591360   0.148E+03
DAV:   2    -0.158732214636E+03   -0.46311E+03   -0.43818E+03757072   0.230E+02
DAV:   3    -0.194005995367E+03   -0.35274E+02   -0.34903E+02719176   0.609E+01
DAV:   4    -0.194825669569E+03   -0.81967E+00   -0.81594E+00718504   0.101E+01
DAV:   5    -0.194847205737E+03   -0.21536E-01   -0.21513E-01704424   0.164E+00    0.253E+01
DAV:   6    -0.169773268407E+03    0.25074E+02   -0.90727E+01685448   0.257E+01    0.773E+00
DAV:   7    -0.169472730848E+03    0.30054E+00   -0.48290E+00745880   0.649E+00    0.518E+00
DAV:   8    -0.169361653290E+03    0.11108E+00   -0.44572E-01689592   0.254E+00    0.961E-01
DAV:   9    -0.169343963151E+03    0.17690E-01   -0.75665E-02703776   0.858E-01    0.462E-01
DAV:  10    -0.169344079228E+03   -0.11608E-03   -0.13417E-02707280   0.382E-01    0.160E-01
DAV:  11    -0.169344060613E+03    0.18615E-04   -0.10678E-03718808   0.125E-01    0.102E-01
DAV:  12    -0.169344100990E+03   -0.40377E-04   -0.65227E-04706992   0.793E-02    0.396E-02
DAV:  13    -0.169344078180E+03    0.22810E-04   -0.20007E-04689888   0.402E-02    0.161E-02
DAV:  14    -0.169344078271E+03   -0.90790E-07   -0.92838E-06397448   0.118E-02
   1 F= -.78758204E+02 E0= -.78758204E+02  d E =-.787582E+02
       N       E                     dE             d eps       ncg     rms          rms(c)
DAV:   1    -0.132148119613E+03    0.37196E+02   -0.61763E+02633296   0.121E+02    0.258E+01
DAV:   2    -0.119359752856E+03    0.12788E+02   -0.34935E+01694816   0.211E+01    0.129E+01
DAV:   3    -0.117830309685E+03    0.15294E+01   -0.75047E+00693200   0.885E+00    0.313E+00
DAV:   4    -0.117699706498E+03    0.13060E+00   -0.39242E-01684664   0.214E+00    0.136E+00
DAV:   5    -0.117669570452E+03    0.30136E-01   -0.15899E-02688064   0.515E-01    0.880E-01
DAV:   6    -0.117665087481E+03    0.44830E-02   -0.30666E-03689856   0.210E-01    0.108E-01
DAV:   7    -0.117665004204E+03    0.83277E-04   -0.51820E-04684320   0.815E-02    0.452E-02
DAV:   8    -0.117665001569E+03    0.26353E-05   -0.52074E-05670784   0.305E-02
   2 F= -.60429705E+02 E0= -.60429705E+02  d E =0.183285E+02
       N       E                     dE             d eps       ncg     rms          rms(c)
DAV:   1    -0.169964180120E+03   -0.52299E+02   -0.21039E+02648808   0.582E+01    0.165E+01
DAV:   2    -0.164075196386E+03    0.58890E+01   -0.15835E+01695800   0.129E+01    0.730E+00
DAV:   3    -0.163623651260E+03    0.45155E+00   -0.27392E+00686648   0.482E+00    0.222E+00
DAV:   4    -0.163554245746E+03    0.69406E-01   -0.31177E-01694344   0.162E+00    0.765E-01
DAV:   5    -0.163540475421E+03    0.13770E-01   -0.52308E-02688456   0.683E-01    0.414E-01
DAV:   6    -0.163538191500E+03    0.22839E-02   -0.40802E-03689096   0.215E-01    0.810E-02
DAV:   7    -0.163538041052E+03    0.15045E-03   -0.95611E-04693600   0.991E-02    0.339E-02
DAV:   8    -0.163538043024E+03   -0.19718E-05   -0.10663E-04679992   0.365E-02    0.246E-02
DAV:   9    -0.163538038139E+03    0.48849E-05   -0.13294E-05408712   0.170E-02
   3 F= -.85958862E+02 E0= -.85958862E+02  d E =-.720066E+01
       N       E                     dE             d eps       ncg     rms          rms(c)
DAV:   1    -0.162692910361E+03    0.84513E+00   -0.37356E-01655552   0.258E+00    0.641E-01
DAV:   2    -0.162683511820E+03    0.93985E-02   -0.26160E-02688688   0.523E-01    0.281E-01
DAV:   3    -0.162682868874E+03    0.64295E-03   -0.39121E-03690104   0.187E-01    0.867E-02
DAV:   4    -0.162682780960E+03    0.87914E-04   -0.34901E-04693800   0.551E-02    0.316E-02
DAV:   5    -0.162682774105E+03    0.68545E-05   -0.55633E-05649272   0.228E-02
   4 F= -.86017074E+02 E0= -.86017074E+02  d E =-.725887E+01
       N       E                     dE             d eps       ncg     rms          rms(c)
DAV:   1    -0.162439664501E+03    0.24312E+00   -0.27643E-02659952   0.700E-01    0.173E-01
DAV:   2    -0.162438998700E+03    0.66580E-03   -0.18939E-03691984   0.141E-01    0.760E-02
DAV:   3    -0.162438961519E+03    0.37180E-04   -0.28975E-04691096   0.508E-02    0.228E-02
DAV:   4    -0.162438958778E+03    0.27411E-05   -0.23803E-05400664   0.150E-02
   5 F= -.86019909E+02 E0= -.86019909E+02  d E =-.726170E+01
       N       E                     dE             d eps       ncg     rms          rms(c)
DAV:   1    -0.162358886395E+03    0.80075E-01   -0.26094E+01591368   0.212E+01    0.126E+00
DAV:   2    -0.162326992591E+03    0.31894E-01   -0.51659E-01705464   0.289E+00    0.668E-01
DAV:   3    -0.162315389018E+03    0.11604E-01   -0.64670E-02711688   0.101E+00    0.365E-01
DAV:   4    -0.162315522547E+03   -0.13353E-03   -0.15888E-02708752   0.404E-01    0.156E-01
DAV:   5    -0.162315349132E+03    0.17341E-03   -0.30830E-03697408   0.205E-01    0.491E-02
DAV:   6    -0.162315312920E+03    0.36212E-04   -0.56305E-04697360   0.892E-02    0.357E-02
DAV:   7    -0.162315322589E+03   -0.96690E-05   -0.88149E-05702616   0.354E-02
   6 F= -.86379354E+02 E0= -.86379354E+02  d E =-.359445E+00
       N       E                     dE             d eps       ncg     rms          rms(c)
DAV:   1    -0.162213729941E+03    0.10158E+00   -0.16010E+00601264   0.525E+00    0.290E-01
DAV:   2    -0.162211768993E+03    0.19609E-02   -0.30105E-02705552   0.696E-01    0.166E-01
DAV:   3    -0.162210997417E+03    0.77158E-03   -0.41953E-03714944   0.261E-01    0.724E-02
DAV:   4    -0.162211034231E+03   -0.36814E-04   -0.10445E-03700336   0.104E-01    0.384E-02
DAV:   5    -0.162211026499E+03    0.77311E-05   -0.16588E-04695720   0.452E-02    0.128E-02
DAV:   6    -0.162211024467E+03    0.20321E-05   -0.20737E-05452344   0.192E-02
   7 F= -.86394114E+02 E0= -.86394114E+02  d E =-.374205E+00
       N       E                     dE             d eps       ncg     rms          rms(c)
DAV:   1    -0.162296967409E+03   -0.85941E-01   -0.22040E+01591392   0.194E+01    0.103E+00
DAV:   2    -0.162288726814E+03    0.82406E-02   -0.47956E-01706352   0.263E+00    0.660E-01
DAV:   3    -0.162275056348E+03    0.13670E-01   -0.38476E-02708840   0.822E-01    0.310E-01
DAV:   4    -0.162274905545E+03    0.15080E-03   -0.13631E-02703728   0.379E-01    0.136E-01
DAV:   5    -0.162274876166E+03    0.29380E-04   -0.10516E-03706200   0.119E-01    0.441E-02
DAV:   6    -0.162274874375E+03    0.17910E-05   -0.18551E-04681304   0.523E-02    0.251E-02
DAV:   7    -0.162274875285E+03   -0.91029E-06   -0.36750E-05544864   0.226E-02
   8 F= -.86487891E+02 E0= -.86487891E+02  d E =-.937775E-01
       N       E                     dE             d eps       ncg     rms          rms(c)
DAV:   1    -0.162300874588E+03   -0.26000E-01   -0.17520E+00592088   0.547E+00    0.277E-01
DAV:   2    -0.162300136753E+03    0.73784E-03   -0.35985E-02706760   0.730E-01    0.181E-01
DAV:   3    -0.162299029169E+03    0.11076E-02   -0.34305E-03706536   0.246E-01    0.656E-02
DAV:   4    -0.162299066965E+03   -0.37796E-04   -0.11211E-03703184   0.110E-01    0.354E-02
DAV:   5    -0.162299067775E+03   -0.81053E-06   -0.81034E-05689120   0.324E-02
   9 F= -.86503636E+02 E0= -.86503636E+02  d E =-.109522E+00
       N       E                     dE             d eps       ncg     rms          rms(c)
DAV:   1    -0.162181850298E+03    0.11722E+00   -0.21068E+00592384   0.614E+00    0.293E-01
DAV:   2    -0.162183838503E+03   -0.19882E-02   -0.49981E-02712464   0.850E-01    0.209E-01
DAV:   3    -0.162182928459E+03    0.91004E-03   -0.19944E-03701208   0.201E-01    0.120E-01
DAV:   4    -0.162182757524E+03    0.17094E-03   -0.17850E-03703656   0.149E-01    0.450E-02
DAV:   5    -0.162182750341E+03    0.71827E-05   -0.12685E-04705840   0.472E-02    0.245E-02
DAV:   6    -0.162182753549E+03   -0.32081E-05   -0.62804E-05646088   0.284E-02
  10 F= -.86539754E+02 E0= -.86539754E+02  d E =-.361182E-01
       N       E                     dE             d eps       ncg     rms          rms(c)
DAV:   1    -0.162105087336E+03    0.77663E-01   -0.62057E-01593824   0.334E+00    0.160E-01
DAV:   2    -0.162105650988E+03   -0.56365E-03   -0.14505E-02711456   0.459E-01    0.113E-01
DAV:   3    -0.162105386143E+03    0.26484E-03   -0.58800E-04701216   0.109E-01    0.650E-02
DAV:   4    -0.162105339670E+03    0.46474E-04   -0.51032E-04703288   0.798E-02    0.247E-02
DAV:   5    -0.162105337852E+03    0.18176E-05   -0.34661E-05500352   0.256E-02
  11 F= -.86544875E+02 E0= -.86544875E+02  d E =-.412393E-01
       N       E                     dE             d eps       ncg     rms          rms(c)
DAV:   1    -0.162349883789E+03   -0.24454E+00   -0.11540E+00591864   0.453E+00    0.233E-01
DAV:   2    -0.162350337714E+03   -0.45393E-03   -0.18483E-02707096   0.525E-01    0.151E-01
DAV:   3    -0.162349933477E+03    0.40424E-03   -0.12724E-03721352   0.153E-01    0.721E-02
DAV:   4    -0.162349926667E+03    0.68095E-05   -0.45453E-04703032   0.777E-02    0.354E-02
DAV:   5    -0.162349920598E+03    0.60696E-05   -0.50478E-05610624   0.289E-02
  12 F= -.86564254E+02 E0= -.86564254E+02  d E =-.193788E-01
       N       E                     dE             d eps       ncg     rms          rms(c)
DAV:   1    -0.162406635931E+03   -0.56709E-01   -0.71001E-02601552   0.112E+00    0.587E-02
DAV:   2    -0.162406659494E+03   -0.23563E-04   -0.11410E-03707408   0.131E-01    0.382E-02
DAV:   3    -0.162406632144E+03    0.27350E-04   -0.88400E-05717776   0.398E-02    0.179E-02
DAV:   4    -0.162406630529E+03    0.16149E-05   -0.26362E-05480360   0.192E-02
  13 F= -.86565051E+02 E0= -.86565051E+02  d E =-.201763E-01
       N       E                     dE             d eps       ncg     rms          rms(c)
DAV:   1    -0.162026642395E+03    0.37999E+00   -0.17064E+00592648   0.535E+00    0.370E-01
DAV:   2    -0.162024988557E+03    0.16538E-02   -0.40420E-02701760   0.788E-01    0.217E-01
DAV:   3    -0.162023797379E+03    0.11912E-02   -0.48211E-03704768   0.284E-01    0.674E-02
DAV:   4    -0.162023847313E+03   -0.49934E-04   -0.12819E-03698952   0.126E-01    0.420E-02
DAV:   5    -0.162023846109E+03    0.12039E-05   -0.12293E-04695832   0.394E-02    0.186E-02
DAV:   6    -0.162023846272E+03   -0.16312E-06   -0.23710E-05430888   0.180E-02
  14 F= -.86568972E+02 E0= -.86568972E+02  d E =-.392117E-02
       N       E                     dE             d eps       ncg     rms          rms(c)
DAV:   1    -0.162176581962E+03   -0.15274E+00   -0.25602E-01592840   0.207E+00    0.140E-01
DAV:   2    -0.162176332757E+03    0.24921E-03   -0.59852E-03701408   0.304E-01    0.856E-02
DAV:   3    -0.162176139670E+03    0.19309E-03   -0.73618E-04704784   0.111E-01    0.269E-02
DAV:   4    -0.162176144665E+03   -0.49949E-05   -0.19396E-04680960   0.490E-02    0.170E-02
DAV:   5    -0.162176141706E+03    0.29588E-05   -0.16261E-05394320   0.154E-02
  15 F= -.86571658E+02 E0= -.86571658E+02  d E =-.660653E-02
       N       E                     dE             d eps       ncg     rms          rms(c)
DAV:   1    -0.162235286755E+03   -0.59142E-01   -0.12832E-01592088   0.145E+00    0.803E-02
DAV:   2    -0.162235161488E+03    0.12527E-03   -0.32242E-03682864   0.218E-01    0.559E-02
DAV:   3    -0.162235097324E+03    0.64165E-04   -0.23576E-04701904   0.643E-02    0.271E-02
DAV:   4    -0.162235095383E+03    0.19401E-05   -0.90827E-05595928   0.296E-02
  16 F= -.86573007E+02 E0= -.86573007E+02  d E =-.134978E-02
       N       E                     dE             d eps       ncg     rms          rms(c)
DAV:   1    -0.162233075666E+03    0.20217E-02   -0.19235E-04594904   0.551E-02    0.480E-03
DAV:   2    -0.162233075372E+03    0.29403E-06   -0.68298E-06362936   0.101E-02
  17 F= -.86573009E+02 E0= -.86573009E+02  d E =-.135130E-02
       N       E                     dE             d eps       ncg     rms          rms(c)
DAV:   1    -0.162219859145E+03    0.13217E-01   -0.54021E-02592416   0.984E-01    0.435E-02
DAV:   2    -0.162219851908E+03    0.72377E-05   -0.76706E-04705440   0.111E-01    0.281E-02
DAV:   3    -0.162219837926E+03    0.13981E-04   -0.92024E-05699800   0.389E-02    0.138E-02
DAV:   4    -0.162219838352E+03   -0.42516E-06   -0.18905E-05468896   0.156E-02
  18 F= -.86573955E+02 E0= -.86573955E+02  d E =-.946474E-03
       N       E                     dE             d eps       ncg     rms          rms(c)
DAV:   1    -0.162213246492E+03    0.65914E-02   -0.12011E-02594896   0.464E-01    0.211E-02
DAV:   2    -0.162213244325E+03    0.21667E-05   -0.16616E-04706944   0.523E-02    0.136E-02
DAV:   3    -0.162213241619E+03    0.27069E-05   -0.21789E-05431640   0.201E-02
  19 F= -.86574063E+02 E0= -.86574063E+02  d E =-.105416E-02
       N       E                     dE             d eps       ncg     rms          rms(c)
DAV:   1    -0.162227419088E+03   -0.14175E-01   -0.83579E-02592472   0.120E+00    0.573E-02
DAV:   2    -0.162227423549E+03   -0.44610E-05   -0.17792E-03703928   0.164E-01    0.401E-02
DAV:   3    -0.162227366015E+03    0.57534E-04   -0.13168E-04704416   0.549E-02    0.159E-02
DAV:   4    -0.162227366594E+03   -0.57910E-06   -0.83379E-05601352   0.306E-02
  20 F= -.86574502E+02 E0= -.86574502E+02  d E =-.439188E-03
       N       E                     dE             d eps       ncg     rms          rms(c)
DAV:   1    -0.162226580843E+03    0.78517E-03   -0.28601E-04621064   0.697E-02    0.622E-03
DAV:   2    -0.162226580343E+03    0.49964E-06   -0.64213E-06369288   0.105E-02
  21 F= -.86574503E+02 E0= -.86574503E+02  d E =-.439895E-03
       N       E                     dE             d eps       ncg     rms          rms(c)
DAV:   1    -0.162213798153E+03    0.12783E-01   -0.51063E-02592304   0.943E-01    0.435E-02
DAV:   2    -0.162213774287E+03    0.23866E-04   -0.87631E-04702200   0.119E-01    0.296E-02
DAV:   3    -0.162213754346E+03    0.19941E-04   -0.89118E-05713416   0.411E-02    0.134E-02
DAV:   4    -0.162213754708E+03   -0.36251E-06   -0.28705E-05474024   0.179E-02
  22 F= -.86574708E+02 E0= -.86574708E+02  d E =-.204678E-03
       N       E                     dE             d eps       ncg     rms          rms(c)
DAV:   1    -0.162216357431E+03   -0.26031E-02   -0.20576E-03597544   0.189E-01    0.902E-03
DAV:   2    -0.162216356114E+03    0.13170E-05   -0.38821E-05586344   0.248E-02
  23 F= -.86574724E+02 E0= -.86574724E+02  d E =-.220556E-03
       N       E                     dE             d eps       ncg     rms          rms(c)
DAV:   1    -0.162221597372E+03   -0.52399E-02   -0.90686E-03593288   0.397E-01    0.173E-02
DAV:   2    -0.162221601624E+03   -0.42524E-05   -0.15259E-04700360   0.481E-02    0.122E-02
DAV:   3    -0.162221596857E+03    0.47672E-05   -0.81194E-06393344   0.142E-02
  24 F= -.86574804E+02 E0= -.86574804E+02  d E =-.801294E-04
       N       E                     dE             d eps       ncg     rms          rms(c)
DAV:   1    -0.162222246098E+03   -0.64447E-03   -0.13690E-04621672   0.493E-02    0.382E-03
DAV:   2    -0.162222245860E+03    0.23844E-06   -0.15395E-06336816   0.535E-03
  25 F= -.86574805E+02 E0= -.86574805E+02  d E =-.814502E-04
       N       E                     dE             d eps       ncg     rms          rms(c)
DAV:   1    -0.162217062114E+03    0.51840E-02   -0.12033E-02592936   0.453E-01    0.200E-02
DAV:   2    -0.162217058772E+03    0.33419E-05   -0.16834E-04705712   0.516E-02    0.129E-02
DAV:   3    -0.162217052107E+03    0.66652E-05   -0.16576E-05406112   0.176E-02
  26 F= -.86574840E+02 E0= -.86574840E+02  d E =-.346650E-04
