       N       E                     dE             d eps       ncg     rms          rms(c)
DAV:   1    -0.265944357611E+03   -0.26594E+03   -0.10381E+02  8304   0.272E+01    0.281E+01
DAV:   2    -0.227946414352E+03    0.37998E+02   -0.64958E+01  8004   0.221E+01    0.105E+01
DAV:   3    -0.228582235100E+03   -0.63582E+00   -0.54062E+00  8376   0.751E+00    0.777E+00
DAV:   4    -0.228909906014E+03   -0.32767E+00   -0.40486E-01  8778   0.221E+00    0.504E+00
DAV:   5    -0.229037195128E+03   -0.12729E+00   -0.25481E-01  7656   0.222E+00    0.807E-01
DAV:   6    -0.229035769071E+03    0.14261E-02   -0.15016E-02  8406   0.436E-01    0.305E-01
DAV:   7    -0.229037421701E+03   -0.16526E-02   -0.21013E-03  9000   0.206E-01    0.192E-01
DAV:   8    -0.229038135987E+03   -0.71429E-03   -0.11521E-03  7956   0.147E-01    0.560E-02
DAV:   9    -0.229038148308E+03   -0.12321E-04   -0.75653E-05  9432   0.428E-02    0.315E-02
DAV:  10    -0.229038159998E+03   -0.11690E-04   -0.76089E-05  7938   0.341E-02    0.142E-02
DAV:  11    -0.229038158959E+03    0.10387E-05   -0.36188E-06  4338   0.907E-03
   1 F= -.21147034E+03 E0= -.21147034E+03  d E =-.211470E+03
       N       E                     dE             d eps       ncg     rms          rms(c)
DAV:   1    -0.228457640752E+03    0.58052E+00   -0.37472E+00  7698   0.803E+00    0.185E+00
DAV:   2    -0.228409916273E+03    0.47724E-01   -0.24365E-01  8586   0.160E+00    0.984E-01
DAV:   3    -0.228409943449E+03   -0.27176E-04   -0.33434E-02  8388   0.549E-01    0.384E-01
DAV:   4    -0.228410322439E+03   -0.37899E-03   -0.11619E-03  8520   0.147E-01    0.176E-01
DAV:   5    -0.228410421052E+03   -0.98613E-04   -0.25709E-04  8358   0.705E-02    0.115E-01
DAV:   6    -0.228410435114E+03   -0.14063E-04   -0.12241E-04  8292   0.458E-02    0.380E-02
DAV:   7    -0.228410438502E+03   -0.33879E-05   -0.22475E-05  4458   0.163E-02
   2 F= -.21145779E+03 E0= -.21145779E+03  d E =0.125454E-01
       N       E                     dE             d eps       ncg     rms          rms(c)
DAV:   1    -0.228814309596E+03   -0.40387E+00   -0.99724E-01  7728   0.408E+00    0.964E-01
DAV:   2    -0.228802891099E+03    0.11418E-01   -0.67348E-02  8544   0.833E-01    0.511E-01
DAV:   3    -0.228803110984E+03   -0.21988E-03   -0.90228E-03  8448   0.284E-01    0.200E-01
DAV:   4    -0.228803259119E+03   -0.14814E-03   -0.31861E-04  8496   0.774E-02    0.918E-02
DAV:   5    -0.228803294363E+03   -0.35244E-04   -0.72802E-05  8166   0.374E-02    0.593E-02
DAV:   6    -0.228803296044E+03   -0.16812E-05   -0.33704E-05  6708   0.241E-02
   3 F= -.21153241E+03 E0= -.21153241E+03  d E =-.620709E-01
       N       E                     dE             d eps       ncg     rms          rms(c)
DAV:   1    -0.228800317719E+03    0.29766E-02   -0.74577E-05  7686   0.377E-02    0.161E-02
DAV:   2    -0.228800312881E+03    0.48377E-05   -0.75886E-06  4038   0.904E-03
   4 F= -.21153240E+03 E0= -.21153240E+03  d E =-.620627E-01
       N       E                     dE             d eps       ncg     rms          rms(c)
DAV:   1    -0.228801079259E+03   -0.76154E-03   -0.13081E-05  3954   0.140E-02    0.285E-03
DAV:   2    -0.228801078935E+03    0.32383E-06   -0.10056E-06  3846   0.411E-03
   5 F= -.21153240E+03 E0= -.21153240E+03  d E =-.620620E-01
       N       E                     dE             d eps       ncg     rms          rms(c)
DAV:   1    -0.228802234900E+03   -0.11556E-02   -0.11173E-05  3798   0.146E-02    0.346E-03
DAV:   2    -0.228802235092E+03   -0.19177E-06   -0.90232E-07  3726   0.415E-03
   6 F= -.21153240E+03 E0= -.21153240E+03  d E =-.620624E-01
       N       E                     dE             d eps       ncg     rms          rms(c)
DAV:   1    -0.228801725299E+03    0.50960E-03   -0.31307E-06  3666   0.681E-03    0.168E-03
DAV:   2    -0.228801725067E+03    0.23260E-06   -0.23000E-07  3648   0.199E-03
   7 F= -.21153240E+03 E0= -.21153240E+03  d E =-.620624E-01
       N       E                     dE             d eps       ncg     rms          rms(c)
DAV:   1    -0.228801684532E+03    0.40767E-04   -0.16667E-02  7338   0.535E-01    0.273E-02
DAV:   2    -0.228801742754E+03   -0.58222E-04   -0.79683E-04  8946   0.104E-01    0.269E-02
DAV:   3    -0.228801732542E+03    0.10212E-04   -0.34222E-05  6780   0.248E-02    0.189E-02
DAV:   4    -0.228801726464E+03    0.60782E-05   -0.36838E-05  6474   0.216E-02
   8 F= -.21153271E+03 E0= -.21153271E+03  d E =-.316097E-03
       N       E                     dE             d eps       ncg     rms          rms(c)
DAV:   1    -0.228801737893E+03   -0.53513E-05   -0.29482E-05  6306   0.228E-02    0.364E-03
DAV:   2    -0.228801737589E+03    0.30380E-06   -0.21828E-06  3822   0.574E-03
   9 F= -.21153271E+03 E0= -.21153271E+03  d E =-.314786E-03
       N       E                     dE             d eps       ncg     rms          rms(c)
DAV:   1    -0.228803684503E+03   -0.19466E-02   -0.17406E-02  7128   0.535E-01    0.224E-02
DAV:   2    -0.228803682647E+03    0.18555E-05   -0.26179E-04  8802   0.608E-02    0.156E-02
DAV:   3    -0.228803675390E+03    0.72577E-05   -0.93975E-06  5202   0.141E-02
  10 F= -.21153292E+03 E0= -.21153292E+03  d E =-.211205E-03
       N       E                     dE             d eps       ncg     rms          rms(c)
DAV:   1    -0.228805604349E+03   -0.19217E-02   -0.19833E-02  7128   0.572E-01    0.247E-02
DAV:   2    -0.228805600978E+03    0.33709E-05   -0.26710E-04  8862   0.618E-02    0.167E-02
DAV:   3    -0.228805593252E+03    0.77266E-05   -0.10551E-05  5412   0.147E-02
  11 F= -.21153298E+03 E0= -.21153298E+03  d E =-.268121E-03
       N       E                     dE             d eps       ncg     rms          rms(c)
DAV:   1    -0.228806422943E+03   -0.82196E-03   -0.66844E-03  7128   0.345E-01    0.152E-02
DAV:   2    -0.228806428709E+03   -0.57668E-05   -0.67446E-05  9108   0.323E-02
  12 F= -.21153315E+03 E0= -.21153315E+03  d E =-.167098E-03
       N       E                     dE             d eps       ncg     rms          rms(c)
DAV:   1    -0.228807158033E+03   -0.73509E-03   -0.68295E-03  7128   0.348E-01    0.187E-02
DAV:   2    -0.228807162125E+03   -0.40925E-05   -0.64244E-05  8988   0.324E-02
  13 F= -.21153321E+03 E0= -.21153321E+03  d E =-.228465E-03
       N       E                     dE             d eps       ncg     rms          rms(c)
DAV:   1    -0.228805774030E+03    0.13840E-02   -0.97359E-03  7128   0.403E-01    0.224E-02
DAV:   2    -0.228805789236E+03   -0.15206E-04   -0.24955E-04  8784   0.581E-02    0.170E-02
DAV:   3    -0.228805786761E+03    0.24755E-05   -0.89080E-06  5124   0.144E-02
  14 F= -.21153331E+03 E0= -.21153331E+03  d E =-.958985E-04
