Al4C3 Pnma (POSCAR.III, symmetrized via 
   1.00000000000000     
     9.1479202548296819    0.0000000000000000    0.0000000000000000
     0.0000000000000000    3.0848585297756359    0.0000000000000000
     0.0000000000000000    0.0000000000000000    9.9740351519227541
   Al   C 
    16    12
Direct
  0.7418078032975671  0.2500000000000000  0.7177874849159994
  0.7581921967024329  0.7500000000000000  0.2177874849159993
  0.2581921967024328  0.7500000000000000  0.2822125150840006
  0.2418078032975672  0.2500000000000000  0.7822125150840006
  0.6077343490864069  0.2500000000000000  0.4760015632577966
  0.8922656509135931  0.7500000000000000  0.9760015632577896
  0.3922656509135933  0.7500000000000000  0.5239984367422104
  0.1077343490864068  0.2500000000000000  0.0239984367422105
  0.1339522384831801  0.2500000000000000  0.5177683674825727
  0.3660477615168199  0.7500000000000000  0.0177683674825727
  0.8660477615168202  0.7500000000000000  0.4822316325174273
  0.6339522384831798  0.2500000000000000  0.9822316325174273
  0.9866530608917257  0.2500000000000000  0.2817299056716617
  0.5133469391082743  0.7500000000000000  0.7817299056716619
  0.0133469391082743  0.7500000000000000  0.7182700943283381
  0.4866530608917256  0.2500000000000000  0.2182700943283384
  0.9295369957067868  0.2500000000000000  0.6214959342838720
  0.5704630042932132  0.7500000000000000  0.1214959342838720
  0.0704630042932129  0.7500000000000000  0.3785040657161280
  0.4295369957067870  0.2500000000000000  0.8785040657161280
  0.3959161996029122  0.2500000000000000  0.3999161865749942
  0.1040838003970878  0.7500000000000000  0.8999161865749872
  0.6040838003970878  0.7500000000000000  0.6000838134250128
  0.8959161996029122  0.2500000000000000  0.1000838134250128
  0.7744767211116209  0.2500000000000000  0.3577382020804385
  0.7255232788883791  0.7500000000000000  0.8577382020804383
  0.2255232788883791  0.7500000000000000  0.6422617979195617
  0.2744767211116209  0.2500000000000000  0.1422617979195616
 
  0.00000000E+00  0.00000000E+00  0.00000000E+00
  0.00000000E+00  0.00000000E+00  0.00000000E+00
  0.00000000E+00  0.00000000E+00  0.00000000E+00
  0.00000000E+00  0.00000000E+00  0.00000000E+00
  0.00000000E+00  0.00000000E+00  0.00000000E+00
  0.00000000E+00  0.00000000E+00  0.00000000E+00
  0.00000000E+00  0.00000000E+00  0.00000000E+00
  0.00000000E+00  0.00000000E+00  0.00000000E+00
  0.00000000E+00  0.00000000E+00  0.00000000E+00
  0.00000000E+00  0.00000000E+00  0.00000000E+00
  0.00000000E+00  0.00000000E+00  0.00000000E+00
  0.00000000E+00  0.00000000E+00  0.00000000E+00
  0.00000000E+00  0.00000000E+00  0.00000000E+00
  0.00000000E+00  0.00000000E+00  0.00000000E+00
  0.00000000E+00  0.00000000E+00  0.00000000E+00
  0.00000000E+00  0.00000000E+00  0.00000000E+00
  0.00000000E+00  0.00000000E+00  0.00000000E+00
  0.00000000E+00  0.00000000E+00  0.00000000E+00
  0.00000000E+00  0.00000000E+00  0.00000000E+00
  0.00000000E+00  0.00000000E+00  0.00000000E+00
  0.00000000E+00  0.00000000E+00  0.00000000E+00
  0.00000000E+00  0.00000000E+00  0.00000000E+00
  0.00000000E+00  0.00000000E+00  0.00000000E+00
  0.00000000E+00  0.00000000E+00  0.00000000E+00
  0.00000000E+00  0.00000000E+00  0.00000000E+00
  0.00000000E+00  0.00000000E+00  0.00000000E+00
  0.00000000E+00  0.00000000E+00  0.00000000E+00
  0.00000000E+00  0.00000000E+00  0.00000000E+00
