Al4C3 Pnma-III - r2SCAN H(P) scan @ 10 G
           1
     9.147920    0.000000    0.000000
     0.000000    3.084859    0.000000
     0.000000    0.000000    9.974035
   Al   C 
    16    12
Direct configuration=     1
   0.74180780  0.25000000  0.71778748
   0.75819220  0.75000000  0.21778748
   0.25819220  0.75000000  0.28221252
   0.24180780  0.25000000  0.78221252
   0.60773435  0.25000000  0.47600156
   0.89226565  0.75000000  0.97600156
   0.39226565  0.75000000  0.52399844
   0.10773435  0.25000000  0.02399844
   0.13395224  0.25000000  0.51776837
   0.36604776  0.75000000  0.01776837
   0.86604776  0.75000000  0.48223163
   0.63395224  0.25000000  0.98223163
   0.98665306  0.25000000  0.28172991
   0.51334694  0.75000000  0.78172991
   0.01334694  0.75000000  0.71827009
   0.48665306  0.25000000  0.21827009
   0.92953700  0.25000000  0.62149593
   0.57046300  0.75000000  0.12149593
   0.07046300  0.75000000  0.37850407
   0.42953700  0.25000000  0.87850407
   0.39591620  0.25000000  0.39991619
   0.10408380  0.75000000  0.89991619
   0.60408380  0.75000000  0.60008381
   0.89591620  0.25000000  0.10008381
   0.77447672  0.25000000  0.35773820
   0.72552328  0.75000000  0.85773820
   0.22552328  0.75000000  0.64226180
   0.27447672  0.25000000  0.14226180
Al4C3 Pnma-III - r2SCAN H(P) scan @ 10 G
           1
     9.039871    0.000000    0.000000
     0.000000    3.048422    0.000000
     0.000000    0.000000    9.856228
   Al   C 
    16    12
Direct configuration=     2
   0.74195499  0.25000000  0.71798059
   0.75804501  0.75000000  0.21798059
   0.25804501  0.75000000  0.28201941
   0.24195499  0.25000000  0.78201941
   0.60771912  0.25000000  0.47645734
   0.89228088  0.75000000  0.97645734
   0.39228088  0.75000000  0.52354266
   0.10771912  0.25000000  0.02354266
   0.13370199  0.25000000  0.51808295
   0.36629801  0.75000000  0.01808295
   0.86629801  0.75000000  0.48191705
   0.63370199  0.25000000  0.98191705
   0.98625259  0.25000000  0.28234444
   0.51374741  0.75000000  0.78234444
   0.01374741  0.75000000  0.71765556
   0.48625259  0.25000000  0.21765556
   0.92969009  0.25000000  0.62200697
   0.57030991  0.75000000  0.12200697
   0.07030991  0.75000000  0.37799303
   0.42969009  0.25000000  0.87799303
   0.39639875  0.25000000  0.40034827
   0.10360125  0.75000000  0.90034827
   0.60360125  0.75000000  0.59965173
   0.89639875  0.25000000  0.09965173
   0.77438449  0.25000000  0.35780815
   0.72561551  0.75000000  0.85780815
   0.22561551  0.75000000  0.64219185
   0.27438449  0.25000000  0.14219185
Al4C3 Pnma-III - r2SCAN H(P) scan @ 10 G
           1
     9.096087    0.000000    0.000000
     0.000000    3.067379    0.000000
     0.000000    0.000000    9.917521
   Al   C 
    16    12
Direct configuration=     3
   0.74187750  0.25000000  0.71787892
   0.75812250  0.75000000  0.21787892
   0.25812250  0.75000000  0.28212108
   0.24187750  0.25000000  0.78212108
   0.60772714  0.25000000  0.47621737
   0.89227286  0.75000000  0.97621737
   0.39227286  0.75000000  0.52378263
   0.10772714  0.25000000  0.02378263
   0.13383375  0.25000000  0.51791732
   0.36616625  0.75000000  0.01791732
   0.86616625  0.75000000  0.48208268
   0.63383375  0.25000000  0.98208268
   0.98646344  0.25000000  0.28202088
   0.51353656  0.75000000  0.78202088
   0.01353656  0.75000000  0.71797912
   0.48646344  0.25000000  0.21797912
   0.92960949  0.25000000  0.62173791
   0.57039051  0.75000000  0.12173791
   0.07039051  0.75000000  0.37826209
   0.42960949  0.25000000  0.87826209
   0.39614469  0.25000000  0.40012078
   0.10385531  0.75000000  0.90012078
   0.60385531  0.75000000  0.59987922
   0.89614469  0.25000000  0.09987922
   0.77443305  0.25000000  0.35777132
   0.72556695  0.75000000  0.85777132
   0.22556695  0.75000000  0.64222868
   0.27443305  0.25000000  0.14222868
Al4C3 Pnma-III - r2SCAN H(P) scan @ 10 G
           1
     9.095565    0.000000    0.000000
     0.000000    3.067203    0.000000
     0.000000    0.000000    9.916952
   Al   C 
    16    12
Direct configuration=     4
   0.74187821  0.25000000  0.71787986
   0.75812179  0.75000000  0.21787986
   0.25812179  0.75000000  0.28212014
   0.24187821  0.25000000  0.78212014
   0.60772706  0.25000000  0.47621959
   0.89227294  0.75000000  0.97621959
   0.39227294  0.75000000  0.52378041
   0.10772706  0.25000000  0.02378041
   0.13383253  0.25000000  0.51791885
   0.36616747  0.75000000  0.01791885
   0.86616747  0.75000000  0.48208115
   0.63383253  0.25000000  0.98208115
   0.98646149  0.25000000  0.28202387
   0.51353851  0.75000000  0.78202387
   0.01353851  0.75000000  0.71797613
   0.48646149  0.25000000  0.21797613
   0.92961023  0.25000000  0.62174039
   0.57038977  0.75000000  0.12174039
   0.07038977  0.75000000  0.37825961
   0.42961023  0.25000000  0.87825961
   0.39614703  0.25000000  0.40012288
   0.10385297  0.75000000  0.90012288
   0.60385297  0.75000000  0.59987712
   0.89614703  0.25000000  0.09987712
   0.77443260  0.25000000  0.35777166
   0.72556740  0.75000000  0.85777166
   0.22556740  0.75000000  0.64222834
   0.27443260  0.25000000  0.14222834
Al4C3 Pnma-III - r2SCAN H(P) scan @ 10 G
           1
     9.095700    0.000000    0.000000
     0.000000    3.067249    0.000000
     0.000000    0.000000    9.917099
   Al   C 
    16    12
Direct configuration=     5
   0.74187803  0.25000000  0.71787962
   0.75812197  0.75000000  0.21787962
   0.25812197  0.75000000  0.28212038
   0.24187803  0.25000000  0.78212038
   0.60772708  0.25000000  0.47621902
   0.89227292  0.75000000  0.97621902
   0.39227292  0.75000000  0.52378098
   0.10772708  0.25000000  0.02378098
   0.13383284  0.25000000  0.51791846
   0.36616716  0.75000000  0.01791846
   0.86616716  0.75000000  0.48208154
   0.63383284  0.25000000  0.98208154
   0.98646200  0.25000000  0.28202310
   0.51353800  0.75000000  0.78202310
   0.01353800  0.75000000  0.71797690
   0.48646200  0.25000000  0.21797690
   0.92961004  0.25000000  0.62173975
   0.57038996  0.75000000  0.12173975
   0.07038996  0.75000000  0.37826025
   0.42961004  0.25000000  0.87826025
   0.39614643  0.25000000  0.40012234
   0.10385357  0.75000000  0.90012234
   0.60385357  0.75000000  0.59987766
   0.89614643  0.25000000  0.09987766
   0.77443272  0.25000000  0.35777157
   0.72556728  0.75000000  0.85777157
   0.22556728  0.75000000  0.64222843
   0.27443272  0.25000000  0.14222843
Al4C3 Pnma-III - r2SCAN H(P) scan @ 10 G
           1
     9.095903    0.000000    0.000000
     0.000000    3.067317    0.000000
     0.000000    0.000000    9.917320
   Al   C 
    16    12
Direct configuration=     6
   0.74187775  0.25000000  0.71787925
   0.75812225  0.75000000  0.21787925
   0.25812225  0.75000000  0.28212075
   0.24187775  0.25000000  0.78212075
   0.60772711  0.25000000  0.47621815
   0.89227289  0.75000000  0.97621815
   0.39227289  0.75000000  0.52378185
   0.10772711  0.25000000  0.02378185
   0.13383332  0.25000000  0.51791786
   0.36616668  0.75000000  0.01791786
   0.86616668  0.75000000  0.48208214
   0.63383332  0.25000000  0.98208214
   0.98646275  0.25000000  0.28202194
   0.51353725  0.75000000  0.78202194
   0.01353725  0.75000000  0.71797806
   0.48646275  0.25000000  0.21797806
   0.92960975  0.25000000  0.62173879
   0.57039025  0.75000000  0.12173879
   0.07039025  0.75000000  0.37826121
   0.42960975  0.25000000  0.87826121
   0.39614552  0.25000000  0.40012152
   0.10385448  0.75000000  0.90012152
   0.60385448  0.75000000  0.59987848
   0.89614552  0.25000000  0.09987848
   0.77443289  0.25000000  0.35777144
   0.72556711  0.75000000  0.85777144
   0.22556711  0.75000000  0.64222856
   0.27443289  0.25000000  0.14222856
Al4C3 Pnma-III - r2SCAN H(P) scan @ 10 G
           1
     9.095813    0.000000    0.000000
     0.000000    3.067287    0.000000
     0.000000    0.000000    9.917222
   Al   C 
    16    12
Direct configuration=     7
   0.74187787  0.25000000  0.71787941
   0.75812213  0.75000000  0.21787941
   0.25812213  0.75000000  0.28212059
   0.24187787  0.25000000  0.78212059
   0.60772710  0.25000000  0.47621853
   0.89227290  0.75000000  0.97621853
   0.39227290  0.75000000  0.52378147
   0.10772710  0.25000000  0.02378147
   0.13383311  0.25000000  0.51791812
   0.36616689  0.75000000  0.01791812
   0.86616689  0.75000000  0.48208188
   0.63383311  0.25000000  0.98208188
   0.98646242  0.25000000  0.28202245
   0.51353758  0.75000000  0.78202245
   0.01353758  0.75000000  0.71797755
   0.48646242  0.25000000  0.21797755
   0.92960988  0.25000000  0.62173921
   0.57039012  0.75000000  0.12173921
   0.07039012  0.75000000  0.37826079
   0.42960988  0.25000000  0.87826079
   0.39614592  0.25000000  0.40012188
   0.10385408  0.75000000  0.90012188
   0.60385408  0.75000000  0.59987812
   0.89614592  0.25000000  0.09987812
   0.77443281  0.25000000  0.35777150
   0.72556719  0.75000000  0.85777150
   0.22556719  0.75000000  0.64222850
   0.27443281  0.25000000  0.14222850
Al4C3 Pnma-III - r2SCAN H(P) scan @ 10 G
           1
     9.095758    0.000000    0.000000
     0.000000    3.067268    0.000000
     0.000000    0.000000    9.917162
   Al   C 
    16    12
Direct configuration=     8
   0.74180105  0.25000000  0.71797536
   0.75819895  0.75000000  0.21797536
   0.25819895  0.75000000  0.28202464
   0.24180105  0.25000000  0.78202464
   0.60768219  0.25000000  0.47627054
   0.89231781  0.75000000  0.97627054
   0.39231781  0.75000000  0.52372946
   0.10768219  0.25000000  0.02372946
   0.13396569  0.25000000  0.51796035
   0.36603431  0.75000000  0.01796035
   0.86603431  0.75000000  0.48203965
   0.63396569  0.25000000  0.98203965
   0.98629810  0.25000000  0.28201497
   0.51370190  0.75000000  0.78201497
   0.01370190  0.75000000  0.71798503
   0.48629810  0.25000000  0.21798503
   0.92970457  0.25000000  0.62175196
   0.57029543  0.75000000  0.12175196
   0.07029543  0.75000000  0.37824804
   0.42970457  0.25000000  0.87824804
   0.39613451  0.25000000  0.40006664
   0.10386549  0.75000000  0.90006664
   0.60386549  0.75000000  0.59993336
   0.89613451  0.25000000  0.09993336
   0.77436531  0.25000000  0.35777475
   0.72563469  0.75000000  0.85777475
   0.22563469  0.75000000  0.64222525
   0.27436531  0.25000000  0.14222525
Al4C3 Pnma-III - r2SCAN H(P) scan @ 10 G
           1
     9.095760    0.000000    0.000000
     0.000000    3.067269    0.000000
     0.000000    0.000000    9.917164
   Al   C 
    16    12
Direct configuration=     9
   0.74180408  0.25000000  0.71797157
   0.75819592  0.75000000  0.21797157
   0.25819592  0.75000000  0.28202843
   0.24180408  0.25000000  0.78202843
   0.60768396  0.25000000  0.47626849
   0.89231604  0.75000000  0.97626849
   0.39231604  0.75000000  0.52373151
   0.10768396  0.25000000  0.02373151
   0.13396045  0.25000000  0.51795868
   0.36603955  0.75000000  0.01795868
   0.86603955  0.75000000  0.48204132
   0.63396045  0.25000000  0.98204132
   0.98630460  0.25000000  0.28201527
   0.51369540  0.75000000  0.78201527
   0.01369540  0.75000000  0.71798473
   0.48630460  0.25000000  0.21798473
   0.92970082  0.25000000  0.62175146
   0.57029918  0.75000000  0.12175146
   0.07029918  0.75000000  0.37824854
   0.42970082  0.25000000  0.87824854
   0.39613496  0.25000000  0.40006882
   0.10386504  0.75000000  0.90006882
   0.60386504  0.75000000  0.59993118
   0.89613496  0.25000000  0.09993118
   0.77436798  0.25000000  0.35777462
   0.72563202  0.75000000  0.85777462
   0.22563202  0.75000000  0.64222538
   0.27436798  0.25000000  0.14222538
Al4C3 Pnma-III - r2SCAN H(P) scan @ 10 G
           1
     9.096063    0.000000    0.000000
     0.000000    3.067371    0.000000
     0.000000    0.000000    9.917495
   Al   C 
    16    12
Direct configuration=    10
   0.74188204  0.25000000  0.71802222
   0.75811796  0.75000000  0.21802222
   0.25811796  0.75000000  0.28197778
   0.24188204  0.25000000  0.78197778
   0.60766273  0.25000000  0.47631070
   0.89233727  0.75000000  0.97631070
   0.39233727  0.75000000  0.52368930
   0.10766273  0.25000000  0.02368930
   0.13403446  0.25000000  0.51792731
   0.36596554  0.75000000  0.01792731
   0.86596554  0.75000000  0.48207269
   0.63403446  0.25000000  0.98207269
   0.98622191  0.25000000  0.28209729
   0.51377809  0.75000000  0.78209729
   0.01377809  0.75000000  0.71790271
   0.48622191  0.25000000  0.21790271
   0.92974503  0.25000000  0.62181400
   0.57025497  0.75000000  0.12181400
   0.07025497  0.75000000  0.37818600
   0.42974503  0.25000000  0.87818600
   0.39611442  0.25000000  0.40005425
   0.10388558  0.75000000  0.90005425
   0.60388558  0.75000000  0.59994575
   0.89611442  0.25000000  0.09994575
   0.77425492  0.25000000  0.35781252
   0.72574508  0.75000000  0.85781252
   0.22574508  0.75000000  0.64218748
   0.27425492  0.25000000  0.14218748
Al4C3 Pnma-III - r2SCAN H(P) scan @ 10 G
           1
     9.096390    0.000000    0.000000
     0.000000    3.067481    0.000000
     0.000000    0.000000    9.917851
   Al   C 
    16    12
Direct configuration=    11
   0.74196605  0.25000000  0.71807680
   0.75803395  0.75000000  0.21807680
   0.25803395  0.75000000  0.28192320
   0.24196605  0.25000000  0.78192320
   0.60763986  0.25000000  0.47635619
   0.89236014  0.75000000  0.97635619
   0.39236014  0.75000000  0.52364381
   0.10763986  0.25000000  0.02364381
   0.13411421  0.25000000  0.51789350
   0.36588579  0.75000000  0.01789350
   0.86588579  0.75000000  0.48210650
   0.63411421  0.25000000  0.98210650
   0.98613280  0.25000000  0.28218569
   0.51386720  0.75000000  0.78218569
   0.01386720  0.75000000  0.71781431
   0.48613280  0.25000000  0.21781431
   0.92979266  0.25000000  0.62188139
   0.57020734  0.75000000  0.12188139
   0.07020734  0.75000000  0.37811861
   0.42979266  0.25000000  0.87811861
   0.39609228  0.25000000  0.40003854
   0.10390772  0.75000000  0.90003854
   0.60390772  0.75000000  0.59996146
   0.89609228  0.25000000  0.09996146
   0.77413307  0.25000000  0.35785336
   0.72586693  0.75000000  0.85785336
   0.22586693  0.75000000  0.64214664
   0.27413307  0.25000000  0.14214664
Al4C3 Pnma-III - r2SCAN H(P) scan @ 10 G
           1
     9.096507    0.000000    0.000000
     0.000000    3.067521    0.000000
     0.000000    0.000000    9.917979
   Al   C 
    16    12
Direct configuration=    12
   0.74210535  0.25000000  0.71812586
   0.75789465  0.75000000  0.21812586
   0.25789465  0.75000000  0.28187414
   0.24210535  0.25000000  0.78187414
   0.60758390  0.25000000  0.47640870
   0.89241610  0.75000000  0.97640870
   0.39241610  0.75000000  0.52359130
   0.10758390  0.25000000  0.02359130
   0.13417305  0.25000000  0.51780697
   0.36582695  0.75000000  0.01780697
   0.86582695  0.75000000  0.48219303
   0.63417305  0.25000000  0.98219303
   0.98601875  0.25000000  0.28220966
   0.51398125  0.75000000  0.78220966
   0.01398125  0.75000000  0.71779034
   0.48601875  0.25000000  0.21779034
   0.92983926  0.25000000  0.62186727
   0.57016074  0.75000000  0.12186727
   0.07016074  0.75000000  0.37813273
   0.42983926  0.25000000  0.87813273
   0.39605279  0.25000000  0.39999361
   0.10394721  0.75000000  0.89999361
   0.60394721  0.75000000  0.60000639
   0.89605279  0.25000000  0.10000639
   0.77410509  0.25000000  0.35787808
   0.72589491  0.75000000  0.85787808
   0.22589491  0.75000000  0.64212192
   0.27410509  0.25000000  0.14212192
Al4C3 Pnma-III - r2SCAN H(P) scan @ 10 G
           1
     9.096625    0.000000    0.000000
     0.000000    3.067561    0.000000
     0.000000    0.000000    9.918108
   Al   C 
    16    12
Direct configuration=    13
   0.74224541  0.25000000  0.71817519
   0.75775459  0.75000000  0.21817519
   0.25775459  0.75000000  0.28182481
   0.24224541  0.25000000  0.78182481
   0.60752764  0.25000000  0.47646149
   0.89247236  0.75000000  0.97646149
   0.39247236  0.75000000  0.52353851
   0.10752764  0.25000000  0.02353851
   0.13423221  0.25000000  0.51771997
   0.36576779  0.75000000  0.01771997
   0.86576779  0.75000000  0.48228003
   0.63423221  0.25000000  0.98228003
   0.98590408  0.25000000  0.28223377
   0.51409592  0.75000000  0.78223377
   0.01409592  0.75000000  0.71776623
   0.48590408  0.25000000  0.21776623
   0.92988611  0.25000000  0.62185307
   0.57011389  0.75000000  0.12185307
   0.07011389  0.75000000  0.37814693
   0.42988611  0.25000000  0.87814693
   0.39601308  0.25000000  0.39994842
   0.10398692  0.75000000  0.89994842
   0.60398692  0.75000000  0.60005158
   0.89601308  0.25000000  0.10005158
   0.77407696  0.25000000  0.35790294
   0.72592304  0.75000000  0.85790294
   0.22592304  0.75000000  0.64209706
   0.27407696  0.25000000  0.14209706
Al4C3 Pnma-III - r2SCAN H(P) scan @ 10 G
           1
     9.096367    0.000000    0.000000
     0.000000    3.067474    0.000000
     0.000000    0.000000    9.917826
   Al   C 
    16    12
Direct configuration=    14
   0.74235006  0.25000000  0.71825560
   0.75764994  0.75000000  0.21825560
   0.25764994  0.75000000  0.28174440
   0.24235006  0.25000000  0.78174440
   0.60758665  0.25000000  0.47645016
   0.89241335  0.75000000  0.97645016
   0.39241335  0.75000000  0.52354984
   0.10758665  0.25000000  0.02354984
   0.13424244  0.25000000  0.51764723
   0.36575756  0.75000000  0.01764723
   0.86575756  0.75000000  0.48235277
   0.63424244  0.25000000  0.98235277
   0.98580336  0.25000000  0.28223505
   0.51419664  0.75000000  0.78223505
   0.01419664  0.75000000  0.71776495
   0.48580336  0.25000000  0.21776495
   0.92994281  0.25000000  0.62179351
   0.57005719  0.75000000  0.12179351
   0.07005719  0.75000000  0.37820649
   0.42994281  0.25000000  0.87820649
   0.39598343  0.25000000  0.39997185
   0.10401657  0.75000000  0.89997185
   0.60401657  0.75000000  0.60002815
   0.89598343  0.25000000  0.10002815
   0.77406459  0.25000000  0.35794254
   0.72593541  0.75000000  0.85794254
   0.22593541  0.75000000  0.64205746
   0.27406459  0.25000000  0.14205746
