  14  14   0   0
  0.7987738E+01  0.8273014E-09  0.4776910E-09  0.2829704E-09  0.5000000E-15
  1.000000000000000E-004
  CAR 
 Al4C3 Pbam - H(P) scan @ 90 GPa (ISIF=8)
     23.16994022     -5.68502789  301     12.64295848      1.00000000
     -5.685  0.0000E+00  0.0000E+00
     -5.589  0.0000E+00  0.0000E+00
     -5.493  0.0000E+00  0.0000E+00
     -5.396  0.0000E+00  0.0000E+00
     -5.300  0.0000E+00  0.0000E+00
     -5.204  0.0000E+00  0.0000E+00
     -5.108  0.0000E+00  0.0000E+00
     -5.012  0.0000E+00  0.0000E+00
     -4.916  0.0000E+00  0.0000E+00
     -4.819  0.0000E+00  0.0000E+00
     -4.723  0.0000E+00  0.0000E+00
     -4.627  0.1142E-15  0.1099E-16
     -4.531  0.1318E-08  0.1268E-09
     -4.435  0.1290E-04  0.1241E-05
     -4.338  0.2692E-03  0.2714E-04
     -4.242  0.1299E-02  0.1520E-03
     -4.146  0.2377E-02  0.3807E-03
     -4.050  0.2638E-02  0.6344E-03
     -3.954  0.2023E-02  0.8289E-03
     -3.858  0.2052E-02  0.1026E-02
     -3.761  0.6363E-02  0.1638E-02
     -3.665  0.6439E-02  0.2258E-02
     -3.569  0.1603E-02  0.2412E-02
     -3.473  0.1847E-02  0.2589E-02
     -3.377  0.5120E-02  0.3082E-02
     -3.280  0.7915E-02  0.3843E-02
     -3.184  0.6626E-02  0.4480E-02
     -3.088  0.6024E-02  0.5060E-02
     -2.992  0.3670E-02  0.5413E-02
     -2.896  0.6996E-02  0.6086E-02
     -2.800  0.1120E-01  0.7163E-02
     -2.703  0.4886E-02  0.7633E-02
     -2.607  0.4372E-02  0.8054E-02
     -2.511  0.7778E-02  0.8802E-02
     -2.415  0.7264E-02  0.9500E-02
     -2.319  0.8503E-02  0.1032E-01
     -2.222  0.7702E-02  0.1106E-01
     -2.126  0.4476E-02  0.1149E-01
     -2.030  0.8053E-02  0.1226E-01
     -1.934  0.7695E-02  0.1300E-01
     -1.838  0.6576E-02  0.1364E-01
     -1.742  0.5758E-02  0.1419E-01
     -1.645  0.5003E-02  0.1467E-01
     -1.549  0.1481E-01  0.1610E-01
     -1.453  0.1380E-01  0.1742E-01
     -1.357  0.8054E-02  0.1820E-01
     -1.261  0.6468E-02  0.1882E-01
     -1.164  0.1191E-01  0.1997E-01
     -1.068  0.1676E-01  0.2158E-01
     -0.972  0.5640E-02  0.2212E-01
     -0.876  0.5834E-02  0.2268E-01
     -0.780  0.8935E-02  0.2354E-01
     -0.684  0.1332E-01  0.2482E-01
     -0.587  0.1296E-01  0.2607E-01
     -0.491  0.1229E-01  0.2725E-01
     -0.395  0.1379E-01  0.2858E-01
     -0.299  0.1425E-01  0.2995E-01
     -0.203  0.1216E-01  0.3112E-01
     -0.106  0.1675E-01  0.3273E-01
     -0.010  0.1429E-01  0.3410E-01
      0.086  0.1786E-01  0.3582E-01
      0.182  0.1890E-01  0.3764E-01
      0.278  0.2113E-01  0.3967E-01
      0.375  0.1994E-01  0.4159E-01
      0.471  0.2700E-01  0.4419E-01
      0.567  0.1840E-01  0.4596E-01
      0.663  0.1020E-01  0.4694E-01
      0.759  0.1776E-01  0.4865E-01
      0.855  0.1146E-01  0.4975E-01
      0.952  0.6413E-02  0.5037E-01
      1.048  0.1108E-01  0.5143E-01
      1.144  0.1314E-01  0.5269E-01
      1.240  0.9638E-02  0.5362E-01
      1.336  0.5829E-02  0.5418E-01
      1.433  0.6151E-02  0.5477E-01
      1.529  0.1011E-01  0.5575E-01
      1.625  0.8163E-02  0.5653E-01
      1.721  0.4405E-02  0.5695E-01
      1.817  0.3181E-02  0.5726E-01
      1.913  0.4026E-02  0.5765E-01
      2.010  0.3258E-02  0.5796E-01
      2.106  0.4403E-02  0.5838E-01
      2.202  0.2740E-02  0.5865E-01
      2.298  0.2968E-02  0.5893E-01
      2.394  0.1428E-02  0.5907E-01
      2.491  0.1569E-02  0.5922E-01
      2.587  0.2159E-02  0.5943E-01
      2.683  0.8471E-03  0.5951E-01
      2.779  0.2152E-02  0.5972E-01
      2.875  0.1135E-02  0.5983E-01
      2.971  0.5816E-03  0.5988E-01
      3.068  0.1880E-02  0.6006E-01
      3.164  0.2899E-02  0.6034E-01
      3.260  0.2687E-02  0.6060E-01
      3.356  0.2814E-02  0.6087E-01
      3.452  0.5740E-02  0.6142E-01
      3.549  0.8018E-02  0.6220E-01
      3.645  0.7626E-02  0.6293E-01
      3.741  0.1540E-01  0.6441E-01
      3.837  0.1868E-01  0.6621E-01
      3.933  0.1415E-01  0.6757E-01
      4.029  0.1993E-01  0.6948E-01
      4.126  0.1101E-01  0.7054E-01
      4.222  0.1455E-01  0.7194E-01
      4.318  0.2031E-01  0.7390E-01
      4.414  0.2066E-01  0.7588E-01
      4.510  0.2149E-01  0.7795E-01
      4.607  0.2321E-01  0.8018E-01
      4.703  0.2223E-01  0.8232E-01
      4.799  0.1368E-01  0.8364E-01
      4.895  0.1342E-01  0.8493E-01
      4.991  0.1193E-01  0.8607E-01
      5.087  0.1149E-01  0.8718E-01
      5.184  0.1357E-01  0.8848E-01
      5.280  0.1376E-01  0.8981E-01
      5.376  0.1862E-01  0.9160E-01
      5.472  0.2003E-01  0.9353E-01
      5.568  0.1924E-01  0.9538E-01
      5.665  0.1999E-01  0.9730E-01
      5.761  0.1683E-01  0.9892E-01
      5.857  0.2128E-01  0.1010E+00
      5.953  0.1527E-01  0.1024E+00
      6.049  0.1434E-01  0.1038E+00
      6.146  0.1875E-01  0.1056E+00
      6.242  0.1978E-01  0.1075E+00
      6.338  0.2016E-01  0.1095E+00
      6.434  0.1222E-01  0.1106E+00
      6.530  0.1494E-01  0.1121E+00
      6.626  0.1863E-01  0.1139E+00
      6.723  0.1451E-01  0.1153E+00
      6.819  0.2848E-01  0.1180E+00
      6.915  0.1998E-01  0.1199E+00
      7.011  0.1674E-01  0.1215E+00
      7.107  0.2014E-01  0.1235E+00
      7.204  0.2033E-01  0.1254E+00
      7.300  0.1716E-01  0.1271E+00
      7.396  0.1797E-01  0.1288E+00
      7.492  0.2227E-01  0.1309E+00
      7.588  0.2129E-01  0.1330E+00
      7.684  0.1974E-01  0.1349E+00
      7.781  0.2195E-01  0.1370E+00
      7.877  0.2167E-01  0.1391E+00
      7.973  0.1995E-01  0.1410E+00
      8.069  0.2258E-01  0.1432E+00
      8.165  0.2213E-01  0.1453E+00
      8.262  0.2315E-01  0.1475E+00
      8.358  0.2214E-01  0.1497E+00
      8.454  0.2743E-01  0.1523E+00
      8.550  0.1079E-01  0.1533E+00
      8.646  0.1210E-01  0.1545E+00
      8.742  0.1614E-01  0.1561E+00
      8.839  0.3294E-01  0.1592E+00
      8.935  0.2188E-01  0.1613E+00
      9.031  0.2569E-01  0.1638E+00
      9.127  0.1991E-01  0.1657E+00
      9.223  0.1519E-01  0.1672E+00
      9.320  0.2000E-01  0.1691E+00
      9.416  0.2636E-01  0.1716E+00
      9.512  0.2561E-01  0.1741E+00
      9.608  0.1878E-01  0.1759E+00
      9.704  0.2160E-01  0.1780E+00
      9.800  0.2514E-01  0.1804E+00
      9.897  0.2271E-01  0.1826E+00
      9.993  0.1684E-01  0.1842E+00
     10.089  0.2364E-01  0.1865E+00
     10.185  0.2560E-01  0.1889E+00
     10.281  0.2630E-01  0.1915E+00
     10.378  0.2946E-01  0.1943E+00
     10.474  0.2113E-01  0.1963E+00
     10.570  0.2238E-01  0.1985E+00
     10.666  0.2992E-01  0.2014E+00
     10.762  0.3002E-01  0.2042E+00
     10.858  0.2337E-01  0.2065E+00
     10.955  0.2687E-01  0.2091E+00
     11.051  0.2032E-01  0.2110E+00
     11.147  0.2373E-01  0.2133E+00
     11.243  0.2092E-01  0.2153E+00
     11.339  0.2542E-01  0.2178E+00
     11.436  0.3054E-01  0.2207E+00
     11.532  0.2689E-01  0.2233E+00
     11.628  0.2857E-01  0.2260E+00
     11.724  0.2926E-01  0.2289E+00
     11.820  0.2538E-01  0.2313E+00
     11.917  0.2121E-01  0.2333E+00
     12.013  0.1997E-01  0.2353E+00
     12.109  0.1212E-01  0.2364E+00
     12.205  0.1176E-01  0.2376E+00
     12.301  0.6593E-02  0.2382E+00
     12.397  0.9289E-02  0.2391E+00
     12.494  0.4324E-02  0.2395E+00
     12.590  0.3399E-02  0.2398E+00
     12.686  0.3446E-02  0.2402E+00
     12.782  0.3624E-02  0.2405E+00
     12.878  0.1166E-02  0.2406E+00
     12.975  0.1036E-03  0.2406E+00
     13.071  0.1955E-02  0.2408E+00
     13.167  0.8189E-03  0.2409E+00
     13.263  0.2176E-02  0.2411E+00
     13.359  0.4946E-03  0.2412E+00
     13.455  0.8224E-03  0.2412E+00
     13.552  0.1453E-02  0.2414E+00
     13.648  0.4788E-02  0.2418E+00
     13.744  0.2663E-02  0.2421E+00
     13.840  0.3459E-02  0.2424E+00
     13.936  0.2070E-02  0.2426E+00
     14.033  0.5269E-02  0.2431E+00
     14.129  0.1817E-02  0.2433E+00
     14.225  0.2246E-02  0.2435E+00
     14.321  0.6342E-02  0.2441E+00
     14.417  0.5950E-02  0.2447E+00
     14.513  0.1826E-02  0.2449E+00
     14.610  0.2055E-02  0.2451E+00
     14.706  0.2063E-02  0.2453E+00
     14.802  0.5241E-02  0.2458E+00
     14.898  0.8615E-02  0.2466E+00
     14.994  0.1050E-01  0.2476E+00
     15.091  0.8158E-02  0.2484E+00
     15.187  0.5925E-02  0.2490E+00
     15.283  0.1057E-01  0.2500E+00
     15.379  0.1112E-01  0.2511E+00
     15.475  0.1308E-01  0.2523E+00
     15.571  0.1250E-01  0.2535E+00
     15.668  0.1838E-01  0.2553E+00
     15.764  0.9394E-02  0.2562E+00
     15.860  0.2118E-01  0.2582E+00
     15.956  0.1937E-01  0.2601E+00
     16.052  0.1252E-01  0.2613E+00
     16.149  0.1276E-01  0.2625E+00
     16.245  0.1286E-01  0.2638E+00
     16.341  0.1288E-01  0.2650E+00
     16.437  0.1870E-01  0.2668E+00
     16.533  0.1662E-01  0.2684E+00
     16.629  0.1649E-01  0.2700E+00
     16.726  0.2354E-01  0.2722E+00
     16.822  0.2413E-01  0.2746E+00
     16.918  0.1385E-01  0.2759E+00
     17.014  0.1518E-01  0.2774E+00
     17.110  0.7455E-02  0.2781E+00
     17.207  0.1311E-01  0.2793E+00
     17.303  0.1474E-01  0.2808E+00
     17.399  0.8413E-02  0.2816E+00
     17.495  0.7685E-02  0.2823E+00
     17.591  0.1219E-01  0.2835E+00
     17.687  0.2057E-01  0.2855E+00
     17.784  0.1564E-01  0.2870E+00
     17.880  0.7872E-02  0.2877E+00
     17.976  0.1877E-01  0.2895E+00
     18.072  0.1691E-01  0.2911E+00
     18.168  0.1156E-01  0.2923E+00
     18.265  0.1557E-01  0.2938E+00
     18.361  0.2027E-01  0.2957E+00
     18.457  0.1934E-01  0.2976E+00
     18.553  0.2212E-01  0.2997E+00
     18.649  0.2635E-01  0.3022E+00
     18.746  0.2614E-01  0.3047E+00
     18.842  0.2206E-01  0.3069E+00
     18.938  0.2449E-01  0.3092E+00
     19.034  0.1881E-01  0.3110E+00
     19.130  0.1930E-01  0.3129E+00
     19.226  0.1462E-01  0.3143E+00
     19.323  0.2357E-01  0.3166E+00
     19.419  0.2898E-01  0.3193E+00
     19.515  0.2357E-01  0.3216E+00
     19.611  0.1496E-01  0.3231E+00
     19.707  0.2700E-01  0.3257E+00
     19.804  0.2299E-01  0.3279E+00
     19.900  0.2123E-01  0.3299E+00
     19.996  0.1828E-01  0.3317E+00
     20.092  0.2170E-01  0.3337E+00
     20.188  0.2657E-01  0.3363E+00
     20.284  0.2100E-01  0.3383E+00
     20.381  0.2195E-01  0.3404E+00
     20.477  0.2300E-01  0.3426E+00
     20.573  0.1975E-01  0.3445E+00
     20.669  0.2074E-01  0.3465E+00
     20.765  0.1775E-01  0.3482E+00
     20.862  0.1906E-01  0.3501E+00
     20.958  0.2530E-01  0.3525E+00
     21.054  0.1891E-01  0.3543E+00
     21.150  0.1663E-01  0.3559E+00
     21.246  0.1168E-01  0.3571E+00
     21.342  0.9216E-02  0.3579E+00
     21.439  0.1002E-01  0.3589E+00
     21.535  0.4877E-02  0.3594E+00
     21.631  0.1278E-02  0.3595E+00
     21.727  0.2204E-02  0.3597E+00
     21.823  0.1826E-02  0.3599E+00
     21.920  0.1138E-02  0.3600E+00
     22.016  0.3019E-04  0.3600E+00
     22.112  0.2675E-08  0.3600E+00
     22.208  0.2287E-15  0.3600E+00
     22.304  0.0000E+00  0.3600E+00
     22.400  0.0000E+00  0.3600E+00
     22.497  0.0000E+00  0.3600E+00
     22.593  0.0000E+00  0.3600E+00
     22.689  0.0000E+00  0.3600E+00
     22.785  0.0000E+00  0.3600E+00
     22.881  0.0000E+00  0.3600E+00
     22.978  0.0000E+00  0.3600E+00
     23.074  0.0000E+00  0.3600E+00
     23.170  0.0000E+00  0.3600E+00
