       N       E                     dE             d eps       ncg     rms          rms(c)
DAV:   1    -0.774750219057E+02   -0.77475E+02   -0.35088E-05  5520   0.659E-02    0.898E-03
DAV:   2    -0.774750236686E+02   -0.17629E-05   -0.46853E-07  3096   0.586E-03
   1 F= -.14657070E+02 E0= -.14656645E+02  d E =-.146571E+02
       N       E                     dE             d eps       ncg     rms          rms(c)
DAV:   1    -0.728701106343E+02    0.46049E+01   -0.65071E+00  7044   0.144E+01    0.284E+00
DAV:   2    -0.727089368020E+02    0.16117E+00   -0.37772E-01  7368   0.276E+00    0.132E+00
DAV:   3    -0.726955628288E+02    0.13374E-01   -0.48977E-02  7416   0.965E-01    0.406E-01
DAV:   4    -0.726937475077E+02    0.18153E-02   -0.24448E-03  7356   0.227E-01    0.124E-01
DAV:   5    -0.726934662448E+02    0.28126E-03   -0.19936E-04  7500   0.699E-02    0.808E-02
DAV:   6    -0.726934431779E+02    0.23067E-04   -0.36672E-05  7248   0.297E-02    0.114E-02
DAV:   7    -0.726934455601E+02   -0.23822E-05   -0.36107E-06  4140   0.104E-02
   2 F= -.14279965E+02 E0= -.14279626E+02  d E =0.377105E+00
       N       E                     dE             d eps       ncg     rms          rms(c)
DAV:   1    -0.763494560101E+02   -0.36560E+01   -0.31859E+00  7104   0.979E+00    0.200E+00
DAV:   2    -0.762675510521E+02    0.81905E-01   -0.19042E-01  7320   0.194E+00    0.930E-01
DAV:   3    -0.762606248618E+02    0.69262E-02   -0.28595E-02  7440   0.705E-01    0.278E-01
DAV:   4    -0.762595826637E+02    0.10422E-02   -0.19735E-03  7344   0.185E-01    0.901E-02
DAV:   5    -0.762593727370E+02    0.20993E-03   -0.29043E-04  7464   0.732E-02    0.563E-02
DAV:   6    -0.762593448028E+02    0.27934E-04   -0.43334E-05  7008   0.282E-02    0.158E-02
DAV:   7    -0.762593408299E+02    0.39729E-05   -0.50528E-06  3720   0.105E-02
   3 F= -.14730873E+02 E0= -.14730479E+02  d E =-.738028E-01
       N       E                     dE             d eps       ncg     rms          rms(c)
DAV:   1    -0.762370404810E+02    0.22304E-01   -0.15887E-04  7008   0.689E-02    0.140E-02
DAV:   2    -0.762370379795E+02    0.25015E-05   -0.88267E-06  3444   0.135E-02
   4 F= -.14730898E+02 E0= -.14730504E+02  d E =-.738276E-01
       N       E                     dE             d eps       ncg     rms          rms(c)
DAV:   1    -0.762339271493E+02    0.31133E-02   -0.14771E-06  3216   0.656E-03    0.397E-03
DAV:   2    -0.762339275375E+02   -0.38819E-06   -0.22705E-07  3048   0.203E-03
   5 F= -.14730899E+02 E0= -.14730505E+02  d E =-.738286E-01
       N       E                     dE             d eps       ncg     rms          rms(c)
DAV:   1    -0.762352038318E+02   -0.12767E-02   -0.63221E-07  3024   0.445E-03    0.713E-04
DAV:   2    -0.762352038280E+02    0.38617E-08   -0.38041E-08  3024   0.103E-03
   6 F= -.14730899E+02 E0= -.14730506E+02  d E =-.738292E-01
       N       E                     dE             d eps       ncg     rms          rms(c)
DAV:   1    -0.762191013045E+02    0.16103E-01   -0.10265E-01  6072   0.166E+00    0.709E-02
DAV:   2    -0.762189789209E+02    0.12238E-03   -0.17321E-03  7848   0.216E-01    0.420E-02
DAV:   3    -0.762189306801E+02    0.48241E-04   -0.15230E-04  7404   0.679E-02    0.172E-02
DAV:   4    -0.762189311275E+02   -0.44747E-06   -0.38952E-05  5700   0.275E-02
   7 F= -.14731738E+02 E0= -.14731335E+02  d E =-.838295E-03
       N       E                     dE             d eps       ncg     rms          rms(c)
DAV:   1    -0.762210510404E+02   -0.21204E-02   -0.15743E-03  6048   0.205E-01    0.885E-03
DAV:   2    -0.762210489453E+02    0.20951E-05   -0.26920E-05  7032   0.272E-02
   8 F= -.14731756E+02 E0= -.14731355E+02  d E =-.856808E-03
       N       E                     dE             d eps       ncg     rms          rms(c)
DAV:   1    -0.762238304637E+02   -0.27794E-02   -0.10035E-02  6048   0.517E-01    0.226E-02
DAV:   2    -0.762238219815E+02    0.84822E-05   -0.14609E-04  7836   0.679E-02    0.127E-02
DAV:   3    -0.762238156308E+02    0.63507E-05   -0.25383E-05  5892   0.299E-02
   9 F= -.14731886E+02 E0= -.14731479E+02  d E =-.130003E-03
       N       E                     dE             d eps       ncg     rms          rms(c)
DAV:   1    -0.762246157146E+02   -0.79373E-03   -0.92659E-04  6072   0.159E-01    0.813E-03
DAV:   2    -0.762246149842E+02    0.73046E-06   -0.14693E-05  5508   0.217E-02
  10 F= -.14731897E+02 E0= -.14731486E+02  d E =-.140710E-03
       N       E                     dE             d eps       ncg     rms          rms(c)
DAV:   1    -0.762159912869E+02    0.86244E-02   -0.15076E-03  6180   0.211E-01    0.116E-02
DAV:   2    -0.762159918037E+02   -0.51676E-06   -0.21584E-05  6480   0.255E-02
  11 F= -.14731988E+02 E0= -.14731570E+02  d E =-.910600E-04
       N       E                     dE             d eps       ncg     rms          rms(c)
DAV:   1    -0.762127398139E+02    0.32515E-02   -0.21634E-04  6264   0.796E-02    0.682E-03
DAV:   2    -0.762127399646E+02   -0.15071E-06   -0.25607E-06  4908   0.915E-03
  12 F= -.14731996E+02 E0= -.14731575E+02  d E =-.985906E-04
       N       E                     dE             d eps       ncg     rms          rms(c)
DAV:   1    -0.762234821008E+02   -0.10742E-01   -0.16849E-03  6060   0.217E-01    0.116E-02
DAV:   2    -0.762234785197E+02    0.35811E-05   -0.42476E-05  7932   0.358E-02
  13 F= -.14732024E+02 E0= -.14731595E+02  d E =-.280241E-04
