Al4C3 Pbam - H(P) scan @ 90 GPa (ISIF=8)
           1
     8.273014    0.000000    0.000000
     0.000000    4.776910    0.000000
     0.000000    0.000000    2.829704
   Al   C 
     8     6
Direct configuration=     1
   0.78591649  0.16039641  0.00000000
   0.21408351  0.83960359  0.00000000
   0.71408351  0.66039641  0.00000000
   0.28591649  0.33960359  0.00000000
   0.03287933  0.25289362  0.50000000
   0.96712070  0.74710638  0.50000000
   0.46712067  0.75289362  0.50000000
   0.53287930  0.24710638  0.50000000
   0.00000000  0.00000000  0.00000000
   0.50000000  0.50000000  0.00000000
   0.82378741  0.44435799  0.50000000
   0.17621259  0.55564201  0.50000000
   0.67621259  0.94435799  0.50000000
   0.32378741  0.05564201  0.50000000
Al4C3 Pbam - H(P) scan @ 90 GPa (ISIF=8)
           1
     8.074957    0.000000    0.000000
     0.000000    4.662550    0.000000
     0.000000    0.000000    2.761961
   Al   C 
     8     6
Direct configuration=     2
   0.78592320  0.16031418  0.00000000
   0.21407680  0.83968582  0.00000000
   0.71407680  0.66031418 -0.00000000
   0.28592320  0.33968582  0.00000000
   0.03288823  0.25287722  0.50000000
   0.96711179  0.74712278  0.50000000
   0.46711176  0.75287722  0.50000000
   0.53288821  0.24712278  0.50000000
   0.00000000  0.00000000  0.00000000
   0.50000000  0.50000000  0.00000000
   0.82375715  0.44434091  0.50000000
   0.17624285  0.55565909  0.50000000
   0.67624285  0.94434091  0.50000000
   0.32375715  0.05565909  0.50000000
Al4C3 Pbam - H(P) scan @ 90 GPa (ISIF=8)
           1
     8.216015    0.000000    0.000000
     0.000000    4.743998    0.000000
     0.000000    0.000000    2.810208
   Al   C 
     8     6
Direct configuration=     3
   0.78591831  0.16037418  0.00000000
   0.21408169  0.83962582  0.00000000
   0.71408169  0.66037418 -0.00000000
   0.28591831  0.33962582  0.00000000
   0.03288173  0.25288919  0.50000000
   0.96711829  0.74711081  0.50000000
   0.46711826  0.75288919  0.50000000
   0.53288171  0.24711081  0.50000000
   0.00000000  0.00000000  0.00000000
   0.50000000  0.50000000  0.00000000
   0.82377923  0.44435337  0.50000000
   0.17622077  0.55564663  0.50000000
   0.67622077  0.94435337  0.50000000
   0.32377923  0.05564663  0.50000000
Al4C3 Pbam - H(P) scan @ 90 GPa (ISIF=8)
           1
     8.215021    0.000000    0.000000
     0.000000    4.743424    0.000000
     0.000000    0.000000    2.809868
   Al   C 
     8     6
Direct configuration=     4
   0.78591834  0.16037377  0.00000000
   0.21408166  0.83962623  0.00000000
   0.71408166  0.66037377 -0.00000000
   0.28591834  0.33962623  0.00000000
   0.03288178  0.25288911  0.50000000
   0.96711825  0.74711089  0.50000000
   0.46711822  0.75288911  0.50000000
   0.53288175  0.24711089  0.50000000
   0.00000000  0.00000000  0.00000000
   0.50000000  0.50000000  0.00000000
   0.82377908  0.44435329  0.50000000
   0.17622092  0.55564671  0.50000000
   0.67622092  0.94435329  0.50000000
   0.32377908  0.05564671  0.50000000
Al4C3 Pbam - H(P) scan @ 90 GPa (ISIF=8)
           1
     8.214882    0.000000    0.000000
     0.000000    4.743344    0.000000
     0.000000    0.000000    2.809821
   Al   C 
     8     6
Direct configuration=     5
   0.78591834  0.16037371  0.00000000
   0.21408166  0.83962629  0.00000000
   0.71408166  0.66037371 -0.00000000
   0.28591834  0.33962629  0.00000000
   0.03288178  0.25288909  0.50000000
   0.96711824  0.74711091  0.50000000
   0.46711821  0.75288909  0.50000000
   0.53288176  0.24711091  0.50000000
   0.00000000  0.00000000  0.00000000
   0.50000000  0.50000000  0.00000000
   0.82377905  0.44435328  0.50000000
   0.17622095  0.55564672  0.50000000
   0.67622095  0.94435328  0.50000000
   0.32377905  0.05564672  0.50000000
Al4C3 Pbam - H(P) scan @ 90 GPa (ISIF=8)
           1
     8.214939    0.000000    0.000000
     0.000000    4.743377    0.000000
     0.000000    0.000000    2.809840
   Al   C 
     8     6
Direct configuration=     6
   0.78591834  0.16037373  0.00000000
   0.21408166  0.83962627  0.00000000
   0.71408166  0.66037373 -0.00000000
   0.28591834  0.33962627  0.00000000
   0.03288178  0.25288910  0.50000000
   0.96711824  0.74711090  0.50000000
   0.46711821  0.75288910  0.50000000
   0.53288176  0.24711090  0.50000000
   0.00000000  0.00000000  0.00000000
   0.50000000  0.50000000  0.00000000
   0.82377906  0.44435328  0.50000000
   0.17622094  0.55564672  0.50000000
   0.67622094  0.94435328  0.50000000
   0.32377906  0.05564672  0.50000000
Al4C3 Pbam - H(P) scan @ 90 GPa (ISIF=8)
           1
     8.214177    0.000000    0.000000
     0.000000    4.742937    0.000000
     0.000000    0.000000    2.809580
   Al   C 
     8     6
Direct configuration=     7
   0.78570536  0.16056641  0.00000000
   0.21429464  0.83943359 -0.00000000
   0.71429464  0.66056641 -0.00000000
   0.28570536  0.33943359  0.00000000
   0.03319346  0.25293878  0.50000000
   0.96680656  0.74706122  0.50000000
   0.46680653  0.75293878  0.50000000
   0.53319344  0.24706122  0.50000000
   0.00000000  0.00000000  0.00000000
   0.50000000  0.50000000  0.00000000
   0.82350020  0.44389810  0.50000000
   0.17649980  0.55610190  0.50000000
   0.67649980  0.94389810  0.50000000
   0.32350020  0.05610190  0.50000000
Al4C3 Pbam - H(P) scan @ 90 GPa (ISIF=8)
           1
     8.214270    0.000000    0.000000
     0.000000    4.742991    0.000000
     0.000000    0.000000    2.809612
   Al   C 
     8     6
Direct configuration=     8
   0.78573150  0.16054277  0.00000000
   0.21426850  0.83945723 -0.00000000
   0.71426850  0.66054277 -0.00000000
   0.28573150  0.33945723  0.00000000
   0.03315521  0.25293268  0.50000000
   0.96684481  0.74706732  0.50000000
   0.46684478  0.75293268  0.50000000
   0.53315519  0.24706732  0.50000000
   0.00000000  0.00000000  0.00000000
   0.50000000  0.50000000  0.00000000
   0.82353442  0.44395395  0.50000000
   0.17646558  0.55604605  0.50000000
   0.67646558  0.94395395  0.50000000
   0.32353442  0.05604605  0.50000000
Al4C3 Pbam - H(P) scan @ 90 GPa (ISIF=8)
           1
     8.214388    0.000000    0.000000
     0.000000    4.743059    0.000000
     0.000000    0.000000    2.809652
   Al   C 
     8     6
Direct configuration=     9
   0.78582954  0.16050443  0.00000000
   0.21417046  0.83949557 -0.00000000
   0.71417046  0.66050443 -0.00000000
   0.28582954  0.33949557  0.00000000
   0.03324739  0.25284898  0.50000000
   0.96675264  0.74715102  0.50000000
   0.46675261  0.75284898  0.50000000
   0.53324736  0.24715102  0.50000000
   0.00000000  0.00000000  0.00000000
   0.50000000  0.50000000  0.00000000
   0.82354369  0.44375119  0.50000000
   0.17645631  0.55624881  0.50000000
   0.67645631  0.94375119  0.50000000
   0.32354369  0.05624881  0.50000000
Al4C3 Pbam - H(P) scan @ 90 GPa (ISIF=8)
           1
     8.214423    0.000000    0.000000
     0.000000    4.743079    0.000000
     0.000000    0.000000    2.809664
   Al   C 
     8     6
Direct configuration=    10
   0.78585886  0.16049296  0.00000000
   0.21414114  0.83950704 -0.00000000
   0.71414114  0.66049296 -0.00000000
   0.28585886  0.33950704  0.00000000
   0.03327496  0.25282395  0.50000000
   0.96672507  0.74717605  0.50000000
   0.46672504  0.75282395  0.50000000
   0.53327493  0.24717605  0.50000000
   0.00000000  0.00000000  0.00000000
   0.50000000  0.50000000  0.00000000
   0.82354647  0.44369055  0.50000000
   0.17645353  0.55630945  0.50000000
   0.67645353  0.94369055  0.50000000
   0.32354647  0.05630945  0.50000000
Al4C3 Pbam - H(P) scan @ 90 GPa (ISIF=8)
           1
     8.214035    0.000000    0.000000
     0.000000    4.742855    0.000000
     0.000000    0.000000    2.809531
   Al   C 
     8     6
Direct configuration=    11
   0.78592771  0.16034213  0.00000000
   0.21407229  0.83965787  0.00000000
   0.71407229  0.66034213 -0.00000000
   0.28592771  0.33965787  0.00000000
   0.03339360  0.25288151  0.50000000
   0.96660642  0.74711849  0.50000000
   0.46660639  0.75288151  0.50000000
   0.53339358  0.24711849  0.50000000
   0.00000000  0.00000000  0.00000000
   0.50000000  0.50000000  0.00000000
   0.82356315  0.44363676  0.50000000
   0.17643685  0.55636324  0.50000000
   0.67643685  0.94363676  0.50000000
   0.32356315  0.05636324  0.50000000
Al4C3 Pbam - H(P) scan @ 90 GPa (ISIF=8)
           1
     8.213890    0.000000    0.000000
     0.000000    4.742771    0.000000
     0.000000    0.000000    2.809481
   Al   C 
     8     6
Direct configuration=    12
   0.78595346  0.16028571  0.00000000
   0.21404654  0.83971429  0.00000000
   0.71404654  0.66028571 -0.00000000
   0.28595346  0.33971429  0.00000000
   0.03343798  0.25290304  0.50000000
   0.96656204  0.74709696  0.50000000
   0.46656201  0.75290304  0.50000000
   0.53343796  0.24709696  0.50000000
   0.00000000  0.00000000  0.00000000
   0.50000000  0.50000000  0.00000000
   0.82356940  0.44361664  0.50000000
   0.17643060  0.55638336  0.50000000
   0.67643060  0.94361664  0.50000000
   0.32356940  0.05638336  0.50000000
Al4C3 Pbam - H(P) scan @ 90 GPa (ISIF=8)
           1
     8.214367    0.000000    0.000000
     0.000000    4.743046    0.000000
     0.000000    0.000000    2.809645
   Al   C 
     8     6
Direct configuration=    13
   0.78598614  0.16013304  0.00000000
   0.21401386  0.83986696 -0.00000000
   0.71401386  0.66013304  0.00000000
   0.28598614  0.33986696 -0.00000000
   0.03347971  0.25286650  0.50000000
   0.96652031  0.74713350  0.50000000
   0.46652028  0.75286650  0.50000000
   0.53347969  0.24713350  0.50000000
   0.00000000  0.00000000  0.00000000
   0.50000000  0.50000000  0.00000000
   0.82354565  0.44355137  0.50000000
   0.17645435  0.55644863  0.50000000
   0.67645435  0.94355137  0.50000000
   0.32354565  0.05644863  0.50000000
