  28  28   0   0
  0.9316079E+01  0.2888245E-09  0.8823613E-09  0.1023554E-08  0.5000000E-15
  1.000000000000000E-004
  CAR 
 Al4C3 anti-CaFe2O4 - H(P) scan @ 10 GPa 
     17.62457018     -6.43262735  301     10.50664508      1.00000000
     -6.433  0.0000E+00  0.0000E+00
     -6.352  0.0000E+00  0.0000E+00
     -6.272  0.0000E+00  0.0000E+00
     -6.192  0.0000E+00  0.0000E+00
     -6.112  0.0000E+00  0.0000E+00
     -6.032  0.0000E+00  0.0000E+00
     -5.951  0.0000E+00  0.0000E+00
     -5.871  0.0000E+00  0.0000E+00
     -5.791  0.0000E+00  0.0000E+00
     -5.711  0.0000E+00  0.0000E+00
     -5.631  0.3933E-19  0.3154E-20
     -5.551  0.7923E-12  0.6354E-13
     -5.470  0.7300E-07  0.5854E-08
     -5.390  0.5319E-04  0.4271E-05
     -5.310  0.7549E-03  0.6481E-04
     -5.230  0.2903E-02  0.2976E-03
     -5.150  0.5607E-02  0.7473E-03
     -5.069  0.6818E-02  0.1294E-02
     -4.989  0.6843E-02  0.1843E-02
     -4.909  0.7615E-02  0.2453E-02
     -4.829  0.1188E-01  0.3406E-02
     -4.749  0.1207E-01  0.4374E-02
     -4.668  0.1084E-01  0.5243E-02
     -4.588  0.9828E-02  0.6031E-02
     -4.508  0.9929E-02  0.6827E-02
     -4.428  0.1121E-01  0.7725E-02
     -4.348  0.5653E-02  0.8179E-02
     -4.267  0.9487E-02  0.8939E-02
     -4.187  0.1476E-01  0.1012E-01
     -4.107  0.1824E-01  0.1159E-01
     -4.027  0.1402E-01  0.1271E-01
     -3.947  0.1234E-01  0.1370E-01
     -3.867  0.1579E-01  0.1497E-01
     -3.786  0.1721E-01  0.1635E-01
     -3.706  0.2185E-01  0.1810E-01
     -3.626  0.1772E-01  0.1952E-01
     -3.546  0.8660E-02  0.2021E-01
     -3.466  0.5386E-02  0.2065E-01
     -3.385  0.2111E-01  0.2234E-01
     -3.305  0.2603E-01  0.2443E-01
     -3.225  0.2075E-01  0.2609E-01
     -3.145  0.1970E-01  0.2767E-01
     -3.065  0.2465E-01  0.2965E-01
     -2.984  0.1893E-01  0.3116E-01
     -2.904  0.1899E-01  0.3269E-01
     -2.824  0.2455E-01  0.3466E-01
     -2.744  0.2736E-01  0.3685E-01
     -2.664  0.1773E-01  0.3827E-01
     -2.583  0.1099E-01  0.3915E-01
     -2.503  0.1813E-01  0.4061E-01
     -2.423  0.4425E-01  0.4416E-01
     -2.343  0.3431E-01  0.4691E-01
     -2.263  0.2309E-01  0.4876E-01
     -2.183  0.3163E-01  0.5129E-01
     -2.102  0.3624E-01  0.5420E-01
     -2.022  0.3161E-01  0.5674E-01
     -1.942  0.3253E-01  0.5934E-01
     -1.862  0.3065E-01  0.6180E-01
     -1.782  0.3922E-01  0.6495E-01
     -1.701  0.3775E-01  0.6797E-01
     -1.621  0.3823E-01  0.7104E-01
     -1.541  0.4102E-01  0.7433E-01
     -1.461  0.4733E-01  0.7812E-01
     -1.381  0.6012E-01  0.8294E-01
     -1.300  0.4384E-01  0.8646E-01
     -1.220  0.4398E-01  0.8999E-01
     -1.140  0.4737E-01  0.9379E-01
     -1.060  0.5038E-01  0.9783E-01
     -0.980  0.2556E-01  0.9988E-01
     -0.899  0.1535E-01  0.1011E+00
     -0.819  0.1778E-01  0.1025E+00
     -0.739  0.1842E-01  0.1040E+00
     -0.659  0.1680E-01  0.1054E+00
     -0.579  0.8705E-02  0.1061E+00
     -0.499  0.1242E-01  0.1071E+00
     -0.418  0.1362E-01  0.1081E+00
     -0.338  0.1523E-01  0.1094E+00
     -0.258  0.1735E-01  0.1108E+00
     -0.178  0.2587E-01  0.1128E+00
     -0.098  0.1206E-01  0.1138E+00
     -0.017  0.1217E-01  0.1148E+00
      0.063  0.7554E-02  0.1154E+00
      0.143  0.1521E-01  0.1166E+00
      0.223  0.1353E-01  0.1177E+00
      0.303  0.8684E-02  0.1184E+00
      0.384  0.1196E-01  0.1193E+00
      0.464  0.6591E-02  0.1199E+00
      0.544  0.1627E-02  0.1200E+00
      0.624  0.1533E-04  0.1200E+00
      0.704  0.1706E-08  0.1200E+00
      0.785  0.1435E-14  0.1200E+00
      0.865  0.0000E+00  0.1200E+00
      0.945  0.0000E+00  0.1200E+00
      1.025  0.2753E-18  0.1200E+00
      1.105  0.2609E-11  0.1200E+00
      1.185  0.1577E-06  0.1200E+00
      1.266  0.8528E-04  0.1200E+00
      1.346  0.1281E-02  0.1201E+00
      1.426  0.2761E-02  0.1203E+00
      1.506  0.5268E-02  0.1208E+00
      1.586  0.5000E-02  0.1212E+00
      1.667  0.6850E-02  0.1217E+00
      1.747  0.1020E-01  0.1225E+00
      1.827  0.1701E-01  0.1239E+00
      1.907  0.2177E-01  0.1256E+00
      1.987  0.2032E-01  0.1273E+00
      2.068  0.2554E-01  0.1293E+00
      2.148  0.2786E-01  0.1315E+00
      2.228  0.4013E-01  0.1348E+00
      2.308  0.4018E-01  0.1380E+00
      2.388  0.3020E-01  0.1404E+00
      2.469  0.4744E-01  0.1442E+00
      2.549  0.3511E-01  0.1470E+00
      2.629  0.4184E-01  0.1504E+00
      2.709  0.4555E-01  0.1540E+00
      2.789  0.4229E-01  0.1574E+00
      2.869  0.3793E-01  0.1605E+00
      2.950  0.3808E-01  0.1635E+00
      3.030  0.4585E-01  0.1672E+00
      3.110  0.3661E-01  0.1701E+00
      3.190  0.3782E-01  0.1732E+00
      3.270  0.4840E-01  0.1770E+00
      3.351  0.4263E-01  0.1805E+00
      3.431  0.4621E-01  0.1842E+00
      3.511  0.3280E-01  0.1868E+00
      3.591  0.3383E-01  0.1895E+00
      3.671  0.3081E-01  0.1920E+00
      3.752  0.3445E-01  0.1947E+00
      3.832  0.3388E-01  0.1975E+00
      3.912  0.3458E-01  0.2002E+00
      3.992  0.3429E-01  0.2030E+00
      4.072  0.4456E-01  0.2066E+00
      4.153  0.5008E-01  0.2106E+00
      4.233  0.5425E-01  0.2149E+00
      4.313  0.4418E-01  0.2185E+00
      4.393  0.3020E-01  0.2209E+00
      4.473  0.3059E-01  0.2233E+00
      4.553  0.4057E-01  0.2266E+00
      4.634  0.3339E-01  0.2293E+00
      4.714  0.3340E-01  0.2320E+00
      4.794  0.3644E-01  0.2349E+00
      4.874  0.3571E-01  0.2377E+00
      4.954  0.4463E-01  0.2413E+00
      5.035  0.3115E-01  0.2438E+00
      5.115  0.3871E-01  0.2469E+00
      5.195  0.4959E-01  0.2509E+00
      5.275  0.5674E-01  0.2554E+00
      5.355  0.6369E-01  0.2606E+00
      5.436  0.4173E-01  0.2639E+00
      5.516  0.3568E-01  0.2668E+00
      5.596  0.4274E-01  0.2702E+00
      5.676  0.6809E-01  0.2756E+00
      5.756  0.6341E-01  0.2807E+00
      5.837  0.4521E-01  0.2844E+00
      5.917  0.4533E-01  0.2880E+00
      5.997  0.4541E-01  0.2916E+00
      6.077  0.4069E-01  0.2949E+00
      6.157  0.3687E-01  0.2979E+00
      6.237  0.3615E-01  0.3008E+00
      6.318  0.4423E-01  0.3043E+00
      6.398  0.5293E-01  0.3085E+00
      6.478  0.5042E-01  0.3126E+00
      6.558  0.4759E-01  0.3164E+00
      6.638  0.4095E-01  0.3197E+00
      6.719  0.4329E-01  0.3232E+00
      6.799  0.5179E-01  0.3273E+00
      6.879  0.6850E-01  0.3328E+00
      6.959  0.5023E-01  0.3368E+00
      7.039  0.4903E-01  0.3408E+00
      7.120  0.4607E-01  0.3445E+00
      7.200  0.5488E-01  0.3489E+00
      7.280  0.6142E-01  0.3538E+00
      7.360  0.5019E-01  0.3578E+00
      7.440  0.5158E-01  0.3619E+00
      7.521  0.3648E-01  0.3649E+00
      7.601  0.2971E-01  0.3673E+00
      7.681  0.3001E-01  0.3697E+00
      7.761  0.4863E-01  0.3736E+00
      7.841  0.5022E-01  0.3776E+00
      7.922  0.5678E-01  0.3821E+00
      8.002  0.7233E-01  0.3879E+00
      8.082  0.6305E-01  0.3930E+00
      8.162  0.8295E-01  0.3996E+00
      8.242  0.7579E-01  0.4057E+00
      8.322  0.5273E-01  0.4100E+00
      8.403  0.5701E-01  0.4145E+00
      8.483  0.7049E-01  0.4202E+00
      8.563  0.7914E-01  0.4265E+00
      8.643  0.7513E-01  0.4326E+00
      8.723  0.4962E-01  0.4365E+00
      8.804  0.5317E-01  0.4408E+00
      8.884  0.5028E-01  0.4448E+00
      8.964  0.6002E-01  0.4496E+00
      9.044  0.7026E-01  0.4553E+00
      9.124  0.4900E-01  0.4592E+00
      9.205  0.3918E-01  0.4623E+00
      9.285  0.2893E-01  0.4647E+00
      9.365  0.3363E-01  0.4674E+00
      9.445  0.2701E-01  0.4695E+00
      9.525  0.1329E-01  0.4706E+00
      9.606  0.1180E-01  0.4715E+00
      9.686  0.2006E-01  0.4731E+00
      9.766  0.1995E-01  0.4747E+00
      9.846  0.1573E-01  0.4760E+00
      9.926  0.8683E-02  0.4767E+00
     10.006  0.3925E-02  0.4770E+00
     10.087  0.3479E-02  0.4773E+00
     10.167  0.6420E-02  0.4778E+00
     10.247  0.6697E-02  0.4784E+00
     10.327  0.9549E-02  0.4791E+00
     10.407  0.7338E-02  0.4797E+00
     10.488  0.3472E-02  0.4800E+00
     10.568  0.1432E-02  0.4801E+00
     10.648  0.1889E-02  0.4802E+00
     10.728  0.2701E-02  0.4805E+00
     10.808  0.4482E-02  0.4808E+00
     10.889  0.9681E-02  0.4816E+00
     10.969  0.3847E-02  0.4819E+00
     11.049  0.7133E-02  0.4825E+00
     11.129  0.1682E-01  0.4838E+00
     11.209  0.2332E-01  0.4857E+00
     11.290  0.2300E-01  0.4875E+00
     11.370  0.2079E-01  0.4892E+00
     11.450  0.1481E-01  0.4904E+00
     11.530  0.1169E-01  0.4913E+00
     11.610  0.1349E-01  0.4924E+00
     11.690  0.1518E-01  0.4936E+00
     11.771  0.2193E-01  0.4954E+00
     11.851  0.1903E-01  0.4969E+00
     11.931  0.1894E-01  0.4984E+00
     12.011  0.3242E-01  0.5010E+00
     12.091  0.2623E-01  0.5031E+00
     12.172  0.4378E-01  0.5067E+00
     12.252  0.3921E-01  0.5098E+00
     12.332  0.2757E-01  0.5120E+00
     12.412  0.2099E-01  0.5137E+00
     12.492  0.1436E-01  0.5148E+00
     12.573  0.3163E-01  0.5174E+00
     12.653  0.2712E-01  0.5196E+00
     12.733  0.2397E-01  0.5215E+00
     12.813  0.2940E-01  0.5238E+00
     12.893  0.3262E-01  0.5265E+00
     12.974  0.2871E-01  0.5288E+00
     13.054  0.4485E-01  0.5323E+00
     13.134  0.5118E-01  0.5365E+00
     13.214  0.3902E-01  0.5396E+00
     13.294  0.5211E-01  0.5438E+00
     13.374  0.3909E-01  0.5469E+00
     13.455  0.3549E-01  0.5497E+00
     13.535  0.4531E-01  0.5534E+00
     13.615  0.4189E-01  0.5567E+00
     13.695  0.5291E-01  0.5610E+00
     13.775  0.5898E-01  0.5657E+00
     13.856  0.3522E-01  0.5685E+00
     13.936  0.4396E-01  0.5721E+00
     14.016  0.5483E-01  0.5765E+00
     14.096  0.4736E-01  0.5803E+00
     14.176  0.3527E-01  0.5831E+00
     14.257  0.3079E-01  0.5855E+00
     14.337  0.3748E-01  0.5886E+00
     14.417  0.3541E-01  0.5914E+00
     14.497  0.4846E-01  0.5953E+00
     14.577  0.4879E-01  0.5992E+00
     14.658  0.6822E-01  0.6047E+00
     14.738  0.5075E-01  0.6087E+00
     14.818  0.5412E-01  0.6131E+00
     14.898  0.4934E-01  0.6170E+00
     14.978  0.4533E-01  0.6207E+00
     15.058  0.2935E-01  0.6230E+00
     15.139  0.3715E-01  0.6260E+00
     15.219  0.3856E-01  0.6291E+00
     15.299  0.2443E-01  0.6310E+00
     15.379  0.2627E-01  0.6332E+00
     15.459  0.3619E-01  0.6361E+00
     15.540  0.3758E-01  0.6391E+00
     15.620  0.3029E-01  0.6415E+00
     15.700  0.2531E-01  0.6435E+00
     15.780  0.3300E-01  0.6462E+00
     15.860  0.1947E-01  0.6477E+00
     15.941  0.3054E-01  0.6502E+00
     16.021  0.2446E-01  0.6521E+00
     16.101  0.2542E-01  0.6542E+00
     16.181  0.2899E-01  0.6565E+00
     16.261  0.1896E-01  0.6580E+00
     16.342  0.1459E-01  0.6592E+00
     16.422  0.4979E-02  0.6596E+00
     16.502  0.3346E-02  0.6599E+00
     16.582  0.1531E-02  0.6600E+00
     16.662  0.1163E-03  0.6600E+00
     16.742  0.1493E-06  0.6600E+00
     16.823  0.1592E-11  0.6600E+00
     16.903  0.0000E+00  0.6600E+00
     16.983  0.0000E+00  0.6600E+00
     17.063  0.0000E+00  0.6600E+00
     17.143  0.0000E+00  0.6600E+00
     17.224  0.0000E+00  0.6600E+00
     17.304  0.0000E+00  0.6600E+00
     17.384  0.0000E+00  0.6600E+00
     17.464  0.0000E+00  0.6600E+00
     17.544  0.0000E+00  0.6600E+00
     17.625  0.0000E+00  0.6600E+00
