Al4C3 anti-CaFe2O4 - H(P) scan @ 10 GPa 
           1
     2.888245    0.000000    0.000000
     0.000000    8.823613    0.000000
     0.000000    0.000000   10.235538
   Al   C 
    16    12
Direct configuration=     1
   0.25000000  0.41857989  0.58382886
   0.75000000  0.58142011  0.41617114
   0.25000000  0.91857989  0.91617114
   0.75000000  0.08142011  0.08382886
   0.25000000  0.48589125  0.20617698
   0.75000000  0.51410875  0.79382302
   0.25000000  0.98589125  0.29382302
   0.75000000  0.01410875  0.70617698
   0.25000000  0.14083814  0.51814321
   0.75000000  0.85916186  0.48185679
   0.25000000  0.64083814  0.98185679
   0.75000000  0.35916186  0.01814321
   0.75000000  0.27240433  0.30324402
   0.25000000  0.72759567  0.69675598
   0.25000000  0.22759567  0.80324402
   0.75000000  0.77240433  0.19675598
   0.75000000  0.74698856  0.85985069
   0.25000000  0.25301144  0.14014931
   0.75000000  0.24698856  0.64014931
   0.25000000  0.75301144  0.35985069
   0.25000000  0.92527030  0.61127840
   0.75000000  0.57472970  0.11127840
   0.25000000  0.42527030  0.88872160
   0.75000000  0.07472970  0.38872160
   0.75000000  0.08768583  0.88639351
   0.25000000  0.91231417  0.11360649
   0.75000000  0.58768583  0.61360649
   0.25000000  0.41231417  0.38639351
Al4C3 anti-CaFe2O4 - H(P) scan @ 10 GPa 
           1
     2.969245    0.000000    0.000000
     0.000000    9.071069    0.000000
     0.000000    0.000000   10.522590
   Al   C 
    16    12
Direct configuration=     2
   0.25000000  0.41857604  0.58380063
   0.75000000  0.58142396  0.41619937
   0.25000000  0.91857604  0.91619937
   0.75000000  0.08142396  0.08380063
   0.25000000  0.48589386  0.20620227
   0.75000000  0.51410614  0.79379773
   0.25000000  0.98589386  0.29379773
   0.75000000  0.01410614  0.70620227
   0.25000000  0.14087217  0.51813605
   0.75000000  0.85912783  0.48186395
   0.25000000  0.64087217  0.98186395
   0.75000000  0.35912783  0.01813605
   0.75000000  0.27241100  0.30324262
   0.25000000  0.72758900  0.69675738
   0.25000000  0.22758900  0.80324262
   0.75000000  0.77241100  0.19675738
   0.75000000  0.74702419  0.85986676
   0.25000000  0.25297581  0.14013324
   0.75000000  0.24702419  0.64013324
   0.25000000  0.75297581  0.35986676
   0.25000000  0.92523261  0.61127710
   0.75000000  0.57476739  0.11127710
   0.25000000  0.42523261  0.88872290
   0.75000000  0.07476739  0.38872290
   0.75000000  0.08768286  0.88638333
   0.25000000  0.91231714  0.11361667
   0.75000000  0.58768286  0.61361667
   0.25000000  0.41231714  0.38638333
Al4C3 anti-CaFe2O4 - H(P) scan @ 10 GPa 
           1
     2.929100    0.000000    0.000000
     0.000000    8.948426    0.000000
     0.000000    0.000000   10.380323
   Al   C 
    16    12
Direct configuration=     3
   0.25000000  0.41857790  0.58381424
   0.75000000  0.58142210  0.41618576
   0.25000000  0.91857790  0.91618576
   0.75000000  0.08142210  0.08381424
   0.25000000  0.48589260  0.20619007
   0.75000000  0.51410740  0.79380993
   0.25000000  0.98589260  0.29380993
   0.75000000  0.01410740  0.70619007
   0.25000000  0.14085576  0.51813950
   0.75000000  0.85914424  0.48186050
   0.25000000  0.64085576  0.98186050
   0.75000000  0.35914424  0.01813950
   0.75000000  0.27240779  0.30324330
   0.25000000  0.72759221  0.69675670
   0.25000000  0.22759221  0.80324330
   0.75000000  0.77240779  0.19675670
   0.75000000  0.74700701  0.85985901
   0.25000000  0.25299299  0.14014099
   0.75000000  0.24700701  0.64014099
   0.25000000  0.75299299  0.35985901
   0.25000000  0.92525078  0.61127773
   0.75000000  0.57474922  0.11127773
   0.25000000  0.42525078  0.88872227
   0.75000000  0.07474922  0.38872227
   0.75000000  0.08768429  0.88638823
   0.25000000  0.91231571  0.11361177
   0.75000000  0.58768429  0.61361177
   0.25000000  0.41231571  0.38638823
Al4C3 anti-CaFe2O4 - H(P) scan @ 10 GPa 
           1
     2.928891    0.000000    0.000000
     0.000000    8.947786    0.000000
     0.000000    0.000000   10.379580
   Al   C 
    16    12
Direct configuration=     4
   0.25000000  0.41857791  0.58381431
   0.75000000  0.58142209  0.41618569
   0.25000000  0.91857791  0.91618569
   0.75000000  0.08142209  0.08381431
   0.25000000  0.48589260  0.20619001
   0.75000000  0.51410740  0.79380999
   0.25000000  0.98589260  0.29380999
   0.75000000  0.01410740  0.70619001
   0.25000000  0.14085568  0.51813952
   0.75000000  0.85914432  0.48186048
   0.25000000  0.64085568  0.98186048
   0.75000000  0.35914432  0.01813952
   0.75000000  0.27240777  0.30324330
   0.25000000  0.72759223  0.69675670
   0.25000000  0.22759223  0.80324330
   0.75000000  0.77240777  0.19675670
   0.75000000  0.74700692  0.85985897
   0.25000000  0.25299308  0.14014103
   0.75000000  0.24700692  0.64014103
   0.25000000  0.75299308  0.35985897
   0.25000000  0.92525088  0.61127773
   0.75000000  0.57474912  0.11127773
   0.25000000  0.42525088  0.88872227
   0.75000000  0.07474912  0.38872227
   0.75000000  0.08768430  0.88638826
   0.25000000  0.91231570  0.11361174
   0.75000000  0.58768430  0.61361174
   0.25000000  0.41231570  0.38638826
Al4C3 anti-CaFe2O4 - H(P) scan @ 10 GPa 
           1
     2.929708    0.000000    0.000000
     0.000000    8.950282    0.000000
     0.000000    0.000000   10.382476
   Al   C 
    16    12
Direct configuration=     5
   0.25000000  0.41866995  0.58336958
   0.75000000  0.58133005  0.41663042
   0.25000000  0.91866995  0.91663042
   0.75000000  0.08133005  0.08336958
   0.25000000  0.48581209  0.20583594
   0.75000000  0.51418791  0.79416406
   0.25000000  0.98581209  0.29416406
   0.75000000  0.01418791  0.70583594
   0.25000000  0.14034497  0.51824108
   0.75000000  0.85965503  0.48175892
   0.25000000  0.64034497  0.98175892
   0.75000000  0.35965503  0.01824108
   0.75000000  0.27231147  0.30350079
   0.25000000  0.72768853  0.69649921
   0.25000000  0.22768853  0.80350079
   0.75000000  0.77231147  0.19649921
   0.75000000  0.74662676  0.86004792
   0.25000000  0.25337324  0.13995208
   0.75000000  0.24662676  0.63995208
   0.25000000  0.75337324  0.36004792
   0.25000000  0.92521977  0.61164743
   0.75000000  0.57478023  0.11164743
   0.25000000  0.42521977  0.88835257
   0.75000000  0.07478023  0.38835257
   0.75000000  0.08717844  0.88585877
   0.25000000  0.91282156  0.11414123
   0.75000000  0.58717844  0.61414123
   0.25000000  0.41282156  0.38585877
Al4C3 anti-CaFe2O4 - H(P) scan @ 10 GPa 
           1
     2.930266    0.000000    0.000000
     0.000000    8.951987    0.000000
     0.000000    0.000000   10.384453
   Al   C 
    16    12
Direct configuration=     6
   0.25000000  0.41873279  0.58306593
   0.75000000  0.58126721  0.41693407
   0.25000000  0.91873279  0.91693407
   0.75000000  0.08126721  0.08306593
   0.25000000  0.48575712  0.20559419
   0.75000000  0.51424288  0.79440581
   0.25000000  0.98575712  0.29440581
   0.75000000  0.01424288  0.70559419
   0.25000000  0.13999627  0.51831043
   0.75000000  0.86000373  0.48168957
   0.25000000  0.63999627  0.98168957
   0.75000000  0.36000373  0.01831043
   0.75000000  0.27224572  0.30367660
   0.25000000  0.72775428  0.69632340
   0.25000000  0.22775428  0.80367660
   0.75000000  0.77224572  0.19632340
   0.75000000  0.74636719  0.86017693
   0.25000000  0.25363281  0.13982307
   0.75000000  0.24636719  0.63982307
   0.25000000  0.75363281  0.36017693
   0.25000000  0.92519853  0.61189985
   0.75000000  0.57480147  0.11189985
   0.25000000  0.42519853  0.88810015
   0.75000000  0.07480147  0.38810015
   0.75000000  0.08683304  0.88549724
   0.25000000  0.91316696  0.11450276
   0.75000000  0.58683304  0.61450276
   0.25000000  0.41316696  0.38549724
Al4C3 anti-CaFe2O4 - H(P) scan @ 10 GPa 
           1
     2.930742    0.000000    0.000000
     0.000000    8.953440    0.000000
     0.000000    0.000000   10.386139
   Al   C 
    16    12
Direct configuration=     7
   0.25000000  0.41835433  0.58280673
   0.75000000  0.58164567  0.41719327
   0.25000000  0.91835433  0.91719327
   0.75000000  0.08164567  0.08280673
   0.25000000  0.48534545  0.20561414
   0.75000000  0.51465455  0.79438586
   0.25000000  0.98534545  0.29438586
   0.75000000  0.01465455  0.70561414
   0.25000000  0.13964774  0.51856621
   0.75000000  0.86035226  0.48143379
   0.25000000  0.63964774  0.98143379
   0.75000000  0.36035226  0.01856621
   0.75000000  0.27261729  0.30370948
   0.25000000  0.72738271  0.69629052
   0.25000000  0.22738271  0.80370948
   0.75000000  0.77261729  0.19629052
   0.75000000  0.74589714  0.86056776
   0.25000000  0.25410286  0.13943224
   0.75000000  0.24589714  0.63943224
   0.25000000  0.75410286  0.36056776
   0.25000000  0.92503601  0.61171559
   0.75000000  0.57496399  0.11171559
   0.25000000  0.42503601  0.88828441
   0.75000000  0.07496399  0.38828441
   0.75000000  0.08621660  0.88524283
   0.25000000  0.91378340  0.11475717
   0.75000000  0.58621660  0.61475717
   0.25000000  0.41378340  0.38524283
Al4C3 anti-CaFe2O4 - H(P) scan @ 10 GPa 
           1
     2.930886    0.000000    0.000000
     0.000000    8.953882    0.000000
     0.000000    0.000000   10.386652
   Al   C 
    16    12
Direct configuration=     8
   0.25000000  0.41823926  0.58272791
   0.75000000  0.58176074  0.41727209
   0.25000000  0.91823926  0.91727209
   0.75000000  0.08176074  0.08272791
   0.25000000  0.48522028  0.20562020
   0.75000000  0.51477972  0.79437980
   0.25000000  0.98522028  0.29437980
   0.75000000  0.01477972  0.70562020
   0.25000000  0.13954176  0.51864399
   0.75000000  0.86045824  0.48135601
   0.25000000  0.63954176  0.98135601
   0.75000000  0.36045824  0.01864399
   0.75000000  0.27273027  0.30371948
   0.25000000  0.72726973  0.69628052
   0.25000000  0.22726973  0.80371948
   0.75000000  0.77273027  0.19628052
   0.75000000  0.74575421  0.86068659
   0.25000000  0.25424579  0.13931341
   0.75000000  0.24575421  0.63931341
   0.25000000  0.75424579  0.36068659
   0.25000000  0.92498659  0.61165956
   0.75000000  0.57501341  0.11165956
   0.25000000  0.42498659  0.88834044
   0.75000000  0.07501341  0.38834044
   0.75000000  0.08602916  0.88516547
   0.25000000  0.91397084  0.11483453
   0.75000000  0.58602916  0.61483453
   0.25000000  0.41397084  0.38516547
Al4C3 anti-CaFe2O4 - H(P) scan @ 10 GPa 
           1
     2.931276    0.000000    0.000000
     0.000000    8.955072    0.000000
     0.000000    0.000000   10.388031
   Al   C 
    16    12
Direct configuration=     9
   0.25000000  0.41753596  0.58270381
   0.75000000  0.58246404  0.41729619
   0.25000000  0.91753596  0.91729619
   0.75000000  0.08246404  0.08270381
   0.25000000  0.48533339  0.20534044
   0.75000000  0.51466661  0.79465956
   0.25000000  0.98533339  0.29465956
   0.75000000  0.01466661  0.70534044
   0.25000000  0.13906793  0.51872190
   0.75000000  0.86093207  0.48127810
   0.25000000  0.63906793  0.98127810
   0.75000000  0.36093207  0.01872190
   0.75000000  0.27292307  0.30386536
   0.25000000  0.72707693  0.69613464
   0.25000000  0.22707693  0.80386536
   0.75000000  0.77292307  0.19613464
   0.75000000  0.74531513  0.86101951
   0.25000000  0.25468487  0.13898049
   0.75000000  0.24531513  0.63898049
   0.25000000  0.75468487  0.36101951
   0.25000000  0.92469321  0.61164979
   0.75000000  0.57530679  0.11164979
   0.25000000  0.42469321  0.88835021
   0.75000000  0.07530679  0.38835021
   0.75000000  0.08546690  0.88532019
   0.25000000  0.91453310  0.11467981
   0.75000000  0.58546690  0.61467981
   0.25000000  0.41453310  0.38532019
Al4C3 anti-CaFe2O4 - H(P) scan @ 10 GPa 
           1
     2.931279    0.000000    0.000000
     0.000000    8.955082    0.000000
     0.000000    0.000000   10.388044
   Al   C 
    16    12
Direct configuration=    10
   0.25000000  0.41752961  0.58270359
   0.75000000  0.58247039  0.41729641
   0.25000000  0.91752961  0.91729641
   0.75000000  0.08247039  0.08270359
   0.25000000  0.48533441  0.20533791
   0.75000000  0.51466559  0.79466209
   0.25000000  0.98533441  0.29466209
   0.75000000  0.01466559  0.70533791
   0.25000000  0.13906364  0.51872260
   0.75000000  0.86093636  0.48127740
   0.25000000  0.63906364  0.98127740
   0.75000000  0.36093636  0.01872260
   0.75000000  0.27292481  0.30386668
   0.25000000  0.72707519  0.69613332
   0.25000000  0.22707519  0.80386668
   0.75000000  0.77292481  0.19613332
   0.75000000  0.74531116  0.86102252
   0.25000000  0.25468884  0.13897748
   0.75000000  0.24531116  0.63897748
   0.25000000  0.75468884  0.36102252
   0.25000000  0.92469056  0.61164971
   0.75000000  0.57530944  0.11164971
   0.25000000  0.42469056  0.88835029
   0.75000000  0.07530944  0.38835029
   0.75000000  0.08546182  0.88532159
   0.25000000  0.91453818  0.11467841
   0.75000000  0.58546182  0.61467841
   0.25000000  0.41453818  0.38532159
Al4C3 anti-CaFe2O4 - H(P) scan @ 10 GPa 
           1
     2.931425    0.000000    0.000000
     0.000000    8.955529    0.000000
     0.000000    0.000000   10.388561
   Al   C 
    16    12
Direct configuration=    11
   0.25000000  0.41722269  0.58272563
   0.75000000  0.58277731  0.41727437
   0.25000000  0.91722269  0.91727437
   0.75000000  0.08277731  0.08272563
   0.25000000  0.48560611  0.20543536
   0.75000000  0.51439389  0.79456464
   0.25000000  0.98560611  0.29456464
   0.75000000  0.01439389  0.70543536
   0.25000000  0.13889390  0.51863691
   0.75000000  0.86110610  0.48136309
   0.25000000  0.63889390  0.98136309
   0.75000000  0.36110610  0.01863691
   0.75000000  0.27328719  0.30412912
   0.25000000  0.72671281  0.69587088
   0.25000000  0.22671281  0.80412912
   0.75000000  0.77328719  0.19587088
   0.75000000  0.74502698  0.86101276
   0.25000000  0.25497302  0.13898724
   0.75000000  0.24502698  0.63898724
   0.25000000  0.75497302  0.36101276
   0.25000000  0.92450328  0.61172564
   0.75000000  0.57549672  0.11172564
   0.25000000  0.42450328  0.88827436
   0.75000000  0.07549672  0.38827436
   0.75000000  0.08527297  0.88525119
   0.25000000  0.91472703  0.11474881
   0.75000000  0.58527297  0.61474881
   0.25000000  0.41472703  0.38525119
Al4C3 anti-CaFe2O4 - H(P) scan @ 10 GPa 
           1
     2.931607    0.000000    0.000000
     0.000000    8.956083    0.000000
     0.000000    0.000000   10.389205
   Al   C 
    16    12
Direct configuration=    12
   0.25000000  0.41684112  0.58275303
   0.75000000  0.58315888  0.41724697
   0.25000000  0.91684112  0.91724697
   0.75000000  0.08315888  0.08275303
   0.25000000  0.48594389  0.20555652
   0.75000000  0.51405611  0.79444348
   0.25000000  0.98594389  0.29444348
   0.75000000  0.01405611  0.70555652
   0.25000000  0.13868287  0.51853037
   0.75000000  0.86131713  0.48146963
   0.25000000  0.63868287  0.98146963
   0.75000000  0.36131713  0.01853037
   0.75000000  0.27373772  0.30445540
   0.25000000  0.72626228  0.69554460
   0.25000000  0.22626228  0.80445540
   0.75000000  0.77373772  0.19554460
   0.75000000  0.74467368  0.86100063
   0.25000000  0.25532632  0.13899937
   0.75000000  0.24467368  0.63899937
   0.25000000  0.75532632  0.36100063
   0.25000000  0.92427044  0.61182005
   0.75000000  0.57572956  0.11182005
   0.25000000  0.42427044  0.88817995
   0.75000000  0.07572956  0.38817995
   0.75000000  0.08503819  0.88516367
   0.25000000  0.91496181  0.11483633
   0.75000000  0.58503819  0.61483633
   0.25000000  0.41496181  0.38516367
Al4C3 anti-CaFe2O4 - H(P) scan @ 10 GPa 
           1
     2.931666    0.000000    0.000000
     0.000000    8.956264    0.000000
     0.000000    0.000000   10.389415
   Al   C 
    16    12
Direct configuration=    13
   0.25000000  0.41672228  0.58262228
   0.75000000  0.58327772  0.41737772
   0.25000000  0.91672228  0.91737772
   0.75000000  0.08327772  0.08262228
   0.25000000  0.48624891  0.20566643
   0.75000000  0.51375109  0.79433357
   0.25000000  0.98624891  0.29433357
   0.75000000  0.01375109  0.70566643
   0.25000000  0.13859677  0.51874710
   0.75000000  0.86140323  0.48125290
   0.25000000  0.63859677  0.98125290
   0.75000000  0.36140323  0.01874710
   0.75000000  0.27421558  0.30460196
   0.25000000  0.72578442  0.69539804
   0.25000000  0.22578442  0.80460196
   0.75000000  0.77421558  0.19539804
   0.75000000  0.74455061  0.86092984
   0.25000000  0.25544939  0.13907016
   0.75000000  0.24455061  0.63907016
   0.25000000  0.75544939  0.36092984
   0.25000000  0.92414745  0.61183539
   0.75000000  0.57585255  0.11183539
   0.25000000  0.42414745  0.88816461
   0.75000000  0.07585255  0.38816461
   0.75000000  0.08482550  0.88534007
   0.25000000  0.91517450  0.11465993
   0.75000000  0.58482550  0.61465993
   0.25000000  0.41517450  0.38534007
Al4C3 anti-CaFe2O4 - H(P) scan @ 10 GPa 
           1
     2.931684    0.000000    0.000000
     0.000000    8.956320    0.000000
     0.000000    0.000000   10.389480
   Al   C 
    16    12
Direct configuration=    14
   0.25000000  0.41668549  0.58258179
   0.75000000  0.58331451  0.41741821
   0.25000000  0.91668549  0.91741821
   0.75000000  0.08331451  0.08258179
   0.25000000  0.48634334  0.20570045
   0.75000000  0.51365666  0.79429955
   0.25000000  0.98634334  0.29429955
   0.75000000  0.01365666  0.70570045
   0.25000000  0.13857011  0.51881420
   0.75000000  0.86142989  0.48118580
   0.25000000  0.63857011  0.98118580
   0.75000000  0.36142989  0.01881420
   0.75000000  0.27436352  0.30464733
   0.25000000  0.72563648  0.69535267
   0.25000000  0.22563648  0.80464733
   0.75000000  0.77436352  0.19535267
   0.75000000  0.74451250  0.86090793
   0.25000000  0.25548750  0.13909207
   0.75000000  0.24451250  0.63909207
   0.25000000  0.75548750  0.36090793
   0.25000000  0.92410938  0.61184014
   0.75000000  0.57589062  0.11184014
   0.25000000  0.42410938  0.88815986
   0.75000000  0.07589062  0.38815986
   0.75000000  0.08475966  0.88539468
   0.25000000  0.91524034  0.11460532
   0.75000000  0.58475966  0.61460532
   0.25000000  0.41524034  0.38539468
Al4C3 anti-CaFe2O4 - H(P) scan @ 10 GPa 
           1
     2.931644    0.000000    0.000000
     0.000000    8.956199    0.000000
     0.000000    0.000000   10.389339
   Al   C 
    16    12
Direct configuration=    15
   0.25000000  0.41662809  0.58254194
   0.75000000  0.58337191  0.41745806
   0.25000000  0.91662809  0.91745806
   0.75000000  0.08337191  0.08254194
   0.25000000  0.48682894  0.20578065
   0.75000000  0.51317106  0.79421935
   0.25000000  0.98682894  0.29421935
   0.75000000  0.01317106  0.70578065
   0.25000000  0.13838368  0.51913872
   0.75000000  0.86161632  0.48086128
   0.25000000  0.63838368  0.98086128
   0.75000000  0.36161632  0.01913872
   0.75000000  0.27445368  0.30477446
   0.25000000  0.72554632  0.69522554
   0.25000000  0.22554632  0.80477446
   0.75000000  0.77445368  0.19522554
   0.75000000  0.74443690  0.86077491
   0.25000000  0.25556310  0.13922509
   0.75000000  0.24443690  0.63922509
   0.25000000  0.75556310  0.36077491
   0.25000000  0.92384568  0.61181925
   0.75000000  0.57615432  0.11181925
   0.25000000  0.42384568  0.88818075
   0.75000000  0.07615432  0.38818075
   0.75000000  0.08451799  0.88545379
   0.25000000  0.91548201  0.11454621
   0.75000000  0.58451799  0.61454621
   0.25000000  0.41548201  0.38545379
Al4C3 anti-CaFe2O4 - H(P) scan @ 10 GPa 
           1
     2.931624    0.000000    0.000000
     0.000000    8.956137    0.000000
     0.000000    0.000000   10.389267
   Al   C 
    16    12
Direct configuration=    16
   0.25000000  0.41659909  0.58252181
   0.75000000  0.58340091  0.41747819
   0.25000000  0.91659909  0.91747819
   0.75000000  0.08340091  0.08252181
   0.25000000  0.48707425  0.20582117
   0.75000000  0.51292575  0.79417883
   0.25000000  0.98707425  0.29417883
   0.75000000  0.01292575  0.70582117
   0.25000000  0.13828950  0.51930266
   0.75000000  0.86171050  0.48069734
   0.25000000  0.63828950  0.98069734
   0.75000000  0.36171050  0.01930266
   0.75000000  0.27449922  0.30483869
   0.25000000  0.72550078  0.69516131
   0.25000000  0.22550078  0.80483869
   0.75000000  0.77449922  0.19516131
   0.75000000  0.74439871  0.86070771
   0.25000000  0.25560129  0.13929229
   0.75000000  0.24439871  0.63929229
   0.25000000  0.75560129  0.36070771
   0.25000000  0.92371247  0.61180869
   0.75000000  0.57628753  0.11180869
   0.25000000  0.42371247  0.88819131
   0.75000000  0.07628753  0.38819131
   0.75000000  0.08439590  0.88548366
   0.25000000  0.91560410  0.11451634
   0.75000000  0.58439590  0.61451634
   0.25000000  0.41560410  0.38548366
Al4C3 anti-CaFe2O4 - H(P) scan @ 10 GPa 
           1
     2.931794    0.000000    0.000000
     0.000000    8.956657    0.000000
     0.000000    0.000000   10.389870
   Al   C 
    16    12
Direct configuration=    17
   0.25000000  0.41657617  0.58249717
   0.75000000  0.58342383  0.41750283
   0.25000000  0.91657617  0.91750283
   0.75000000  0.08342383  0.08249717
   0.25000000  0.48738418  0.20596169
   0.75000000  0.51261582  0.79403831
   0.25000000  0.98738418  0.29403831
   0.75000000  0.01261582  0.70596169
   0.25000000  0.13817716  0.51953238
   0.75000000  0.86182284  0.48046762
   0.25000000  0.63817716  0.98046762
   0.75000000  0.36182284  0.01953238
   0.75000000  0.27461696  0.30488022
   0.25000000  0.72538304  0.69511978
   0.25000000  0.22538304  0.80488022
   0.75000000  0.77461696  0.19511978
   0.75000000  0.74432010  0.86059522
   0.25000000  0.25567990  0.13940478
   0.75000000  0.24432010  0.63940478
   0.25000000  0.75567990  0.36059522
   0.25000000  0.92359731  0.61166729
   0.75000000  0.57640269  0.11166729
   0.25000000  0.42359731  0.88833271
   0.75000000  0.07640269  0.38833271
   0.75000000  0.08425569  0.88537506
   0.25000000  0.91574431  0.11462494
   0.75000000  0.58425569  0.61462494
   0.25000000  0.41574431  0.38537506
Al4C3 anti-CaFe2O4 - H(P) scan @ 10 GPa 
           1
     2.931876    0.000000    0.000000
     0.000000    8.956906    0.000000
     0.000000    0.000000   10.390160
   Al   C 
    16    12
Direct configuration=    18
   0.25000000  0.41656515  0.58248532
   0.75000000  0.58343485  0.41751468
   0.25000000  0.91656515  0.91751468
   0.75000000  0.08343485  0.08248532
   0.25000000  0.48753318  0.20602925
   0.75000000  0.51246682  0.79397075
   0.25000000  0.98753318  0.29397075
   0.75000000  0.01246682  0.70602925
   0.25000000  0.13812315  0.51964282
   0.75000000  0.86187685  0.48035718
   0.25000000  0.63812315  0.98035718
   0.75000000  0.36187685  0.01964282
   0.75000000  0.27467357  0.30490018
   0.25000000  0.72532643  0.69509982
   0.25000000  0.22532643  0.80490018
   0.75000000  0.77467357  0.19509982
   0.75000000  0.74428231  0.86054114
   0.25000000  0.25571769  0.13945886
   0.75000000  0.24428231  0.63945886
   0.25000000  0.75571769  0.36054114
   0.25000000  0.92354194  0.61159930
   0.75000000  0.57645806  0.11159930
   0.25000000  0.42354194  0.88840070
   0.75000000  0.07645806  0.38840070
   0.75000000  0.08418828  0.88532285
   0.25000000  0.91581172  0.11467715
   0.75000000  0.58418828  0.61467715
   0.25000000  0.41581172  0.38532285
Al4C3 anti-CaFe2O4 - H(P) scan @ 10 GPa 
           1
     2.931856    0.000000    0.000000
     0.000000    8.956844    0.000000
     0.000000    0.000000   10.390087
   Al   C 
    16    12
Direct configuration=    19
   0.25000000  0.41653413  0.58244150
   0.75000000  0.58346587  0.41755850
   0.25000000  0.91653413  0.91755850
   0.75000000  0.08346587  0.08244150
   0.25000000  0.48766833  0.20599407
   0.75000000  0.51233167  0.79400593
   0.25000000  0.98766833  0.29400593
   0.75000000  0.01233167  0.70599407
   0.25000000  0.13807829  0.51967327
   0.75000000  0.86192171  0.48032673
   0.25000000  0.63807829  0.98032673
   0.75000000  0.36192171  0.01967327
   0.75000000  0.27472313  0.30486913
   0.25000000  0.72527687  0.69513087
   0.25000000  0.22527687  0.80486913
   0.75000000  0.77472313  0.19513087
   0.75000000  0.74427605  0.86050878
   0.25000000  0.25572395  0.13949122
   0.75000000  0.24427605  0.63949122
   0.25000000  0.75572395  0.36050878
   0.25000000  0.92357733  0.61152696
   0.75000000  0.57642267  0.11152696
   0.25000000  0.42357733  0.88847304
   0.75000000  0.07642267  0.38847304
   0.75000000  0.08416170  0.88529897
   0.25000000  0.91583830  0.11470103
   0.75000000  0.58416170  0.61470103
   0.25000000  0.41583830  0.38529897
