       N       E                     dE             d eps       ncg     rms          rms(c)
DAV:   1     0.624188391300E+03    0.62419E+03   -0.89019E+04  2520   0.149E+03
DAV:   2    -0.318741531392E+03   -0.94293E+03   -0.89079E+03  3180   0.230E+02
DAV:   3    -0.400404446404E+03   -0.81663E+02   -0.80969E+02  3012   0.656E+01
DAV:   4    -0.402582104035E+03   -0.21777E+01   -0.21705E+01  3060   0.117E+01
DAV:   5    -0.402646018351E+03   -0.63914E-01   -0.63856E-01  3084   0.202E+00    0.368E+01
DAV:   6    -0.347476042213E+03    0.55170E+02   -0.21241E+02  2976   0.278E+01    0.113E+01
DAV:   7    -0.346593202737E+03    0.88284E+00   -0.12345E+01  3120   0.807E+00    0.743E+00
DAV:   8    -0.346368777329E+03    0.22443E+00   -0.11917E+00  2994   0.295E+00    0.192E+00
DAV:   9    -0.346341071534E+03    0.27706E-01   -0.21074E-01  2976   0.101E+00    0.537E-01
DAV:  10    -0.346342326443E+03   -0.12549E-02   -0.16714E-02  2910   0.292E-01    0.262E-01
DAV:  11    -0.346342339097E+03   -0.12654E-04   -0.97669E-04  3024   0.111E-01    0.122E-01
DAV:  12    -0.346342294281E+03    0.44816E-04   -0.14150E-03  2952   0.767E-02    0.317E-02
DAV:  13    -0.346342282650E+03    0.11632E-04   -0.23214E-04  3288   0.411E-02    0.174E-02
DAV:  14    -0.346342278858E+03    0.37922E-05   -0.33527E-05  2448   0.165E-02
   1 F= -.34634228E+03 E0= -.34634228E+03  d E =-.346342E+03
