Al4C3 Fd-3m polymorph (findsym-output) - 
   1.00000000000000
        8.5944137573         0.0000000000         0.0000000000
        0.0000000000         8.5944137573         0.0000000000
        0.0000000000         0.0000000000         8.5944137573
   Al    C
   32   24
Direct
     0.761380017         0.761380017         0.761380017
     0.238619983         0.238619983         0.238619983
     0.988619983         0.488619983         0.261380017
     0.011380017         0.511380017         0.738619983
     0.488619983         0.261380017         0.988619983
     0.511380017         0.738619983         0.011380017
     0.261380017         0.988619983         0.488619983
     0.738619983         0.011380017         0.511380017
     0.511380017         0.011380017         0.738619983
     0.488619983         0.988619983         0.261380017
     0.011380017         0.738619983         0.511380017
     0.988619983         0.261380017         0.488619983
     0.738619983         0.511380017         0.011380017
     0.261380017         0.488619983         0.988619983
     0.761380017         0.261380017         0.261380017
     0.238619983         0.738619983         0.738619983
     0.988619983         0.988619983         0.761380017
     0.011380017         0.011380017         0.238619983
     0.488619983         0.761380017         0.488619983
     0.511380017         0.238619983         0.511380017
     0.511380017         0.511380017         0.238619983
     0.488619983         0.488619983         0.761380017
     0.011380017         0.238619983         0.011380017
     0.988619983         0.761380017         0.988619983
     0.261380017         0.761380017         0.261380017
     0.738619983         0.238619983         0.738619983
     0.761380017         0.988619983         0.988619983
     0.238619983         0.011380017         0.011380017
     0.238619983         0.511380017         0.511380017
     0.761380017         0.488619983         0.488619983
     0.261380017         0.261380017         0.761380017
     0.738619983         0.738619983         0.238619983
     0.000000000         0.000000000         0.000000000
     0.750000000         0.250000000         0.500000000
     0.250000000         0.750000000         0.500000000
     0.250000000         0.500000000         0.750000000
     0.750000000         0.500000000         0.250000000
     0.500000000         0.750000000         0.250000000
     0.500000000         0.250000000         0.750000000
     0.000000000         0.500000000         0.500000000
     0.750000000         0.750000000         0.000000000
     0.250000000         0.250000000         0.000000000
     0.250000000         0.000000000         0.250000000
     0.750000000         0.000000000         0.750000000
     0.500000000         0.000000000         0.500000000
     0.000000000         0.750000000         0.750000000
     0.000000000         0.250000000         0.250000000
     0.500000000         0.500000000         0.000000000
     0.375000000         0.375000000         0.375000000
     0.625000000         0.625000000         0.625000000
     0.375000000         0.875000000         0.875000000
     0.625000000         0.125000000         0.125000000
     0.875000000         0.875000000         0.375000000
     0.125000000         0.125000000         0.625000000
     0.875000000         0.375000000         0.875000000
     0.125000000         0.625000000         0.125000000
