  56  56   0   0
  0.8300158E+01  0.7746249E-09  0.7746249E-09  0.7746249E-09  0.5000000E-15
  1.000000000000000E-004
  CAR 
 Al4C3 Fd-3m - r2SCAN H(P) scan @ 100 GPa
     20.09658888     -6.96916982  301     11.71748108      1.00000000
     -6.969  0.0000E+00  0.0000E+00
     -6.879  0.0000E+00  0.0000E+00
     -6.789  0.0000E+00  0.0000E+00
     -6.699  0.0000E+00  0.0000E+00
     -6.608  0.0000E+00  0.0000E+00
     -6.518  0.0000E+00  0.0000E+00
     -6.428  0.0000E+00  0.0000E+00
     -6.338  0.0000E+00  0.0000E+00
     -6.247  0.0000E+00  0.0000E+00
     -6.157  0.0000E+00  0.0000E+00
     -6.067  0.0000E+00  0.0000E+00
     -5.977  0.7656E-14  0.6907E-15
     -5.887  0.1317E-07  0.1189E-08
     -5.796  0.4649E-04  0.4195E-05
     -5.706  0.1117E-02  0.1050E-03
     -5.616  0.5732E-02  0.6222E-03
     -5.526  0.1049E-01  0.1569E-02
     -5.435  0.7674E-02  0.2261E-02
     -5.345  0.1236E-01  0.3376E-02
     -5.255  0.2433E-01  0.5571E-02
     -5.165  0.1046E-01  0.6515E-02
     -5.075  0.1127E-01  0.7531E-02
     -4.984  0.2583E-01  0.9862E-02
     -4.894  0.2666E-01  0.1227E-01
     -4.804  0.2205E-01  0.1426E-01
     -4.714  0.2709E-01  0.1670E-01
     -4.623  0.4033E-01  0.2034E-01
     -4.533  0.1805E-01  0.2197E-01
     -4.443  0.2632E-01  0.2434E-01
     -4.353  0.5026E-01  0.2888E-01
     -4.263  0.4871E-01  0.3327E-01
     -4.172  0.1865E-01  0.3495E-01
     -4.082  0.7538E-02  0.3563E-01
     -3.992  0.1368E-01  0.3687E-01
     -3.902  0.7706E-02  0.3756E-01
     -3.811  0.1970E-01  0.3934E-01
     -3.721  0.2910E-01  0.4197E-01
     -3.631  0.1187E-01  0.4304E-01
     -3.541  0.6162E-02  0.4359E-01
     -3.451  0.4198E-01  0.4738E-01
     -3.360  0.5431E-01  0.5228E-01
     -3.270  0.2733E-01  0.5475E-01
     -3.180  0.6056E-01  0.6021E-01
     -3.090  0.4541E-01  0.6431E-01
     -3.000  0.1036E-02  0.6440E-01
     -2.909  0.1862E-02  0.6457E-01
     -2.819  0.3102E-01  0.6737E-01
     -2.729  0.3010E-01  0.7008E-01
     -2.639  0.1099E-02  0.7018E-01
     -2.548  0.1388E-01  0.7143E-01
     -2.458  0.3455E-01  0.7455E-01
     -2.368  0.3120E-01  0.7737E-01
     -2.278  0.5445E-01  0.8228E-01
     -2.188  0.6952E-01  0.8855E-01
     -2.097  0.3373E-01  0.9159E-01
     -2.007  0.2093E-01  0.9348E-01
     -1.917  0.4394E-01  0.9745E-01
     -1.827  0.8226E-01  0.1049E+00
     -1.736  0.5571E-01  0.1099E+00
     -1.646  0.3511E-01  0.1131E+00
     -1.556  0.3930E-01  0.1166E+00
     -1.466  0.8027E-01  0.1238E+00
     -1.376  0.2975E-01  0.1265E+00
     -1.285  0.8463E-01  0.1342E+00
     -1.195  0.9815E-01  0.1430E+00
     -1.105  0.8887E-01  0.1510E+00
     -1.015  0.6927E-01  0.1573E+00
     -0.924  0.9134E-01  0.1655E+00
     -0.834  0.9230E-01  0.1739E+00
     -0.744  0.1141E+00  0.1842E+00
     -0.654  0.1287E+00  0.1958E+00
     -0.564  0.7387E-01  0.2024E+00
     -0.473  0.8209E-01  0.2098E+00
     -0.383  0.1519E+00  0.2235E+00
     -0.293  0.9107E-01  0.2318E+00
     -0.203  0.6978E-01  0.2381E+00
     -0.113  0.2134E-01  0.2400E+00
     -0.022  0.2575E-03  0.2400E+00
      0.068  0.1248E-07  0.2400E+00
      0.158  0.1277E-14  0.2400E+00
      0.248  0.0000E+00  0.2400E+00
      0.339  0.0000E+00  0.2400E+00
      0.429  0.0000E+00  0.2400E+00
      0.519  0.0000E+00  0.2400E+00
      0.609  0.0000E+00  0.2400E+00
      0.699  0.0000E+00  0.2400E+00
      0.790  0.0000E+00  0.2400E+00
      0.880  0.0000E+00  0.2400E+00
      0.970  0.0000E+00  0.2400E+00
      1.060  0.0000E+00  0.2400E+00
      1.151  0.0000E+00  0.2400E+00
      1.241  0.0000E+00  0.2400E+00
      1.331  0.0000E+00  0.2400E+00
      1.421  0.0000E+00  0.2400E+00
      1.511  0.2461E-18  0.2400E+00
      1.602  0.1198E-10  0.2400E+00
      1.692  0.1166E-05  0.2400E+00
      1.782  0.2863E-03  0.2400E+00
      1.872  0.5833E-03  0.2401E+00
      1.963  0.3553E-04  0.2401E+00
      2.053  0.2369E-02  0.2403E+00
      2.143  0.4687E-02  0.2407E+00
      2.233  0.8469E-02  0.2415E+00
      2.323  0.5534E-02  0.2420E+00
      2.414  0.1970E-02  0.2422E+00
      2.504  0.1853E-03  0.2422E+00
      2.594  0.1283E-01  0.2433E+00
      2.684  0.3382E-01  0.2464E+00
      2.775  0.1425E-01  0.2477E+00
      2.865  0.1736E-01  0.2492E+00
      2.955  0.1561E-01  0.2506E+00
      3.045  0.3234E-01  0.2536E+00
      3.135  0.6900E-01  0.2598E+00
      3.226  0.8076E-01  0.2671E+00
      3.316  0.9346E-01  0.2755E+00
      3.406  0.7535E-01  0.2823E+00
      3.496  0.9115E-01  0.2905E+00
      3.586  0.9481E-01  0.2991E+00
      3.677  0.7456E-01  0.3058E+00
      3.767  0.6229E-01  0.3114E+00
      3.857  0.7943E-01  0.3186E+00
      3.947  0.6347E-01  0.3243E+00
      4.038  0.6468E-01  0.3302E+00
      4.128  0.1527E+00  0.3439E+00
      4.218  0.8926E-01  0.3520E+00
      4.308  0.9658E-01  0.3607E+00
      4.398  0.6250E-01  0.3663E+00
      4.489  0.3662E-01  0.3696E+00
      4.579  0.8425E-01  0.3772E+00
      4.669  0.1212E+00  0.3882E+00
      4.759  0.7102E-01  0.3946E+00
      4.850  0.1386E-01  0.3958E+00
      4.940  0.7572E-01  0.4027E+00
      5.030  0.7025E-01  0.4090E+00
      5.120  0.3570E-01  0.4122E+00
      5.210  0.6544E-01  0.4181E+00
      5.301  0.7159E-01  0.4246E+00
      5.391  0.6169E-01  0.4301E+00
      5.481  0.4448E-01  0.4342E+00
      5.571  0.4964E-01  0.4386E+00
      5.662  0.9447E-01  0.4472E+00
      5.752  0.1233E+00  0.4583E+00
      5.842  0.5339E-01  0.4631E+00
      5.932  0.2356E-01  0.4652E+00
      6.022  0.1640E-01  0.4667E+00
      6.113  0.6949E-01  0.4730E+00
      6.203  0.8831E-01  0.4809E+00
      6.293  0.8259E-01  0.4884E+00
      6.383  0.8679E-01  0.4962E+00
      6.473  0.8677E-01  0.5041E+00
      6.564  0.6203E-01  0.5097E+00
      6.654  0.5512E-01  0.5146E+00
      6.744  0.5807E-01  0.5199E+00
      6.834  0.8001E-01  0.5271E+00
      6.925  0.4951E-01  0.5315E+00
      7.015  0.5965E-01  0.5369E+00
      7.105  0.6074E-01  0.5424E+00
      7.195  0.7871E-01  0.5495E+00
      7.285  0.6904E-01  0.5557E+00
      7.376  0.1019E+00  0.5649E+00
      7.466  0.7844E-01  0.5720E+00
      7.556  0.7994E-01  0.5792E+00
      7.646  0.7260E-01  0.5858E+00
      7.737  0.7462E-01  0.5925E+00
      7.827  0.1432E+00  0.6054E+00
      7.917  0.1216E+00  0.6164E+00
      8.007  0.1015E+00  0.6255E+00
      8.097  0.8930E-01  0.6336E+00
      8.188  0.9431E-01  0.6421E+00
      8.278  0.6981E-01  0.6484E+00
      8.368  0.6483E-01  0.6543E+00
      8.458  0.1687E+00  0.6695E+00
      8.549  0.1580E+00  0.6837E+00
      8.639  0.1285E+00  0.6953E+00
      8.729  0.1488E+00  0.7087E+00
      8.819  0.1145E+00  0.7191E+00
      8.909  0.2496E+00  0.7416E+00
      9.000  0.8403E-01  0.7492E+00
      9.090  0.9484E-01  0.7577E+00
      9.180  0.1461E+00  0.7709E+00
      9.270  0.2448E+00  0.7930E+00
      9.361  0.1551E+00  0.8070E+00
      9.451  0.1197E+00  0.8178E+00
      9.541  0.1443E+00  0.8308E+00
      9.631  0.1607E+00  0.8453E+00
      9.721  0.1437E+00  0.8583E+00
      9.812  0.6492E-01  0.8641E+00
      9.902  0.5904E-01  0.8695E+00
      9.992  0.1295E+00  0.8812E+00
     10.082  0.5742E-01  0.8863E+00
     10.172  0.3911E-01  0.8899E+00
     10.263  0.4653E-01  0.8941E+00
     10.353  0.9286E-02  0.8949E+00
     10.443  0.3271E-01  0.8978E+00
     10.533  0.1095E+00  0.9077E+00
     10.624  0.6453E-01  0.9135E+00
     10.714  0.7845E-01  0.9206E+00
     10.804  0.1381E+00  0.9331E+00
     10.894  0.7722E-01  0.9400E+00
     10.984  0.4081E-01  0.9437E+00
     11.075  0.4301E-01  0.9476E+00
     11.165  0.6183E-01  0.9532E+00
     11.255  0.2621E-01  0.9556E+00
     11.345  0.2010E-01  0.9574E+00
     11.436  0.2176E-01  0.9593E+00
     11.526  0.6552E-02  0.9599E+00
     11.616  0.8728E-03  0.9600E+00
     11.706  0.3393E-05  0.9600E+00
     11.796  0.3406E-10  0.9600E+00
     11.887  0.5907E-18  0.9600E+00
     11.977  0.0000E+00  0.9600E+00
     12.067  0.0000E+00  0.9600E+00
     12.157  0.0000E+00  0.9600E+00
     12.248  0.0000E+00  0.9600E+00
     12.338  0.0000E+00  0.9600E+00
     12.428  0.0000E+00  0.9600E+00
     12.518  0.0000E+00  0.9600E+00
     12.608  0.0000E+00  0.9600E+00
     12.699  0.0000E+00  0.9600E+00
     12.789  0.0000E+00  0.9600E+00
     12.879  0.0000E+00  0.9600E+00
     12.969  0.5437E-14  0.9600E+00
     13.059  0.1058E-07  0.9600E+00
     13.150  0.4177E-04  0.9600E+00
     13.240  0.6766E-03  0.9601E+00
     13.330  0.1681E-03  0.9601E+00
     13.420  0.2678E-06  0.9601E+00
     13.511  0.1358E-04  0.9601E+00
     13.601  0.2125E-02  0.9603E+00
     13.691  0.3126E-02  0.9606E+00
     13.781  0.5656E-04  0.9606E+00
     13.871  0.1140E-03  0.9606E+00
     13.962  0.6263E-02  0.9611E+00
     14.052  0.4237E-02  0.9615E+00
     14.142  0.4538E-04  0.9615E+00
     14.232  0.2853E-02  0.9618E+00
     14.323  0.5460E-02  0.9623E+00
     14.413  0.7718E-02  0.9630E+00
     14.503  0.1577E-01  0.9644E+00
     14.593  0.2872E-01  0.9670E+00
     14.683  0.3481E-01  0.9701E+00
     14.774  0.3595E-01  0.9734E+00
     14.864  0.7753E-01  0.9804E+00
     14.954  0.4491E-01  0.9844E+00
     15.044  0.2513E-01  0.9867E+00
     15.135  0.6244E-01  0.9923E+00
     15.225  0.3238E-01  0.9952E+00
     15.315  0.4215E-01  0.9990E+00
     15.405  0.1217E+00  0.1010E+01
     15.495  0.1332E+00  0.1022E+01
     15.586  0.7446E-01  0.1029E+01
     15.676  0.6966E-01  0.1035E+01
     15.766  0.7272E-01  0.1042E+01
     15.856  0.1040E+00  0.1051E+01
     15.947  0.7833E-01  0.1058E+01
     16.037  0.4265E-01  0.1062E+01
     16.127  0.9228E-01  0.1070E+01
     16.217  0.9759E-01  0.1079E+01
     16.307  0.3761E-01  0.1082E+01
     16.398  0.9769E-01  0.1091E+01
     16.488  0.7700E-01  0.1098E+01
     16.578  0.1058E+00  0.1108E+01
     16.668  0.4623E-01  0.1112E+01
     16.758  0.3220E-01  0.1115E+01
     16.849  0.3874E-01  0.1118E+01
     16.939  0.4888E-01  0.1123E+01
     17.029  0.8063E-01  0.1130E+01
     17.119  0.6766E-01  0.1136E+01
     17.210  0.4548E-01  0.1140E+01
     17.300  0.1138E+00  0.1150E+01
     17.390  0.9575E-01  0.1159E+01
     17.480  0.9843E-01  0.1168E+01
     17.570  0.1591E+00  0.1182E+01
     17.661  0.1180E+00  0.1193E+01
     17.751  0.1044E+00  0.1202E+01
     17.841  0.1298E+00  0.1214E+01
     17.931  0.1173E+00  0.1225E+01
     18.022  0.1049E+00  0.1234E+01
     18.112  0.5472E-01  0.1239E+01
     18.202  0.7053E-01  0.1245E+01
     18.292  0.1563E-01  0.1247E+01
     18.382  0.2959E-01  0.1250E+01
     18.473  0.5110E-01  0.1254E+01
     18.563  0.4613E-01  0.1258E+01
     18.653  0.4794E-02  0.1259E+01
     18.743  0.1209E-04  0.1259E+01
     18.834  0.2504E-02  0.1259E+01
     18.924  0.1094E-01  0.1260E+01
     19.014  0.7404E-03  0.1260E+01
     19.104  0.2108E-06  0.1260E+01
     19.194  0.1225E-12  0.1260E+01
     19.285  0.0000E+00  0.1260E+01
     19.375  0.0000E+00  0.1260E+01
     19.465  0.0000E+00  0.1260E+01
     19.555  0.0000E+00  0.1260E+01
     19.645  0.0000E+00  0.1260E+01
     19.736  0.0000E+00  0.1260E+01
     19.826  0.0000E+00  0.1260E+01
     19.916  0.0000E+00  0.1260E+01
     20.006  0.0000E+00  0.1260E+01
     20.097  0.0000E+00  0.1260E+01
