       N       E                     dE             d eps       ncg     rms          rms(c)
DAV:   1    -0.461810069977E+03   -0.46181E+03   -0.54177E+00  2544   0.811E+00    0.454E+00
DAV:   2    -0.430567942647E+03    0.31242E+02   -0.37177E+00  2532   0.691E+00    0.811E-01
DAV:   3    -0.431227552144E+03   -0.65961E+00   -0.50460E-01  2580   0.243E+00    0.130E+00
DAV:   4    -0.431277227453E+03   -0.49675E-01   -0.40387E-02  2802   0.620E-01    0.140E+00
DAV:   5    -0.431279377928E+03   -0.21505E-02   -0.54267E-03  2808   0.193E-01    0.102E+00
DAV:   6    -0.431277618818E+03    0.17591E-02   -0.13139E-02  2856   0.267E-01    0.253E-01
DAV:   7    -0.431277745670E+03   -0.12685E-03   -0.73115E-04  3024   0.717E-02    0.104E-01
DAV:   8    -0.431277775876E+03   -0.30206E-04   -0.46449E-05  2556   0.197E-02    0.580E-02
DAV:   9    -0.431277798720E+03   -0.22845E-04   -0.13892E-05  1356   0.123E-02    0.108E-02
DAV:  10    -0.431277802011E+03   -0.32905E-05   -0.10578E-06  1332   0.399E-03
   1 F= -.14116706E+03 E0= -.14116706E+03  d E =-.141167E+03
       N       E                     dE             d eps       ncg     rms          rms(c)
DAV:   1    -0.408583619158E+03    0.22694E+02   -0.26784E+01  2550   0.168E+01    0.601E+00
DAV:   2    -0.408132376725E+03    0.45124E+00   -0.19971E+00  2832   0.361E+00    0.306E+00
DAV:   3    -0.408117256212E+03    0.15121E-01   -0.32042E-01  2814   0.133E+00    0.928E-01
DAV:   4    -0.408124584349E+03   -0.73281E-02   -0.12577E-02  2880   0.374E-01    0.542E-01
DAV:   5    -0.408126142787E+03   -0.15584E-02   -0.17442E-03  2856   0.144E-01    0.429E-01
DAV:   6    -0.408127231400E+03   -0.10886E-02   -0.13373E-03  2808   0.137E-01    0.616E-02
DAV:   7    -0.408126965491E+03    0.26591E-03   -0.15253E-04  2754   0.398E-02    0.299E-02
DAV:   8    -0.408126882763E+03    0.82729E-04   -0.80167E-05  2724   0.224E-02    0.148E-02
DAV:   9    -0.408126858432E+03    0.24330E-04   -0.79998E-06  1398   0.767E-03    0.391E-03
DAV:  10    -0.408126850400E+03    0.80320E-05   -0.59507E-07  1344   0.306E-03
   2 F= -.13921290E+03 E0= -.13921290E+03  d E =0.195416E+01
       N       E                     dE             d eps       ncg     rms          rms(c)
DAV:   1    -0.426024660599E+03   -0.17898E+02   -0.13866E+01  2550   0.116E+01    0.441E+00
DAV:   2    -0.425824055900E+03    0.20060E+00   -0.10984E+00  2820   0.259E+00    0.228E+00
DAV:   3    -0.425807610521E+03    0.16445E-01   -0.16738E-01  2844   0.951E-01    0.703E-01
DAV:   4    -0.425808685099E+03   -0.10746E-02   -0.76233E-03  2892   0.289E-01    0.376E-01
DAV:   5    -0.425808788475E+03   -0.10338E-03   -0.10661E-03  2814   0.115E-01    0.311E-01
DAV:   6    -0.425808108150E+03    0.68032E-03   -0.85554E-04  2820   0.104E-01    0.436E-02
DAV:   7    -0.425808164618E+03   -0.56468E-04   -0.12237E-04  2754   0.342E-02    0.213E-02
DAV:   8    -0.425808208622E+03   -0.44004E-04   -0.78124E-05  2748   0.217E-02    0.959E-03
DAV:   9    -0.425808211602E+03   -0.29800E-05   -0.80371E-06  1356   0.756E-03
   3 F= -.14146723E+03 E0= -.14146723E+03  d E =-.300178E+00
       N       E                     dE             d eps       ncg     rms          rms(c)
DAV:   1    -0.425754793271E+03    0.53415E-01   -0.17222E-04  2652   0.415E-02    0.169E-02
DAV:   2    -0.425754823380E+03   -0.30109E-04   -0.12860E-05  1332   0.922E-03    0.102E-02
DAV:   3    -0.425754848697E+03   -0.25317E-04   -0.45797E-06  1332   0.531E-03    0.264E-03
DAV:   4    -0.425754853228E+03   -0.45308E-05   -0.35498E-07  1332   0.196E-03
   4 F= -.14146733E+03 E0= -.14146733E+03  d E =-.300275E+00
       N       E                     dE             d eps       ncg     rms          rms(c)
DAV:   1    -0.425617764133E+03    0.13708E+00   -0.14983E-01  2694   0.121E+00    0.147E-01
DAV:   2    -0.425620156070E+03   -0.23919E-02   -0.20595E-02  2874   0.400E-01    0.169E-01
DAV:   3    -0.425620335479E+03   -0.17941E-03   -0.34933E-04  3132   0.500E-02    0.190E-01
DAV:   4    -0.425619994279E+03    0.34120E-03   -0.21560E-04  2832   0.433E-02    0.160E-01
DAV:   5    -0.425619670110E+03    0.32417E-03   -0.21142E-03  2820   0.132E-01    0.121E-01
DAV:   6    -0.425619669865E+03    0.24513E-06   -0.19687E-04  2862   0.390E-02    0.116E-01
DAV:   7    -0.425619626484E+03    0.43380E-04   -0.15096E-05  1896   0.132E-02    0.523E-02
DAV:   8    -0.425619571163E+03    0.55321E-04   -0.59056E-05  2868   0.215E-02    0.712E-02
DAV:   9    -0.425619571894E+03   -0.73082E-06   -0.43679E-06  1398   0.733E-03
   5 F= -.14146232E+03 E0= -.14146232E+03  d E =0.500924E-02
       N       E                     dE             d eps       ncg     rms          rms(c)
DAV:   1    -0.425709510062E+03   -0.89939E-01   -0.61209E-02  2694   0.776E-01    0.116E-01
DAV:   2    -0.425710584404E+03   -0.10743E-02   -0.85332E-03  2862   0.258E-01    0.113E-01
DAV:   3    -0.425710555035E+03    0.29369E-04   -0.13049E-04  2886   0.349E-02    0.112E-01
DAV:   4    -0.425710473649E+03    0.81386E-04   -0.11655E-04  2508   0.354E-02    0.747E-02
DAV:   5    -0.425710473118E+03    0.53160E-06   -0.50274E-04  2868   0.676E-02    0.143E-02
DAV:   6    -0.425710485801E+03   -0.12683E-04   -0.67080E-05  2448   0.220E-02    0.120E-02
DAV:   7    -0.425710484176E+03    0.16252E-05   -0.62709E-06  1332   0.805E-03
   6 F= -.14146974E+03 E0= -.14146974E+03  d E =-.240541E-02
