Al4C3 Fd-3m polymorph (findsym-output) -
   1.00000000000000     
     7.7462492301545725    0.0000000000000000    0.0000000000000000
     0.0000000000000000    7.7462492301545725    0.0000000000000000
     0.0000000000000000    0.0000000000000000    7.7462492301545725
   Al   C 
    32    24
Direct
  0.7598129649269734  0.7598129649269734  0.7598129649269734
  0.2401870350730267  0.2401870350730267  0.2401870350730267
  0.9901870350730266  0.4901870350730266  0.2598129649269734
  0.0098129649269733  0.5098129649269734  0.7401870350730266
  0.4901870350730266  0.2598129649269734  0.9901870350730266
  0.5098129649269734  0.7401870350730266  0.0098129649269733
  0.2598129649269734  0.9901870350730266  0.4901870350730266
  0.7401870350730266  0.0098129649269733  0.5098129649269734
  0.5098129649269734  0.0098129649269733  0.7401870350730266
  0.4901870350730266  0.9901870350730266  0.2598129649269734
  0.0098129649269733  0.7401870350730266  0.5098129649269734
  0.9901870350730266  0.2598129649269734  0.4901870350730266
  0.7401870350730266  0.5098129649269734  0.0098129649269733
  0.2598129649269734  0.4901870350730266  0.9901870350730266
  0.7598129649269734  0.2598129649269734  0.2598129649269734
  0.2401870350730267  0.7401870350730266  0.7401870350730266
  0.9901870350730266  0.9901870350730266  0.7598129649269734
  0.0098129649269733  0.0098129649269733  0.2401870350730267
  0.4901870350730266  0.7598129649269734  0.4901870350730266
  0.5098129649269734  0.2401870350730267  0.5098129649269734
  0.5098129649269734  0.5098129649269734  0.2401870350730267
  0.4901870350730266  0.4901870350730266  0.7598129649269734
  0.0098129649269733  0.2401870350730267  0.0098129649269733
  0.9901870350730266  0.7598129649269734  0.9901870350730266
  0.2598129649269734  0.7598129649269734  0.2598129649269734
  0.7401870350730266  0.2401870350730267  0.7401870350730266
  0.7598129649269734  0.9901870350730266  0.9901870350730266
  0.2401870350730267  0.0098129649269733  0.0098129649269733
  0.2401870350730267  0.5098129649269734  0.5098129649269734
  0.7598129649269734  0.4901870350730266  0.4901870350730266
  0.2598129649269734  0.2598129649269734  0.7598129649269734
  0.7401870350730266  0.7401870350730266  0.2401870350730267
  0.0000000000000000 -0.0000000000000000  0.0000000000000000
  0.7500000000000000  0.2500000000000000  0.5000000000000000
  0.2500000000000000  0.7500000000000000  0.5000000000000000
  0.2500000000000000  0.5000000000000000  0.7500000000000000
  0.7500000000000000  0.5000000000000000  0.2500000000000000
  0.5000000000000000  0.7500000000000000  0.2500000000000000
  0.5000000000000000  0.2500000000000000  0.7500000000000000
  0.0000000000000000  0.5000000000000000  0.5000000000000000
  0.7500000000000000  0.7500000000000000  0.0000000000000000
  0.2500000000000000  0.2500000000000000  0.0000000000000000
  0.2500000000000000 -0.0000000000000000  0.2500000000000000
  0.7500000000000000 -0.0000000000000000  0.7500000000000000
  0.5000000000000000 -0.0000000000000000  0.5000000000000000
  0.0000000000000000  0.7500000000000000  0.7500000000000000
  0.0000000000000000  0.2500000000000000  0.2500000000000000
  0.5000000000000000  0.5000000000000000  0.0000000000000000
  0.3750000000000000  0.3750000000000000  0.3750000000000000
  0.6250000000000000  0.6250000000000000  0.6250000000000000
  0.3750000000000000  0.8750000000000000  0.8750000000000000
  0.6250000000000000  0.1250000000000000  0.1250000000000000
  0.8750000000000000  0.8750000000000000  0.3750000000000000
  0.1250000000000000  0.1250000000000000  0.6250000000000000
  0.8750000000000000  0.3750000000000000  0.8750000000000000
  0.1250000000000000  0.6250000000000000  0.1250000000000000
 
  0.00000000E+00  0.00000000E+00  0.00000000E+00
  0.00000000E+00  0.00000000E+00  0.00000000E+00
  0.00000000E+00  0.00000000E+00  0.00000000E+00
  0.00000000E+00  0.00000000E+00  0.00000000E+00
  0.00000000E+00  0.00000000E+00  0.00000000E+00
  0.00000000E+00  0.00000000E+00  0.00000000E+00
  0.00000000E+00  0.00000000E+00  0.00000000E+00
  0.00000000E+00  0.00000000E+00  0.00000000E+00
  0.00000000E+00  0.00000000E+00  0.00000000E+00
  0.00000000E+00  0.00000000E+00  0.00000000E+00
  0.00000000E+00  0.00000000E+00  0.00000000E+00
  0.00000000E+00  0.00000000E+00  0.00000000E+00
  0.00000000E+00  0.00000000E+00  0.00000000E+00
  0.00000000E+00  0.00000000E+00  0.00000000E+00
  0.00000000E+00  0.00000000E+00  0.00000000E+00
  0.00000000E+00  0.00000000E+00  0.00000000E+00
  0.00000000E+00  0.00000000E+00  0.00000000E+00
  0.00000000E+00  0.00000000E+00  0.00000000E+00
  0.00000000E+00  0.00000000E+00  0.00000000E+00
  0.00000000E+00  0.00000000E+00  0.00000000E+00
  0.00000000E+00  0.00000000E+00  0.00000000E+00
  0.00000000E+00  0.00000000E+00  0.00000000E+00
  0.00000000E+00  0.00000000E+00  0.00000000E+00
  0.00000000E+00  0.00000000E+00  0.00000000E+00
  0.00000000E+00  0.00000000E+00  0.00000000E+00
  0.00000000E+00  0.00000000E+00  0.00000000E+00
  0.00000000E+00  0.00000000E+00  0.00000000E+00
  0.00000000E+00  0.00000000E+00  0.00000000E+00
  0.00000000E+00  0.00000000E+00  0.00000000E+00
  0.00000000E+00  0.00000000E+00  0.00000000E+00
  0.00000000E+00  0.00000000E+00  0.00000000E+00
  0.00000000E+00  0.00000000E+00  0.00000000E+00
  0.00000000E+00  0.00000000E+00  0.00000000E+00
  0.00000000E+00  0.00000000E+00  0.00000000E+00
  0.00000000E+00  0.00000000E+00  0.00000000E+00
  0.00000000E+00  0.00000000E+00  0.00000000E+00
  0.00000000E+00  0.00000000E+00  0.00000000E+00
  0.00000000E+00  0.00000000E+00  0.00000000E+00
  0.00000000E+00  0.00000000E+00  0.00000000E+00
  0.00000000E+00  0.00000000E+00  0.00000000E+00
  0.00000000E+00  0.00000000E+00  0.00000000E+00
  0.00000000E+00  0.00000000E+00  0.00000000E+00
  0.00000000E+00  0.00000000E+00  0.00000000E+00
  0.00000000E+00  0.00000000E+00  0.00000000E+00
  0.00000000E+00  0.00000000E+00  0.00000000E+00
  0.00000000E+00  0.00000000E+00  0.00000000E+00
  0.00000000E+00  0.00000000E+00  0.00000000E+00
  0.00000000E+00  0.00000000E+00  0.00000000E+00
  0.00000000E+00  0.00000000E+00  0.00000000E+00
  0.00000000E+00  0.00000000E+00  0.00000000E+00
  0.00000000E+00  0.00000000E+00  0.00000000E+00
  0.00000000E+00  0.00000000E+00  0.00000000E+00
  0.00000000E+00  0.00000000E+00  0.00000000E+00
  0.00000000E+00  0.00000000E+00  0.00000000E+00
  0.00000000E+00  0.00000000E+00  0.00000000E+00
  0.00000000E+00  0.00000000E+00  0.00000000E+00
