Al4C3 Pbam polymorph (findsym-output) - 
   1.00000000000000     
     8.5346131649190937    0.0000000000000000    0.0000000000000000
     0.0000000000000000    4.9279594008731999    0.0000000000000000
     0.0000000000000000    0.0000000000000000    2.9191817530159234
   Al   C 
     8     6
Direct
  0.7854733090265286  0.1613892670909400 -0.0000000000000000
  0.2145266909734714  0.8386107329090601 -0.0000000000000000
  0.7145266909734714  0.6613892670909399 -0.0000000000000000
  0.2854733090265286  0.3386107329090601 -0.0000000000000000
  0.0295738016070385  0.2529161539191638  0.5000000000000000
  0.9704262223929634  0.7470838460808291  0.5000000000000000
  0.4704261923929609  0.7529161539191709  0.5000000000000000
  0.5295737776070366  0.2470838460808292  0.5000000000000000
  0.0000000000000000 -0.0000000000000000 -0.0000000000000000
  0.5000000000000000  0.5000000000000000 -0.0000000000000000
  0.8253660043886034  0.4488355732189526  0.5000000000000000
  0.1746339956113967  0.5511644267810475  0.5000000000000000
  0.6746339956113966  0.9488355732189525  0.5000000000000000
  0.3253660043886033  0.0511644267810475  0.5000000000000000
 
  0.00000000E+00  0.00000000E+00  0.00000000E+00
  0.00000000E+00  0.00000000E+00  0.00000000E+00
  0.00000000E+00  0.00000000E+00  0.00000000E+00
  0.00000000E+00  0.00000000E+00  0.00000000E+00
  0.00000000E+00  0.00000000E+00  0.00000000E+00
  0.00000000E+00  0.00000000E+00  0.00000000E+00
  0.00000000E+00  0.00000000E+00  0.00000000E+00
  0.00000000E+00  0.00000000E+00  0.00000000E+00
  0.00000000E+00  0.00000000E+00  0.00000000E+00
  0.00000000E+00  0.00000000E+00  0.00000000E+00
  0.00000000E+00  0.00000000E+00  0.00000000E+00
  0.00000000E+00  0.00000000E+00  0.00000000E+00
  0.00000000E+00  0.00000000E+00  0.00000000E+00
  0.00000000E+00  0.00000000E+00  0.00000000E+00
