  14  14   0   0
  0.8609561E+01  0.8482350E-09  0.4897782E-09  0.2901305E-09  0.5000000E-15
  1.000000000000000E-004
  CAR 
 Al4C3 Pbam - r2SCAN H(P) scan @ 50 GPa (
     22.03622056     -6.99277824  301     11.53328432      1.00000000
     -6.993  0.0000E+00  0.0000E+00
     -6.896  0.0000E+00  0.0000E+00
     -6.799  0.0000E+00  0.0000E+00
     -6.702  0.0000E+00  0.0000E+00
     -6.606  0.0000E+00  0.0000E+00
     -6.509  0.0000E+00  0.0000E+00
     -6.412  0.0000E+00  0.0000E+00
     -6.315  0.0000E+00  0.0000E+00
     -6.219  0.0000E+00  0.0000E+00
     -6.122  0.0000E+00  0.0000E+00
     -6.025  0.0000E+00  0.0000E+00
     -5.928  0.9021E-16  0.8729E-17
     -5.832  0.1261E-08  0.1220E-09
     -5.735  0.1368E-04  0.1324E-05
     -5.638  0.2911E-03  0.2949E-04
     -5.541  0.1346E-02  0.1598E-03
     -5.445  0.2411E-02  0.3931E-03
     -5.348  0.2889E-02  0.6726E-03
     -5.251  0.2436E-02  0.9083E-03
     -5.154  0.2057E-02  0.1107E-02
     -5.058  0.5791E-02  0.1668E-02
     -4.961  0.6972E-02  0.2342E-02
     -4.864  0.2998E-02  0.2632E-02
     -4.767  0.1515E-02  0.2779E-02
     -4.670  0.5496E-02  0.3311E-02
     -4.574  0.9198E-02  0.4201E-02
     -4.477  0.5981E-02  0.4780E-02
     -4.380  0.5443E-02  0.5306E-02
     -4.283  0.6753E-02  0.5960E-02
     -4.187  0.7121E-02  0.6649E-02
     -4.090  0.9159E-02  0.7535E-02
     -3.993  0.9567E-02  0.8461E-02
     -3.896  0.6381E-02  0.9078E-02
     -3.800  0.4991E-02  0.9561E-02
     -3.703  0.3773E-02  0.9926E-02
     -3.606  0.8194E-02  0.1072E-01
     -3.509  0.9436E-02  0.1163E-01
     -3.413  0.6843E-02  0.1229E-01
     -3.316  0.4402E-02  0.1272E-01
     -3.219  0.1146E-01  0.1383E-01
     -3.122  0.1006E-01  0.1480E-01
     -3.025  0.5264E-02  0.1531E-01
     -2.929  0.6834E-02  0.1597E-01
     -2.832  0.1726E-01  0.1764E-01
     -2.735  0.9994E-02  0.1861E-01
     -2.638  0.6163E-02  0.1921E-01
     -2.542  0.1020E-01  0.2019E-01
     -2.445  0.1678E-01  0.2182E-01
     -2.348  0.7732E-02  0.2257E-01
     -2.251  0.1507E-01  0.2402E-01
     -2.155  0.1184E-01  0.2517E-01
     -2.058  0.5843E-02  0.2573E-01
     -1.961  0.1759E-01  0.2744E-01
     -1.864  0.1678E-01  0.2906E-01
     -1.768  0.9782E-02  0.3001E-01
     -1.671  0.1602E-01  0.3156E-01
     -1.574  0.2113E-01  0.3360E-01
     -1.477  0.1760E-01  0.3530E-01
     -1.381  0.2557E-01  0.3778E-01
     -1.284  0.1971E-01  0.3969E-01
     -1.187  0.2504E-01  0.4211E-01
     -1.090  0.2530E-01  0.4456E-01
     -0.993  0.1537E-01  0.4604E-01
     -0.897  0.1434E-01  0.4743E-01
     -0.800  0.1518E-01  0.4890E-01
     -0.703  0.1174E-01  0.5004E-01
     -0.606  0.8708E-02  0.5088E-01
     -0.510  0.5456E-02  0.5141E-01
     -0.413  0.1142E-01  0.5251E-01
     -0.316  0.1181E-01  0.5366E-01
     -0.219  0.1014E-01  0.5464E-01
     -0.123  0.7706E-02  0.5538E-01
     -0.026  0.4964E-02  0.5586E-01
      0.071  0.5169E-02  0.5636E-01
      0.168  0.8620E-02  0.5720E-01
      0.264  0.6615E-02  0.5784E-01
      0.361  0.1414E-02  0.5797E-01
      0.458  0.1532E-02  0.5812E-01
      0.555  0.3269E-02  0.5844E-01
      0.652  0.5116E-02  0.5893E-01
      0.748  0.2225E-02  0.5915E-01
      0.845  0.2062E-02  0.5935E-01
      0.942  0.5327E-03  0.5940E-01
      1.039  0.2606E-02  0.5965E-01
      1.135  0.8332E-03  0.5973E-01
      1.232  0.1699E-02  0.5990E-01
      1.329  0.4132E-03  0.5994E-01
      1.426  0.5287E-03  0.5999E-01
      1.522  0.1196E-03  0.6000E-01
      1.619  0.8518E-07  0.6000E-01
      1.716  0.5379E-13  0.6000E-01
      1.813  0.9867E-10  0.6000E-01
      1.909  0.4078E-05  0.6000E-01
      2.006  0.4294E-03  0.6004E-01
      2.103  0.2070E-02  0.6024E-01
      2.200  0.3404E-02  0.6057E-01
      2.297  0.2143E-02  0.6078E-01
      2.393  0.5398E-02  0.6130E-01
      2.490  0.9370E-02  0.6221E-01
      2.587  0.1233E-01  0.6340E-01
      2.684  0.1198E-01  0.6456E-01
      2.780  0.1222E-01  0.6574E-01
      2.877  0.1540E-01  0.6723E-01
      2.974  0.2550E-01  0.6970E-01
      3.071  0.2135E-01  0.7177E-01
      3.167  0.1833E-01  0.7354E-01
      3.264  0.2125E-01  0.7560E-01
      3.361  0.1761E-01  0.7730E-01
      3.458  0.2015E-01  0.7925E-01
      3.554  0.1819E-01  0.8101E-01
      3.651  0.1530E-01  0.8249E-01
      3.748  0.1342E-01  0.8379E-01
      3.845  0.1651E-01  0.8539E-01
      3.941  0.1481E-01  0.8682E-01
      4.038  0.1554E-01  0.8832E-01
      4.135  0.2300E-01  0.9055E-01
      4.232  0.1804E-01  0.9230E-01
      4.329  0.2066E-01  0.9429E-01
      4.425  0.1712E-01  0.9595E-01
      4.522  0.1349E-01  0.9726E-01
      4.619  0.1859E-01  0.9906E-01
      4.716  0.2169E-01  0.1012E+00
      4.812  0.1661E-01  0.1028E+00
      4.909  0.1658E-01  0.1044E+00
      5.006  0.1425E-01  0.1057E+00
      5.103  0.1606E-01  0.1073E+00
      5.199  0.1163E-01  0.1084E+00
      5.296  0.1445E-01  0.1098E+00
      5.393  0.2355E-01  0.1121E+00
      5.490  0.2406E-01  0.1144E+00
      5.586  0.2108E-01  0.1165E+00
      5.683  0.2367E-01  0.1188E+00
      5.780  0.2237E-01  0.1209E+00
      5.877  0.1622E-01  0.1225E+00
      5.974  0.8872E-02  0.1234E+00
      6.070  0.1243E-01  0.1246E+00
      6.167  0.1922E-01  0.1264E+00
      6.264  0.3325E-01  0.1296E+00
      6.361  0.2616E-01  0.1322E+00
      6.457  0.2428E-01  0.1345E+00
      6.554  0.1369E-01  0.1358E+00
      6.651  0.2017E-01  0.1378E+00
      6.748  0.1534E-01  0.1393E+00
      6.844  0.2153E-01  0.1414E+00
      6.941  0.2520E-01  0.1438E+00
      7.038  0.3149E-01  0.1468E+00
      7.135  0.1953E-01  0.1487E+00
      7.231  0.2240E-01  0.1509E+00
      7.328  0.1415E-01  0.1523E+00
      7.425  0.1581E-01  0.1538E+00
      7.522  0.1815E-01  0.1556E+00
      7.618  0.2075E-01  0.1576E+00
      7.715  0.2489E-01  0.1600E+00
      7.812  0.2151E-01  0.1621E+00
      7.909  0.2907E-01  0.1649E+00
      8.006  0.2770E-01  0.1675E+00
      8.102  0.2164E-01  0.1696E+00
      8.199  0.1793E-01  0.1714E+00
      8.296  0.2151E-01  0.1735E+00
      8.393  0.1906E-01  0.1753E+00
      8.489  0.2276E-01  0.1775E+00
      8.586  0.2730E-01  0.1801E+00
      8.683  0.2029E-01  0.1821E+00
      8.780  0.1675E-01  0.1837E+00
      8.876  0.2909E-01  0.1865E+00
      8.973  0.2352E-01  0.1888E+00
      9.070  0.3237E-01  0.1919E+00
      9.167  0.2803E-01  0.1947E+00
      9.263  0.2704E-01  0.1973E+00
      9.360  0.2468E-01  0.1997E+00
      9.457  0.2145E-01  0.2017E+00
      9.554  0.2232E-01  0.2039E+00
      9.651  0.3201E-01  0.2070E+00
      9.747  0.2584E-01  0.2095E+00
      9.844  0.1867E-01  0.2113E+00
      9.941  0.2161E-01  0.2134E+00
     10.038  0.1716E-01  0.2151E+00
     10.134  0.2555E-01  0.2175E+00
     10.231  0.3744E-01  0.2212E+00
     10.328  0.3162E-01  0.2242E+00
     10.425  0.2315E-01  0.2265E+00
     10.521  0.3119E-01  0.2295E+00
     10.618  0.2523E-01  0.2319E+00
     10.715  0.2071E-01  0.2339E+00
     10.812  0.1743E-01  0.2356E+00
     10.908  0.1355E-01  0.2369E+00
     11.005  0.6388E-02  0.2375E+00
     11.102  0.6931E-02  0.2382E+00
     11.199  0.7137E-02  0.2389E+00
     11.295  0.4114E-02  0.2393E+00
     11.392  0.3195E-02  0.2396E+00
     11.489  0.2935E-02  0.2399E+00
     11.586  0.2897E-02  0.2402E+00
     11.683  0.1611E-02  0.2403E+00
     11.779  0.4459E-04  0.2403E+00
     11.876  0.1352E-02  0.2405E+00
     11.973  0.1489E-02  0.2406E+00
     12.070  0.1238E-02  0.2407E+00
     12.166  0.5899E-03  0.2408E+00
     12.263  0.1985E-04  0.2408E+00
     12.360  0.4299E-03  0.2408E+00
     12.457  0.4184E-02  0.2412E+00
     12.553  0.2022E-02  0.2414E+00
     12.650  0.1447E-02  0.2416E+00
     12.747  0.3829E-02  0.2419E+00
     12.844  0.2866E-02  0.2422E+00
     12.940  0.1967E-02  0.2424E+00
     13.037  0.1956E-03  0.2424E+00
     13.134  0.4156E-02  0.2428E+00
     13.231  0.6081E-02  0.2434E+00
     13.328  0.4490E-02  0.2438E+00
     13.424  0.1265E-02  0.2440E+00
     13.521  0.1712E-02  0.2441E+00
     13.618  0.2503E-02  0.2444E+00
     13.715  0.4067E-02  0.2448E+00
     13.811  0.8605E-02  0.2456E+00
     13.908  0.1069E-01  0.2466E+00
     14.005  0.5526E-02  0.2472E+00
     14.102  0.4066E-02  0.2476E+00
     14.198  0.6891E-02  0.2482E+00
     14.295  0.1089E-01  0.2493E+00
     14.392  0.1384E-01  0.2506E+00
     14.489  0.9952E-02  0.2516E+00
     14.585  0.1152E-01  0.2527E+00
     14.682  0.1334E-01  0.2540E+00
     14.779  0.1968E-01  0.2559E+00
     14.876  0.1298E-01  0.2572E+00
     14.972  0.1561E-01  0.2587E+00
     15.069  0.1431E-01  0.2600E+00
     15.166  0.1577E-01  0.2616E+00
     15.263  0.1618E-01  0.2631E+00
     15.360  0.8561E-02  0.2640E+00
     15.456  0.1362E-01  0.2653E+00
     15.553  0.2523E-01  0.2677E+00
     15.650  0.1903E-01  0.2696E+00
     15.747  0.1923E-01  0.2714E+00
     15.843  0.1914E-01  0.2733E+00
     15.940  0.1301E-01  0.2745E+00
     16.037  0.1631E-01  0.2761E+00
     16.134  0.1702E-01  0.2778E+00
     16.230  0.1361E-01  0.2791E+00
     16.327  0.7832E-02  0.2798E+00
     16.424  0.1282E-01  0.2811E+00
     16.521  0.1398E-01  0.2824E+00
     16.617  0.1619E-01  0.2840E+00
     16.714  0.1604E-01  0.2856E+00
     16.811  0.1862E-01  0.2874E+00
     16.908  0.9030E-02  0.2882E+00
     17.005  0.1338E-01  0.2895E+00
     17.101  0.2210E-01  0.2917E+00
     17.198  0.1405E-01  0.2930E+00
     17.295  0.2439E-01  0.2954E+00
     17.392  0.2358E-01  0.2977E+00
     17.488  0.3001E-01  0.3006E+00
     17.585  0.2028E-01  0.3025E+00
     17.682  0.2201E-01  0.3047E+00
     17.779  0.2560E-01  0.3071E+00
     17.875  0.2233E-01  0.3093E+00
     17.972  0.2139E-01  0.3114E+00
     18.069  0.2075E-01  0.3134E+00
     18.166  0.1766E-01  0.3151E+00
     18.262  0.2738E-01  0.3177E+00
     18.359  0.2153E-01  0.3198E+00
     18.456  0.2679E-01  0.3224E+00
     18.553  0.2333E-01  0.3247E+00
     18.650  0.2257E-01  0.3268E+00
     18.746  0.2715E-01  0.3295E+00
     18.843  0.1986E-01  0.3314E+00
     18.940  0.2388E-01  0.3337E+00
     19.037  0.2404E-01  0.3360E+00
     19.133  0.2020E-01  0.3380E+00
     19.230  0.2533E-01  0.3404E+00
     19.327  0.2588E-01  0.3429E+00
     19.424  0.1613E-01  0.3445E+00
     19.520  0.1829E-01  0.3463E+00
     19.617  0.2167E-01  0.3484E+00
     19.714  0.1883E-01  0.3502E+00
     19.811  0.2490E-01  0.3526E+00
     19.907  0.2084E-01  0.3546E+00
     20.004  0.1576E-01  0.3561E+00
     20.101  0.9010E-02  0.3570E+00
     20.198  0.7320E-02  0.3577E+00
     20.294  0.1123E-01  0.3588E+00
     20.391  0.8001E-02  0.3596E+00
     20.488  0.2178E-02  0.3598E+00
     20.585  0.8755E-04  0.3598E+00
     20.682  0.5590E-03  0.3599E+00
     20.778  0.1395E-02  0.3600E+00
     20.875  0.5656E-04  0.3600E+00
     20.972  0.5055E-08  0.3600E+00
     21.069  0.3609E-15  0.3600E+00
     21.165  0.0000E+00  0.3600E+00
     21.262  0.0000E+00  0.3600E+00
     21.359  0.0000E+00  0.3600E+00
     21.456  0.0000E+00  0.3600E+00
     21.552  0.0000E+00  0.3600E+00
     21.649  0.0000E+00  0.3600E+00
     21.746  0.0000E+00  0.3600E+00
     21.843  0.0000E+00  0.3600E+00
     21.939  0.0000E+00  0.3600E+00
     22.036  0.0000E+00  0.3600E+00
