Al4C3 Pnma (POSCAR.III, symmetrized via 
   1.00000000000000     
     8.6235415365533115    0.0000000000000000    0.0000000000000000
     0.0000000000000000    2.9080277183074630    0.0000000000000000
     0.0000000000000000    0.0000000000000000    9.4023017280062717
   Al   C 
    16    12
Direct
  0.7367379968583008  0.2500000000000000  0.7130859934130993
  0.7632620031416992  0.7500000000000000  0.2130859934130992
  0.2632620031416992  0.7500000000000000  0.2869140065869008
  0.2367379968583008  0.2500000000000000  0.7869140065869007
  0.6060129211325984  0.2500000000000000  0.4699079600445992
  0.8939870788674016  0.7500000000000000  0.9699079600445988
  0.3939870788674017  0.7500000000000000  0.5300920399554012
  0.1060129211325983  0.2500000000000000  0.0300920399554010
  0.1380937706610871  0.2500000000000000  0.5177451986798318
  0.3619062293389128  0.7500000000000000  0.0177451986798318
  0.8619062293389129  0.7500000000000000  0.4822548013201683
  0.6380937706610871  0.2500000000000000  0.9822548013201682
  0.9941697490262200  0.2500000000000000  0.2790577855974182
  0.5058302509737800  0.7500000000000000  0.7790577855974181
  0.0058302509737800  0.7500000000000000  0.7209422144025819
  0.4941697490262200  0.2500000000000000  0.2209422144025818
  0.9285919977954330  0.2500000000000000  0.6183479942632220
  0.5714080022045670  0.7500000000000000  0.1183479942632218
  0.0714080022045672  0.7500000000000000  0.3816520057367783
  0.4285919977954329  0.2500000000000000  0.8816520057367780
  0.3903208931689347  0.2500000000000000  0.4022950042079970
  0.1096791068310653  0.7500000000000000  0.9022950042079900
  0.6096791068310653  0.7500000000000000  0.5977049957920100
  0.8903208931689347  0.2500000000000000  0.0977049957920101
  0.7743697585854996  0.2500000000000000  0.3533347993532509
  0.7256302414145004  0.7500000000000000  0.8533347993532510
  0.2256302414145003  0.7500000000000000  0.6466652006467490
  0.2743697585854997  0.2500000000000000  0.1466652006467491
 
  0.00000000E+00  0.00000000E+00  0.00000000E+00
  0.00000000E+00  0.00000000E+00  0.00000000E+00
  0.00000000E+00  0.00000000E+00  0.00000000E+00
  0.00000000E+00  0.00000000E+00  0.00000000E+00
  0.00000000E+00  0.00000000E+00  0.00000000E+00
  0.00000000E+00  0.00000000E+00  0.00000000E+00
  0.00000000E+00  0.00000000E+00  0.00000000E+00
  0.00000000E+00  0.00000000E+00  0.00000000E+00
  0.00000000E+00  0.00000000E+00  0.00000000E+00
  0.00000000E+00  0.00000000E+00  0.00000000E+00
  0.00000000E+00  0.00000000E+00  0.00000000E+00
  0.00000000E+00  0.00000000E+00  0.00000000E+00
  0.00000000E+00  0.00000000E+00  0.00000000E+00
  0.00000000E+00  0.00000000E+00  0.00000000E+00
  0.00000000E+00  0.00000000E+00  0.00000000E+00
  0.00000000E+00  0.00000000E+00  0.00000000E+00
  0.00000000E+00  0.00000000E+00  0.00000000E+00
  0.00000000E+00  0.00000000E+00  0.00000000E+00
  0.00000000E+00  0.00000000E+00  0.00000000E+00
  0.00000000E+00  0.00000000E+00  0.00000000E+00
  0.00000000E+00  0.00000000E+00  0.00000000E+00
  0.00000000E+00  0.00000000E+00  0.00000000E+00
  0.00000000E+00  0.00000000E+00  0.00000000E+00
  0.00000000E+00  0.00000000E+00  0.00000000E+00
  0.00000000E+00  0.00000000E+00  0.00000000E+00
  0.00000000E+00  0.00000000E+00  0.00000000E+00
  0.00000000E+00  0.00000000E+00  0.00000000E+00
  0.00000000E+00  0.00000000E+00  0.00000000E+00
