  28  28   0   0
  0.8656588E+01  0.8703244E-09  0.2934905E-09  0.9489201E-09  0.5000000E-15
  1.000000000000000E-004
  CAR 
 Al4C3 Pnma-III - H(P) scan @ 60 GPa (ISI
     20.41414748     -5.94735141  301     11.63247317      1.00000000
     -5.947  0.0000E+00  0.0000E+00
     -5.859  0.0000E+00  0.0000E+00
     -5.772  0.0000E+00  0.0000E+00
     -5.684  0.0000E+00  0.0000E+00
     -5.596  0.0000E+00  0.0000E+00
     -5.508  0.0000E+00  0.0000E+00
     -5.420  0.0000E+00  0.0000E+00
     -5.332  0.0000E+00  0.0000E+00
     -5.244  0.0000E+00  0.0000E+00
     -5.157  0.0000E+00  0.0000E+00
     -5.069  0.0000E+00  0.0000E+00
     -4.981  0.1831E-13  0.1609E-14
     -4.893  0.1540E-07  0.1353E-08
     -4.805  0.3679E-04  0.3234E-05
     -4.717  0.5913E-03  0.5519E-04
     -4.629  0.2559E-02  0.2800E-03
     -4.541  0.4858E-02  0.7070E-03
     -4.454  0.5585E-02  0.1198E-02
     -4.366  0.4993E-02  0.1636E-02
     -4.278  0.5072E-02  0.2082E-02
     -4.190  0.9641E-02  0.2929E-02
     -4.102  0.1274E-01  0.4049E-02
     -4.014  0.6861E-02  0.4652E-02
     -3.926  0.4394E-02  0.5038E-02
     -3.838  0.1123E-01  0.6025E-02
     -3.751  0.1601E-01  0.7432E-02
     -3.663  0.9527E-02  0.8269E-02
     -3.575  0.8035E-02  0.8975E-02
     -3.487  0.1337E-01  0.1015E-01
     -3.399  0.1723E-01  0.1166E-01
     -3.311  0.1310E-01  0.1282E-01
     -3.223  0.1214E-01  0.1388E-01
     -3.135  0.1325E-01  0.1505E-01
     -3.048  0.1607E-01  0.1646E-01
     -2.960  0.2055E-01  0.1826E-01
     -2.872  0.1301E-01  0.1941E-01
     -2.784  0.1004E-01  0.2029E-01
     -2.696  0.1516E-01  0.2162E-01
     -2.608  0.2394E-01  0.2373E-01
     -2.520  0.1407E-01  0.2496E-01
     -2.432  0.2132E-01  0.2683E-01
     -2.345  0.2063E-01  0.2865E-01
     -2.257  0.7980E-02  0.2935E-01
     -2.169  0.1339E-01  0.3053E-01
     -2.081  0.3189E-01  0.3333E-01
     -1.993  0.2534E-01  0.3555E-01
     -1.905  0.1104E-01  0.3652E-01
     -1.817  0.1382E-01  0.3774E-01
     -1.730  0.2605E-01  0.4003E-01
     -1.642  0.2406E-01  0.4214E-01
     -1.554  0.2409E-01  0.4426E-01
     -1.466  0.2807E-01  0.4673E-01
     -1.378  0.2441E-01  0.4887E-01
     -1.290  0.2894E-01  0.5141E-01
     -1.202  0.3070E-01  0.5411E-01
     -1.114  0.1921E-01  0.5580E-01
     -1.027  0.2391E-01  0.5790E-01
     -0.939  0.2483E-01  0.6008E-01
     -0.851  0.1857E-01  0.6171E-01
     -0.763  0.3489E-01  0.6478E-01
     -0.675  0.4123E-01  0.6840E-01
     -0.587  0.3443E-01  0.7143E-01
     -0.499  0.2550E-01  0.7367E-01
     -0.411  0.2934E-01  0.7625E-01
     -0.324  0.3878E-01  0.7965E-01
     -0.236  0.4007E-01  0.8318E-01
     -0.148  0.4654E-01  0.8727E-01
     -0.060  0.4554E-01  0.9127E-01
      0.028  0.4594E-01  0.9530E-01
      0.116  0.2862E-01  0.9782E-01
      0.204  0.3172E-01  0.1006E+00
      0.292  0.2929E-01  0.1032E+00
      0.379  0.2093E-01  0.1050E+00
      0.467  0.2745E-01  0.1074E+00
      0.555  0.2199E-01  0.1094E+00
      0.643  0.2297E-01  0.1114E+00
      0.731  0.2002E-01  0.1131E+00
      0.819  0.1510E-01  0.1145E+00
      0.907  0.2125E-01  0.1163E+00
      0.995  0.1159E-01  0.1174E+00
      1.082  0.1849E-01  0.1190E+00
      1.170  0.8903E-02  0.1198E+00
      1.258  0.2582E-02  0.1200E+00
      1.346  0.1354E-03  0.1200E+00
      1.434  0.7501E-07  0.1200E+00
      1.522  0.1429E-12  0.1200E+00
      1.610  0.0000E+00  0.1200E+00
      1.697  0.0000E+00  0.1200E+00
      1.785  0.0000E+00  0.1200E+00
      1.873  0.0000E+00  0.1200E+00
      1.961  0.0000E+00  0.1200E+00
      2.049  0.0000E+00  0.1200E+00
      2.137  0.7179E-19  0.1200E+00
      2.225  0.4360E-11  0.1200E+00
      2.313  0.5993E-06  0.1200E+00
      2.400  0.2636E-03  0.1200E+00
      2.488  0.1084E-02  0.1201E+00
      2.576  0.3697E-02  0.1204E+00
      2.664  0.5281E-02  0.1209E+00
      2.752  0.1257E-01  0.1220E+00
      2.840  0.1574E-01  0.1234E+00
      2.928  0.1927E-01  0.1251E+00
      3.016  0.7198E-02  0.1257E+00
      3.103  0.2346E-01  0.1278E+00
      3.191  0.2386E-01  0.1299E+00
      3.279  0.3022E-01  0.1325E+00
      3.367  0.3708E-01  0.1358E+00
      3.455  0.2855E-01  0.1383E+00
      3.543  0.3384E-01  0.1413E+00
      3.631  0.4181E-01  0.1449E+00
      3.719  0.4448E-01  0.1489E+00
      3.806  0.4551E-01  0.1529E+00
      3.894  0.3067E-01  0.1556E+00
      3.982  0.3677E-01  0.1588E+00
      4.070  0.3474E-01  0.1618E+00
      4.158  0.4402E-01  0.1657E+00
      4.246  0.3681E-01  0.1689E+00
      4.334  0.3529E-01  0.1720E+00
      4.422  0.3063E-01  0.1747E+00
      4.509  0.3565E-01  0.1779E+00
      4.597  0.4525E-01  0.1818E+00
      4.685  0.4981E-01  0.1862E+00
      4.773  0.3883E-01  0.1896E+00
      4.861  0.4153E-01  0.1933E+00
      4.949  0.3717E-01  0.1965E+00
      5.037  0.3623E-01  0.1997E+00
      5.124  0.3366E-01  0.2027E+00
      5.212  0.2305E-01  0.2047E+00
      5.300  0.3044E-01  0.2074E+00
      5.388  0.2767E-01  0.2098E+00
      5.476  0.3252E-01  0.2127E+00
      5.564  0.5629E-01  0.2176E+00
      5.652  0.4352E-01  0.2214E+00
      5.740  0.3153E-01  0.2242E+00
      5.827  0.3376E-01  0.2272E+00
      5.915  0.3553E-01  0.2303E+00
      6.003  0.3407E-01  0.2333E+00
      6.091  0.3449E-01  0.2363E+00
      6.179  0.2982E-01  0.2389E+00
      6.267  0.4456E-01  0.2429E+00
      6.355  0.3526E-01  0.2460E+00
      6.443  0.4619E-01  0.2500E+00
      6.530  0.5143E-01  0.2545E+00
      6.618  0.4764E-01  0.2587E+00
      6.706  0.4096E-01  0.2623E+00
      6.794  0.4209E-01  0.2660E+00
      6.882  0.6292E-01  0.2716E+00
      6.970  0.2597E-01  0.2738E+00
      7.058  0.2838E-01  0.2763E+00
      7.146  0.3463E-01  0.2794E+00
      7.233  0.4733E-01  0.2835E+00
      7.321  0.3748E-01  0.2868E+00
      7.409  0.3549E-01  0.2899E+00
      7.497  0.5035E-01  0.2944E+00
      7.585  0.4917E-01  0.2987E+00
      7.673  0.3305E-01  0.3016E+00
      7.761  0.3895E-01  0.3050E+00
      7.848  0.4288E-01  0.3088E+00
      7.936  0.4199E-01  0.3125E+00
      8.024  0.5211E-01  0.3170E+00
      8.112  0.5130E-01  0.3216E+00
      8.200  0.4577E-01  0.3256E+00
      8.288  0.3258E-01  0.3284E+00
      8.376  0.3640E-01  0.3316E+00
      8.464  0.4097E-01  0.3352E+00
      8.551  0.4904E-01  0.3395E+00
      8.639  0.5563E-01  0.3444E+00
      8.727  0.4406E-01  0.3483E+00
      8.815  0.4817E-01  0.3525E+00
      8.903  0.5127E-01  0.3570E+00
      8.991  0.5939E-01  0.3623E+00
      9.079  0.6416E-01  0.3679E+00
      9.167  0.7131E-01  0.3742E+00
      9.254  0.6331E-01  0.3797E+00
      9.342  0.5674E-01  0.3847E+00
      9.430  0.4918E-01  0.3890E+00
      9.518  0.6068E-01  0.3944E+00
      9.606  0.6300E-01  0.3999E+00
      9.694  0.6289E-01  0.4054E+00
      9.782  0.5746E-01  0.4105E+00
      9.870  0.4816E-01  0.4147E+00
      9.957  0.4984E-01  0.4191E+00
     10.045  0.5803E-01  0.4242E+00
     10.133  0.6142E-01  0.4296E+00
     10.221  0.6097E-01  0.4349E+00
     10.309  0.6055E-01  0.4403E+00
     10.397  0.5296E-01  0.4449E+00
     10.485  0.5879E-01  0.4501E+00
     10.573  0.5809E-01  0.4552E+00
     10.660  0.4965E-01  0.4596E+00
     10.748  0.3793E-01  0.4629E+00
     10.836  0.5011E-01  0.4673E+00
     10.924  0.3458E-01  0.4703E+00
     11.012  0.2768E-01  0.4728E+00
     11.100  0.2339E-01  0.4748E+00
     11.188  0.2068E-01  0.4766E+00
     11.275  0.2417E-01  0.4788E+00
     11.363  0.1069E-01  0.4797E+00
     11.451  0.3283E-02  0.4800E+00
     11.539  0.1566E-03  0.4800E+00
     11.627  0.2090E-06  0.4800E+00
     11.715  0.1156E-11  0.4800E+00
     11.803  0.0000E+00  0.4800E+00
     11.891  0.0000E+00  0.4800E+00
     11.978  0.0000E+00  0.4800E+00
     12.066  0.0000E+00  0.4800E+00
     12.154  0.0000E+00  0.4800E+00
     12.242  0.0000E+00  0.4800E+00
     12.330  0.0000E+00  0.4800E+00
     12.418  0.0000E+00  0.4800E+00
     12.506  0.0000E+00  0.4800E+00
     12.594  0.0000E+00  0.4800E+00
     12.681  0.0000E+00  0.4800E+00
     12.769  0.1149E-17  0.4800E+00
     12.857  0.3425E-10  0.4800E+00
     12.945  0.2696E-05  0.4800E+00
     13.033  0.7143E-03  0.4801E+00
     13.121  0.2307E-02  0.4803E+00
     13.209  0.2349E-02  0.4805E+00
     13.297  0.1010E-01  0.4814E+00
     13.384  0.1029E-01  0.4823E+00
     13.472  0.9585E-02  0.4831E+00
     13.560  0.8252E-02  0.4838E+00
     13.648  0.1557E-01  0.4852E+00
     13.736  0.1632E-01  0.4866E+00
     13.824  0.2643E-01  0.4890E+00
     13.912  0.1466E-01  0.4902E+00
     14.000  0.3089E-01  0.4930E+00
     14.087  0.3012E-01  0.4956E+00
     14.175  0.1899E-01  0.4973E+00
     14.263  0.2557E-01  0.4995E+00
     14.351  0.3343E-01  0.5025E+00
     14.439  0.2773E-01  0.5049E+00
     14.527  0.4061E-01  0.5085E+00
     14.615  0.5167E-01  0.5130E+00
     14.702  0.3960E-01  0.5165E+00
     14.790  0.2640E-01  0.5188E+00
     14.878  0.2146E-01  0.5207E+00
     14.966  0.2852E-01  0.5232E+00
     15.054  0.2037E-01  0.5250E+00
     15.142  0.3533E-01  0.5281E+00
     15.230  0.4203E-01  0.5318E+00
     15.318  0.4940E-01  0.5361E+00
     15.405  0.3771E-01  0.5394E+00
     15.493  0.2971E-01  0.5420E+00
     15.581  0.1949E-01  0.5438E+00
     15.669  0.2832E-01  0.5462E+00
     15.757  0.3854E-01  0.5496E+00
     15.845  0.5164E-01  0.5542E+00
     15.933  0.4508E-01  0.5581E+00
     16.021  0.3827E-01  0.5615E+00
     16.108  0.2397E-01  0.5636E+00
     16.196  0.2772E-01  0.5660E+00
     16.284  0.3153E-01  0.5688E+00
     16.372  0.3343E-01  0.5717E+00
     16.460  0.3527E-01  0.5748E+00
     16.548  0.5390E-01  0.5796E+00
     16.636  0.4499E-01  0.5835E+00
     16.724  0.4733E-01  0.5877E+00
     16.811  0.4151E-01  0.5913E+00
     16.899  0.4222E-01  0.5951E+00
     16.987  0.4228E-01  0.5988E+00
     17.075  0.3729E-01  0.6020E+00
     17.163  0.3784E-01  0.6054E+00
     17.251  0.2938E-01  0.6080E+00
     17.339  0.4104E-01  0.6116E+00
     17.427  0.3853E-01  0.6149E+00
     17.514  0.3644E-01  0.6181E+00
     17.602  0.3626E-01  0.6213E+00
     17.690  0.3549E-01  0.6245E+00
     17.778  0.3418E-01  0.6275E+00
     17.866  0.3861E-01  0.6308E+00
     17.954  0.2443E-01  0.6330E+00
     18.042  0.2565E-01  0.6352E+00
     18.129  0.3126E-01  0.6380E+00
     18.217  0.3352E-01  0.6409E+00
     18.305  0.2599E-01  0.6432E+00
     18.393  0.3100E-01  0.6459E+00
     18.481  0.3556E-01  0.6491E+00
     18.569  0.4000E-01  0.6526E+00
     18.657  0.2285E-01  0.6546E+00
     18.745  0.1791E-01  0.6562E+00
     18.832  0.1678E-01  0.6576E+00
     18.920  0.1128E-01  0.6586E+00
     19.008  0.8533E-02  0.6594E+00
     19.096  0.4511E-02  0.6598E+00
     19.184  0.1897E-02  0.6600E+00
     19.272  0.5239E-03  0.6600E+00
     19.360  0.3676E-04  0.6600E+00
     19.448  0.1540E-07  0.6600E+00
     19.535  0.1831E-13  0.6600E+00
     19.623  0.0000E+00  0.6600E+00
     19.711  0.0000E+00  0.6600E+00
     19.799  0.0000E+00  0.6600E+00
     19.887  0.0000E+00  0.6600E+00
     19.975  0.0000E+00  0.6600E+00
     20.063  0.0000E+00  0.6600E+00
     20.151  0.0000E+00  0.6600E+00
     20.238  0.0000E+00  0.6600E+00
     20.326  0.0000E+00  0.6600E+00
     20.414  0.0000E+00  0.6600E+00
