       N       E                     dE             d eps       ncg     rms          rms(c)
DAV:   1    -0.162161313708E+03   -0.16216E+03   -0.13712E-06  4458   0.423E-03    0.167E-03
DAV:   2    -0.162161313668E+03    0.40199E-07   -0.27174E-07  4392   0.263E-03
   1 F= -.71390659E+02 E0= -.71390659E+02  d E =-.713907E+02
       N       E                     dE             d eps       ncg     rms          rms(c)
DAV:   1    -0.155141011624E+03    0.70203E+01   -0.16150E+01  7752   0.171E+01    0.428E+00
DAV:   2    -0.154740846449E+03    0.40017E+00   -0.10357E+00  8394   0.331E+00    0.196E+00
DAV:   3    -0.154708129448E+03    0.32717E-01   -0.16332E-01  8298   0.123E+00    0.588E-01
DAV:   4    -0.154703954072E+03    0.41754E-02   -0.10529E-02  8466   0.324E-01    0.197E-01
DAV:   5    -0.154703288535E+03    0.66554E-03   -0.12312E-03  8370   0.115E-01    0.120E-01
DAV:   6    -0.154703209541E+03    0.78994E-04   -0.23837E-04  8400   0.490E-02    0.178E-02
DAV:   7    -0.154703205630E+03    0.39106E-05   -0.17528E-05  5676   0.204E-02
   2 F= -.70801378E+02 E0= -.70801378E+02  d E =0.589280E+00
       N       E                     dE             d eps       ncg     rms          rms(c)
DAV:   1    -0.160207889450E+03   -0.55047E+01   -0.68663E+00  7704   0.108E+01    0.285E+00
DAV:   2    -0.160028110795E+03    0.17978E+00   -0.47006E-01  8364   0.220E+00    0.128E+00
DAV:   3    -0.160014392894E+03    0.13718E-01   -0.70534E-02  8268   0.790E-01    0.393E-01
DAV:   4    -0.160012315470E+03    0.20774E-02   -0.52663E-03  8472   0.222E-01    0.129E-01
DAV:   5    -0.160011920823E+03    0.39465E-03   -0.79418E-04  8358   0.882E-02    0.767E-02
DAV:   6    -0.160011854220E+03    0.66604E-04   -0.14145E-04  8208   0.368E-02    0.131E-02
DAV:   7    -0.160011850984E+03    0.32355E-05   -0.84438E-06  4470   0.141E-02
   3 F= -.71592374E+02 E0= -.71592374E+02  d E =-.201716E+00
       N       E                     dE             d eps       ncg     rms          rms(c)
DAV:   1    -0.159975330590E+03    0.36524E-01   -0.42868E-04  7734   0.853E-02    0.219E-02
DAV:   2    -0.159975322700E+03    0.78900E-05   -0.26080E-05  5352   0.170E-02
   4 F= -.71592428E+02 E0= -.71592428E+02  d E =-.201769E+00
       N       E                     dE             d eps       ncg     rms          rms(c)
DAV:   1    -0.159969681776E+03    0.56488E-02   -0.54733E-06  4122   0.931E-03    0.641E-03
DAV:   2    -0.159969682515E+03   -0.73901E-06   -0.93560E-07  3978   0.303E-03
   5 F= -.71592429E+02 E0= -.71592429E+02  d E =-.201771E+00
       N       E                     dE             d eps       ncg     rms          rms(c)
DAV:   1    -0.159920680199E+03    0.49002E-01   -0.39106E-01  7158   0.255E+00    0.139E-01
DAV:   2    -0.159920243865E+03    0.43633E-03   -0.68320E-03  8706   0.331E-01    0.846E-02
DAV:   3    -0.159920073008E+03    0.17086E-03   -0.80315E-04  8526   0.111E-01    0.376E-02
DAV:   4    -0.159920070673E+03    0.23350E-05   -0.19720E-04  8382   0.430E-02    0.148E-02
DAV:   5    -0.159920068857E+03    0.18156E-05   -0.13829E-05  5220   0.156E-02
   6 F= -.71597028E+02 E0= -.71597028E+02  d E =-.459859E-02
       N       E                     dE             d eps       ncg     rms          rms(c)
DAV:   1    -0.159919132582E+03    0.93809E-03   -0.12370E-04  7056   0.458E-02    0.370E-03
DAV:   2    -0.159919132619E+03   -0.36718E-07   -0.30083E-06  4200   0.708E-03
   7 F= -.71597029E+02 E0= -.71597029E+02  d E =-.459994E-02
       N       E                     dE             d eps       ncg     rms          rms(c)
DAV:   1    -0.159907506268E+03    0.11626E-01   -0.29733E-01  7128   0.217E+00    0.122E-01
DAV:   2    -0.159907185798E+03    0.32047E-03   -0.69413E-03  8736   0.317E-01    0.761E-02
DAV:   3    -0.159907003526E+03    0.18227E-03   -0.63826E-04  8316   0.103E-01    0.299E-02
DAV:   4    -0.159907011869E+03   -0.83430E-05   -0.20423E-04  8232   0.442E-02    0.144E-02
DAV:   5    -0.159907011370E+03    0.49974E-06   -0.78886E-06  4386   0.109E-02
   8 F= -.71598668E+02 E0= -.71598668E+02  d E =-.163816E-02
       N       E                     dE             d eps       ncg     rms          rms(c)
DAV:   1    -0.159910116571E+03   -0.31047E-02   -0.13580E-02  7140   0.465E-01    0.254E-02
DAV:   2    -0.159910103502E+03    0.13069E-04   -0.31753E-04  8700   0.675E-02    0.161E-02
DAV:   3    -0.159910095537E+03    0.79648E-05   -0.25939E-05  6474   0.213E-02
   9 F= -.71598796E+02 E0= -.71598796E+02  d E =-.176659E-02
       N       E                     dE             d eps       ncg     rms          rms(c)
DAV:   1    -0.159898294092E+03    0.11809E-01   -0.37733E-02  7140   0.781E-01    0.398E-02
DAV:   2    -0.159898299623E+03   -0.55312E-05   -0.75190E-04  8724   0.106E-01    0.267E-02
DAV:   3    -0.159898278113E+03    0.21510E-04   -0.43190E-05  7980   0.290E-02    0.122E-02
DAV:   4    -0.159898276294E+03    0.18197E-05   -0.25677E-05  4950   0.175E-02
  10 F= -.71599125E+02 E0= -.71599125E+02  d E =-.328739E-03
       N       E                     dE             d eps       ncg     rms          rms(c)
DAV:   1    -0.159897047345E+03    0.12308E-02   -0.38548E-04  7344   0.794E-02    0.548E-03
DAV:   2    -0.159897047566E+03   -0.22071E-06   -0.81875E-06  4500   0.112E-02
  11 F= -.71599128E+02 E0= -.71599128E+02  d E =-.332103E-03
       N       E                     dE             d eps       ncg     rms          rms(c)
DAV:   1    -0.159902809376E+03   -0.57620E-02   -0.14258E-02  7140   0.489E-01    0.216E-02
DAV:   2    -0.159902813292E+03   -0.39169E-05   -0.20293E-04  8880   0.537E-02    0.149E-02
DAV:   3    -0.159902810225E+03    0.30674E-05   -0.90140E-06  4884   0.138E-02
  12 F= -.71599328E+02 E0= -.71599328E+02  d E =-.199914E-03
       N       E                     dE             d eps       ncg     rms          rms(c)
DAV:   1    -0.159903169057E+03   -0.35576E-03   -0.60722E-05  7002   0.322E-02    0.378E-03
DAV:   2    -0.159903168932E+03    0.12531E-06   -0.11340E-06  4014   0.454E-03
  13 F= -.71599328E+02 E0= -.71599328E+02  d E =-.200168E-03
       N       E                     dE             d eps       ncg     rms          rms(c)
DAV:   1    -0.159899096457E+03    0.40726E-02   -0.11074E-02  7140   0.418E-01    0.211E-02
DAV:   2    -0.159899099939E+03   -0.34820E-05   -0.23021E-04  8646   0.597E-02    0.145E-02
DAV:   3    -0.159899093755E+03    0.61844E-05   -0.17314E-05  5574   0.188E-02
  14 F= -.71599429E+02 E0= -.71599429E+02  d E =-.101085E-03
