Al4C3 Pnma-III - H(P) scan @ 60 GPa (ISI
           1
     8.703243    0.000000    0.000000
     0.000000    2.934905    0.000000
     0.000000    0.000000    9.489201
   Al   C 
    16    12
Direct configuration=     1
   0.73720936  0.25000000  0.71363065
   0.76279064  0.75000000  0.21363065
   0.26279064  0.75000000  0.28636935
   0.23720936  0.25000000  0.78636935
   0.60630432  0.25000000  0.47070040
   0.89369568  0.75000000  0.97070040
   0.39369568  0.75000000  0.52929960
   0.10630432  0.25000000  0.02929960
   0.13749578  0.25000000  0.51778904
   0.36250422  0.75000000  0.01778904
   0.86250422  0.75000000  0.48221096
   0.63749578  0.25000000  0.98221096
   0.99328092  0.25000000  0.27951796
   0.50671908  0.75000000  0.77951796
   0.00671908  0.75000000  0.72048204
   0.49328092  0.25000000  0.22048204
   0.92854708  0.25000000  0.61872200
   0.57145292  0.75000000  0.11872200
   0.07145292  0.75000000  0.38127800
   0.42854708  0.25000000  0.88127800
   0.39115655  0.25000000  0.40189455
   0.10884345  0.75000000  0.90189455
   0.60884345  0.75000000  0.59810545
   0.89115655  0.25000000  0.09810545
   0.77440484  0.25000000  0.35392634
   0.72559516  0.75000000  0.85392634
   0.22559516  0.75000000  0.64607366
   0.27440484  0.25000000  0.14607366
Al4C3 Pnma-III - H(P) scan @ 60 GPa (ISI
           1
     8.477929    0.000000    0.000000
     0.000000    2.858924    0.000000
     0.000000    0.000000    9.243540
   Al   C 
    16    12
Direct configuration=     2
   0.73721469  0.25000000  0.71363992
   0.76278531  0.75000000  0.21363992
   0.26278531  0.75000000  0.28636008
   0.23721469  0.25000000  0.78636008
   0.60627537  0.25000000  0.47068937
   0.89372463  0.75000000  0.97068937
   0.39372463  0.75000000  0.52931063
   0.10627537  0.25000000  0.02931063
   0.13747109  0.25000000  0.51780108
   0.36252891  0.75000000  0.01780108
   0.86252891  0.75000000  0.48219892
   0.63747109  0.25000000  0.98219892
   0.99329757  0.25000000  0.27953497
   0.50670243  0.75000000  0.77953497
   0.00670243  0.75000000  0.72046503
   0.49329757  0.25000000  0.22046503
   0.92855801  0.25000000  0.61873628
   0.57144199  0.75000000  0.11873628
   0.07144199  0.75000000  0.38126372
   0.42855801  0.25000000  0.88126372
   0.39116534  0.25000000  0.40191260
   0.10883466  0.75000000  0.90191260
   0.60883466  0.75000000  0.59808740
   0.89116534  0.25000000  0.09808740
   0.77441882  0.25000000  0.35393765
   0.72558118  0.75000000  0.85393765
   0.22558118  0.75000000  0.64606235
   0.27441882  0.25000000  0.14606235
Al4C3 Pnma-III - H(P) scan @ 60 GPa (ISI
           1
     8.627440    0.000000    0.000000
     0.000000    2.909342    0.000000
     0.000000    0.000000    9.406552
   Al   C 
    16    12
Direct configuration=     3
   0.73721106  0.25000000  0.71363360
   0.76278894  0.75000000  0.21363360
   0.26278894  0.75000000  0.28636640
   0.23721106  0.25000000  0.78636640
   0.60629509  0.25000000  0.47069688
   0.89370491  0.75000000  0.97069688
   0.39370491  0.75000000  0.52930312
   0.10629509  0.25000000  0.02930312
   0.13748791  0.25000000  0.51779288
   0.36251209  0.75000000  0.01779288
   0.86251209  0.75000000  0.48220712
   0.63748791  0.25000000  0.98220712
   0.99328623  0.25000000  0.27952339
   0.50671377  0.75000000  0.77952339
   0.00671377  0.75000000  0.72047661
   0.49328623  0.25000000  0.22047661
   0.92855057  0.25000000  0.61872655
   0.57144943  0.75000000  0.11872655
   0.07144943  0.75000000  0.38127345
   0.42855057  0.25000000  0.88127345
   0.39115935  0.25000000  0.40190031
   0.10884065  0.75000000  0.90190031
   0.60884065  0.75000000  0.59809969
   0.89115935  0.25000000  0.09809969
   0.77440929  0.25000000  0.35392994
   0.72559071  0.75000000  0.85392994
   0.22559071  0.75000000  0.64607006
   0.27440929  0.25000000  0.14607006
Al4C3 Pnma-III - H(P) scan @ 60 GPa (ISI
           1
     8.626250    0.000000    0.000000
     0.000000    2.908941    0.000000
     0.000000    0.000000    9.405255
   Al   C 
    16    12
Direct configuration=     4
   0.73721109  0.25000000  0.71363365
   0.76278891  0.75000000  0.21363365
   0.26278891  0.75000000  0.28636635
   0.23721109  0.25000000  0.78636635
   0.60629494  0.25000000  0.47069682
   0.89370506  0.75000000  0.97069682
   0.39370506  0.75000000  0.52930318
   0.10629494  0.25000000  0.02930318
   0.13748777  0.25000000  0.51779294
   0.36251223  0.75000000  0.01779294
   0.86251223  0.75000000  0.48220706
   0.63748777  0.25000000  0.98220706
   0.99328632  0.25000000  0.27952348
   0.50671368  0.75000000  0.77952348
   0.00671368  0.75000000  0.72047652
   0.49328632  0.25000000  0.22047652
   0.92855062  0.25000000  0.61872663
   0.57144938  0.75000000  0.11872663
   0.07144938  0.75000000  0.38127337
   0.42855062  0.25000000  0.88127337
   0.39115940  0.25000000  0.40190040
   0.10884060  0.75000000  0.90190040
   0.60884060  0.75000000  0.59809960
   0.89115940  0.25000000  0.09809960
   0.77440937  0.25000000  0.35393000
   0.72559063  0.75000000  0.85393000
   0.22559063  0.75000000  0.64607000
   0.27440937  0.25000000  0.14607000
Al4C3 Pnma-III - H(P) scan @ 60 GPa (ISI
           1
     8.626067    0.000000    0.000000
     0.000000    2.908879    0.000000
     0.000000    0.000000    9.405055
   Al   C 
    16    12
Direct configuration=     5
   0.73721109  0.25000000  0.71363366
   0.76278891  0.75000000  0.21363366
   0.26278891  0.75000000  0.28636634
   0.23721109  0.25000000  0.78636634
   0.60629491  0.25000000  0.47069681
   0.89370509  0.75000000  0.97069681
   0.39370509  0.75000000  0.52930319
   0.10629491  0.25000000  0.02930319
   0.13748775  0.25000000  0.51779295
   0.36251225  0.75000000  0.01779295
   0.86251225  0.75000000  0.48220705
   0.63748775  0.25000000  0.98220705
   0.99328633  0.25000000  0.27952349
   0.50671367  0.75000000  0.77952349
   0.00671367  0.75000000  0.72047651
   0.49328633  0.25000000  0.22047651
   0.92855063  0.25000000  0.61872664
   0.57144937  0.75000000  0.11872664
   0.07144937  0.75000000  0.38127336
   0.42855063  0.25000000  0.88127336
   0.39115940  0.25000000  0.40190042
   0.10884060  0.75000000  0.90190042
   0.60884060  0.75000000  0.59809958
   0.89115940  0.25000000  0.09809958
   0.77440938  0.25000000  0.35393001
   0.72559062  0.75000000  0.85393001
   0.22559062  0.75000000  0.64606999
   0.27440938  0.25000000  0.14606999
Al4C3 Pnma-III - H(P) scan @ 60 GPa (ISI
           1
     8.624302    0.000000    0.000000
     0.000000    2.908284    0.000000
     0.000000    0.000000    9.403131
   Al   C 
    16    12
Direct configuration=     6
   0.73695271  0.25000000  0.71358269
   0.76304729  0.75000000  0.21358269
   0.26304729  0.75000000  0.28641731
   0.23695271  0.25000000  0.78641731
   0.60613128  0.25000000  0.47037390
   0.89386872  0.75000000  0.97037390
   0.39386872  0.75000000  0.52962610
   0.10613128  0.25000000  0.02962610
   0.13788272  0.25000000  0.51760777
   0.36211728  0.75000000  0.01760777
   0.86211728  0.75000000  0.48239223
   0.63788272  0.25000000  0.98239223
   0.99363778  0.25000000  0.27909018
   0.50636222  0.75000000  0.77909018
   0.00636222  0.75000000  0.72090982
   0.49363778  0.25000000  0.22090982
   0.92859974  0.25000000  0.61836425
   0.57140026  0.75000000  0.11836425
   0.07140026  0.75000000  0.38163575
   0.42859974  0.25000000  0.88163575
   0.39061364  0.25000000  0.40175690
   0.10938636  0.75000000  0.90175690
   0.60938636  0.75000000  0.59824310
   0.89061364  0.25000000  0.09824310
   0.77444284  0.25000000  0.35377025
   0.72555716  0.75000000  0.85377025
   0.22555716  0.75000000  0.64622975
   0.27444284  0.25000000  0.14622975
Al4C3 Pnma-III - H(P) scan @ 60 GPa (ISI
           1
     8.624272    0.000000    0.000000
     0.000000    2.908274    0.000000
     0.000000    0.000000    9.403098
   Al   C 
    16    12
Direct configuration=     7
   0.73694824  0.25000000  0.71358181
   0.76305176  0.75000000  0.21358181
   0.26305176  0.75000000  0.28641819
   0.23694824  0.25000000  0.78641819
   0.60612845  0.25000000  0.47036831
   0.89387155  0.75000000  0.97036831
   0.39387155  0.75000000  0.52963169
   0.10612845  0.25000000  0.02963169
   0.13788956  0.25000000  0.51760456
   0.36211044  0.75000000  0.01760456
   0.86211044  0.75000000  0.48239544
   0.63788956  0.25000000  0.98239544
   0.99364386  0.25000000  0.27908269
   0.50635614  0.75000000  0.77908269
   0.00635614  0.75000000  0.72091731
   0.49364386  0.25000000  0.22091731
   0.92860059  0.25000000  0.61835798
   0.57139941  0.75000000  0.11835798
   0.07139941  0.75000000  0.38164202
   0.42860059  0.25000000  0.88164202
   0.39060419  0.25000000  0.40175442
   0.10939581  0.75000000  0.90175442
   0.60939581  0.75000000  0.59824558
   0.89060419  0.25000000  0.09824558
   0.77444342  0.25000000  0.35376749
   0.72555658  0.75000000  0.85376749
   0.22555658  0.75000000  0.64623251
   0.27444342  0.25000000  0.14623251
Al4C3 Pnma-III - H(P) scan @ 60 GPa (ISI
           1
     8.623824    0.000000    0.000000
     0.000000    2.908123    0.000000
     0.000000    0.000000    9.402610
   Al   C 
    16    12
Direct configuration=     8
   0.73693805  0.25000000  0.71343776
   0.76306195  0.75000000  0.21343776
   0.26306195  0.75000000  0.28656224
   0.23693805  0.25000000  0.78656224
   0.60602870  0.25000000  0.47012033
   0.89397130  0.75000000  0.97012033
   0.39397130  0.75000000  0.52987967
   0.10602870  0.25000000  0.02987967
   0.13813916  0.25000000  0.51746057
   0.36186084  0.75000000  0.01746057
   0.86186084  0.75000000  0.48253943
   0.63813916  0.25000000  0.98253943
   0.99427425  0.25000000  0.27913124
   0.50572575  0.75000000  0.77913124
   0.00572575  0.75000000  0.72086876
   0.49427425  0.25000000  0.22086876
   0.92860732  0.25000000  0.61835014
   0.57139268  0.75000000  0.11835014
   0.07139268  0.75000000  0.38164986
   0.42860732  0.25000000  0.88164986
   0.39019850  0.25000000  0.40211952
   0.10980150  0.75000000  0.90211952
   0.60980150  0.75000000  0.59788048
   0.89019850  0.25000000  0.09788048
   0.77433386  0.25000000  0.35363975
   0.72566614  0.75000000  0.85363975
   0.22566614  0.75000000  0.64636025
   0.27433386  0.25000000  0.14636025
Al4C3 Pnma-III - H(P) scan @ 60 GPa (ISI
           1
     8.623920    0.000000    0.000000
     0.000000    2.908155    0.000000
     0.000000    0.000000    9.402715
   Al   C 
    16    12
Direct configuration=     9
   0.73694024  0.25000000  0.71346870
   0.76305976  0.75000000  0.21346870
   0.26305976  0.75000000  0.28653130
   0.23694024  0.25000000  0.78653130
   0.60605013  0.25000000  0.47017360
   0.89394987  0.75000000  0.97017360
   0.39394987  0.75000000  0.52982640
   0.10605013  0.25000000  0.02982640
   0.13808554  0.25000000  0.51749150
   0.36191446  0.75000000  0.01749150
   0.86191446  0.75000000  0.48250850
   0.63808554  0.25000000  0.98250850
   0.99413882  0.25000000  0.27912081
   0.50586118  0.75000000  0.77912081
   0.00586118  0.75000000  0.72087919
   0.49413882  0.25000000  0.22087919
   0.92860588  0.25000000  0.61835182
   0.57139412  0.75000000  0.11835182
   0.07139412  0.75000000  0.38164818
   0.42860588  0.25000000  0.88164818
   0.39028565  0.25000000  0.40204108
   0.10971435  0.75000000  0.90204108
   0.60971435  0.75000000  0.59795892
   0.89028565  0.25000000  0.09795892
   0.77435740  0.25000000  0.35366719
   0.72564260  0.75000000  0.85366719
   0.22564260  0.75000000  0.64633281
   0.27435740  0.25000000  0.14633281
Al4C3 Pnma-III - H(P) scan @ 60 GPa (ISI
           1
     8.623525    0.000000    0.000000
     0.000000    2.908022    0.000000
     0.000000    0.000000    9.402284
   Al   C 
    16    12
Direct configuration=    10
   0.73684118  0.25000000  0.71339456
   0.76315882  0.75000000  0.21339456
   0.26315882  0.75000000  0.28660544
   0.23684118  0.25000000  0.78660544
   0.60596467  0.25000000  0.47012406
   0.89403533  0.75000000  0.97012406
   0.39403533  0.75000000  0.52987594
   0.10596467  0.25000000  0.02987594
   0.13816509  0.25000000  0.51759395
   0.36183491  0.75000000  0.01759395
   0.86183491  0.75000000  0.48240605
   0.63816509  0.25000000  0.98240605
   0.99415533  0.25000000  0.27908445
   0.50584467  0.75000000  0.77908445
   0.00584467  0.75000000  0.72091555
   0.49415533  0.25000000  0.22091555
   0.92861572  0.25000000  0.61838102
   0.57138428  0.75000000  0.11838102
   0.07138428  0.75000000  0.38161898
   0.42861572  0.25000000  0.88161898
   0.39029628  0.25000000  0.40218774
   0.10970372  0.75000000  0.90218774
   0.60970372  0.75000000  0.59781226
   0.89029628  0.25000000  0.09781226
   0.77438291  0.25000000  0.35353211
   0.72561709  0.75000000  0.85353211
   0.22561709  0.75000000  0.64646789
   0.27438291  0.25000000  0.14646789
Al4C3 Pnma-III - H(P) scan @ 60 GPa (ISI
           1
     8.623485    0.000000    0.000000
     0.000000    2.908009    0.000000
     0.000000    0.000000    9.402240
   Al   C 
    16    12
Direct configuration=    11
   0.73683113  0.25000000  0.71338704
   0.76316887  0.75000000  0.21338704
   0.26316887  0.75000000  0.28661296
   0.23683113  0.25000000  0.78661296
   0.60595600  0.25000000  0.47011903
   0.89404400  0.75000000  0.97011903
   0.39404400  0.75000000  0.52988097
   0.10595600  0.25000000  0.02988097
   0.13817316  0.25000000  0.51760434
   0.36182684  0.75000000  0.01760434
   0.86182684  0.75000000  0.48239566
   0.63817316  0.25000000  0.98239566
   0.99415700  0.25000000  0.27908076
   0.50584300  0.75000000  0.77908076
   0.00584300  0.75000000  0.72091924
   0.49415700  0.25000000  0.22091924
   0.92861672  0.25000000  0.61838399
   0.57138328  0.75000000  0.11838399
   0.07138328  0.75000000  0.38161601
   0.42861672  0.25000000  0.88161601
   0.39029736  0.25000000  0.40220261
   0.10970264  0.75000000  0.90220261
   0.60970264  0.75000000  0.59779739
   0.89029736  0.25000000  0.09779739
   0.77438550  0.25000000  0.35351841
   0.72561450  0.75000000  0.85351841
   0.22561450  0.75000000  0.64648159
   0.27438550  0.25000000  0.14648159
Al4C3 Pnma-III - H(P) scan @ 60 GPa (ISI
           1
     8.623666    0.000000    0.000000
     0.000000    2.908070    0.000000
     0.000000    0.000000    9.402437
   Al   C 
    16    12
Direct configuration=    12
   0.73676626  0.25000000  0.71323864
   0.76323374  0.75000000  0.21323864
   0.26323374  0.75000000  0.28676136
   0.23676626  0.25000000  0.78676136
   0.60602221  0.25000000  0.46997528
   0.89397779  0.75000000  0.96997528
   0.39397779  0.75000000  0.53002472
   0.10602221  0.25000000  0.03002472
   0.13817816  0.25000000  0.51770317
   0.36182184  0.75000000  0.01770317
   0.86182184  0.75000000  0.48229683
   0.63817816  0.25000000  0.98229683
   0.99415316  0.25000000  0.27904304
   0.50584684  0.75000000  0.77904304
   0.00584684  0.75000000  0.72095696
   0.49415316  0.25000000  0.22095696
   0.92859228  0.25000000  0.61838867
   0.57140772  0.75000000  0.11838867
   0.07140772  0.75000000  0.38161133
   0.42859228  0.25000000  0.88161133
   0.39031845  0.25000000  0.40227523
   0.10968155  0.75000000  0.90227523
   0.60968155  0.75000000  0.59772477
   0.89031845  0.25000000  0.09772477
   0.77434022  0.25000000  0.35343101
   0.72565978  0.75000000  0.85343101
   0.22565978  0.75000000  0.64656899
   0.27434022  0.25000000  0.14656899
Al4C3 Pnma-III - H(P) scan @ 60 GPa (ISI
           1
     8.623677    0.000000    0.000000
     0.000000    2.908074    0.000000
     0.000000    0.000000    9.402450
   Al   C 
    16    12
Direct configuration=    13
   0.73676208  0.25000000  0.71322907
   0.76323792  0.75000000  0.21322907
   0.26323792  0.75000000  0.28677093
   0.23676208  0.25000000  0.78677093
   0.60602648  0.25000000  0.46996602
   0.89397352  0.75000000  0.96996602
   0.39397352  0.75000000  0.53003398
   0.10602648  0.25000000  0.03003398
   0.13817848  0.25000000  0.51770953
   0.36182152  0.75000000  0.01770953
   0.86182152  0.75000000  0.48229047
   0.63817848  0.25000000  0.98229047
   0.99415291  0.25000000  0.27904061
   0.50584709  0.75000000  0.77904061
   0.00584709  0.75000000  0.72095939
   0.49415291  0.25000000  0.22095939
   0.92859070  0.25000000  0.61838897
   0.57140930  0.75000000  0.11838897
   0.07140930  0.75000000  0.38161103
   0.42859070  0.25000000  0.88161103
   0.39031981  0.25000000  0.40227991
   0.10968019  0.75000000  0.90227991
   0.60968019  0.75000000  0.59772009
   0.89031981  0.25000000  0.09772009
   0.77433731  0.25000000  0.35342538
   0.72566269  0.75000000  0.85342538
   0.22566269  0.75000000  0.64657462
   0.27433731  0.25000000  0.14657462
Al4C3 Pnma-III - H(P) scan @ 60 GPa (ISI
           1
     8.623542    0.000000    0.000000
     0.000000    2.908028    0.000000
     0.000000    0.000000    9.402302
   Al   C 
    16    12
Direct configuration=    14
   0.73673800  0.25000000  0.71308599
   0.76326200  0.75000000  0.21308599
   0.26326200  0.75000000  0.28691401
   0.23673800  0.25000000  0.78691401
   0.60601292  0.25000000  0.46990796
   0.89398708  0.75000000  0.96990796
   0.39398708  0.75000000  0.53009204
   0.10601292  0.25000000  0.03009204
   0.13809377  0.25000000  0.51774520
   0.36190623  0.75000000  0.01774520
   0.86190623  0.75000000  0.48225480
   0.63809377  0.25000000  0.98225480
   0.99416975  0.25000000  0.27905779
   0.50583025  0.75000000  0.77905779
   0.00583025  0.75000000  0.72094221
   0.49416975  0.25000000  0.22094221
   0.92859200  0.25000000  0.61834799
   0.57140800  0.75000000  0.11834799
   0.07140800  0.75000000  0.38165201
   0.42859200  0.25000000  0.88165201
   0.39032089  0.25000000  0.40229500
   0.10967911  0.75000000  0.90229500
   0.60967911  0.75000000  0.59770500
   0.89032089  0.25000000  0.09770500
   0.77436976  0.25000000  0.35333480
   0.72563024  0.75000000  0.85333480
   0.22563024  0.75000000  0.64666520
   0.27436976  0.25000000  0.14666520
