  28  28   0   0
  0.1021668E+02  0.8868788E-09  0.3059571E-09  0.1054249E-08  0.5000000E-15
  1.000000000000000E-004
  CAR 
 Al4C3 Pnma - r2SCAN H(P) scan @ 0 GPa (I
     17.53396210     -7.41337568  301     10.05495813      1.00000000
     -7.413  0.0000E+00  0.0000E+00
     -7.330  0.0000E+00  0.0000E+00
     -7.247  0.0000E+00  0.0000E+00
     -7.164  0.0000E+00  0.0000E+00
     -7.081  0.0000E+00  0.0000E+00
     -6.998  0.0000E+00  0.0000E+00
     -6.914  0.0000E+00  0.0000E+00
     -6.831  0.0000E+00  0.0000E+00
     -6.748  0.0000E+00  0.0000E+00
     -6.665  0.0000E+00  0.0000E+00
     -6.582  0.0000E+00  0.0000E+00
     -6.499  0.2558E-12  0.2127E-13
     -6.415  0.5406E-07  0.4496E-08
     -6.332  0.6121E-04  0.5095E-05
     -6.249  0.7422E-03  0.6682E-04
     -6.166  0.2812E-02  0.3006E-03
     -6.083  0.5052E-02  0.7208E-03
     -6.000  0.8175E-02  0.1401E-02
     -5.917  0.6768E-02  0.1963E-02
     -5.833  0.4928E-02  0.2373E-02
     -5.750  0.1018E-01  0.3220E-02
     -5.667  0.1667E-01  0.4606E-02
     -5.584  0.1425E-01  0.5792E-02
     -5.501  0.5841E-02  0.6277E-02
     -5.418  0.5244E-02  0.6713E-02
     -5.334  0.1020E-01  0.7562E-02
     -5.251  0.1256E-01  0.8606E-02
     -5.168  0.1055E-01  0.9483E-02
     -5.085  0.1701E-01  0.1090E-01
     -5.002  0.1557E-01  0.1219E-01
     -4.919  0.6733E-02  0.1275E-01
     -4.835  0.1300E-01  0.1383E-01
     -4.752  0.2595E-01  0.1599E-01
     -4.669  0.2412E-01  0.1800E-01
     -4.586  0.8915E-02  0.1874E-01
     -4.503  0.1083E-01  0.1964E-01
     -4.420  0.1313E-01  0.2073E-01
     -4.337  0.1800E-01  0.2223E-01
     -4.253  0.1728E-01  0.2367E-01
     -4.170  0.2403E-01  0.2566E-01
     -4.087  0.2328E-01  0.2760E-01
     -4.004  0.2494E-01  0.2967E-01
     -3.921  0.1600E-01  0.3101E-01
     -3.838  0.2322E-01  0.3294E-01
     -3.754  0.2182E-01  0.3475E-01
     -3.671  0.1513E-01  0.3601E-01
     -3.588  0.1630E-01  0.3736E-01
     -3.505  0.3239E-01  0.4006E-01
     -3.422  0.2606E-01  0.4223E-01
     -3.339  0.1963E-01  0.4386E-01
     -3.255  0.3422E-01  0.4670E-01
     -3.172  0.5062E-01  0.5091E-01
     -3.089  0.2314E-01  0.5284E-01
     -3.006  0.2691E-01  0.5508E-01
     -2.923  0.2016E-01  0.5675E-01
     -2.840  0.3024E-01  0.5927E-01
     -2.757  0.4445E-01  0.6296E-01
     -2.673  0.4766E-01  0.6693E-01
     -2.590  0.5305E-01  0.7134E-01
     -2.507  0.4415E-01  0.7501E-01
     -2.424  0.5121E-01  0.7927E-01
     -2.341  0.5077E-01  0.8349E-01
     -2.258  0.5396E-01  0.8798E-01
     -2.174  0.4816E-01  0.9198E-01
     -2.091  0.3972E-01  0.9528E-01
     -2.008  0.1844E-01  0.9682E-01
     -1.925  0.2227E-01  0.9867E-01
     -1.842  0.1651E-01  0.1000E+00
     -1.759  0.2039E-01  0.1017E+00
     -1.675  0.1612E-01  0.1031E+00
     -1.592  0.2310E-01  0.1050E+00
     -1.509  0.1572E-01  0.1063E+00
     -1.426  0.8089E-02  0.1070E+00
     -1.343  0.1770E-01  0.1085E+00
     -1.260  0.2077E-01  0.1102E+00
     -1.177  0.2116E-01  0.1119E+00
     -1.093  0.1964E-01  0.1136E+00
     -1.010  0.1465E-01  0.1148E+00
     -0.927  0.5752E-02  0.1153E+00
     -0.844  0.1696E-01  0.1167E+00
     -0.761  0.1311E-01  0.1178E+00
     -0.678  0.1193E-01  0.1188E+00
     -0.594  0.1045E-01  0.1196E+00
     -0.511  0.4182E-02  0.1200E+00
     -0.428  0.2639E-03  0.1200E+00
     -0.345  0.1659E-06  0.1200E+00
     -0.262  0.5556E-12  0.1200E+00
     -0.179  0.0000E+00  0.1200E+00
     -0.095  0.0000E+00  0.1200E+00
     -0.012  0.0000E+00  0.1200E+00
      0.071  0.0000E+00  0.1200E+00
      0.154  0.0000E+00  0.1200E+00
      0.237  0.0000E+00  0.1200E+00
      0.320  0.0000E+00  0.1200E+00
      0.403  0.0000E+00  0.1200E+00
      0.487  0.0000E+00  0.1200E+00
      0.570  0.1669E-17  0.1200E+00
      0.653  0.1612E-10  0.1200E+00
      0.736  0.7177E-06  0.1200E+00
      0.819  0.1907E-03  0.1200E+00
      0.902  0.9932E-03  0.1201E+00
      0.986  0.3012E-02  0.1203E+00
      1.069  0.4547E-02  0.1207E+00
      1.152  0.5411E-02  0.1212E+00
      1.235  0.5090E-02  0.1216E+00
      1.318  0.1329E-01  0.1227E+00
      1.401  0.2137E-01  0.1245E+00
      1.485  0.3120E-01  0.1271E+00
      1.568  0.3054E-01  0.1296E+00
      1.651  0.3763E-01  0.1327E+00
      1.734  0.2704E-01  0.1350E+00
      1.817  0.4888E-01  0.1391E+00
      1.900  0.2892E-01  0.1415E+00
      1.983  0.4071E-01  0.1449E+00
      2.067  0.4195E-01  0.1483E+00
      2.150  0.4171E-01  0.1518E+00
      2.233  0.2795E-01  0.1541E+00
      2.316  0.5515E-01  0.1587E+00
      2.399  0.4350E-01  0.1623E+00
      2.482  0.3504E-01  0.1652E+00
      2.566  0.4696E-01  0.1692E+00
      2.649  0.4125E-01  0.1726E+00
      2.732  0.4002E-01  0.1759E+00
      2.815  0.4167E-01  0.1794E+00
      2.898  0.3450E-01  0.1822E+00
      2.981  0.2421E-01  0.1843E+00
      3.065  0.2774E-01  0.1866E+00
      3.148  0.4914E-01  0.1907E+00
      3.231  0.3933E-01  0.1939E+00
      3.314  0.4391E-01  0.1976E+00
      3.397  0.4774E-01  0.2015E+00
      3.480  0.4288E-01  0.2051E+00
      3.563  0.4296E-01  0.2087E+00
      3.647  0.4437E-01  0.2124E+00
      3.730  0.2421E-01  0.2144E+00
      3.813  0.3156E-01  0.2170E+00
      3.896  0.3318E-01  0.2198E+00
      3.979  0.3247E-01  0.2225E+00
      4.062  0.3006E-01  0.2250E+00
      4.146  0.3899E-01  0.2282E+00
      4.229  0.2230E-01  0.2301E+00
      4.312  0.3752E-01  0.2332E+00
      4.395  0.3742E-01  0.2363E+00
      4.478  0.3780E-01  0.2394E+00
      4.561  0.5550E-01  0.2441E+00
      4.645  0.4687E-01  0.2480E+00
      4.728  0.4433E-01  0.2516E+00
      4.811  0.4943E-01  0.2558E+00
      4.894  0.6444E-01  0.2611E+00
      4.977  0.4934E-01  0.2652E+00
      5.060  0.4354E-01  0.2688E+00
      5.143  0.3683E-01  0.2719E+00
      5.227  0.3655E-01  0.2749E+00
      5.310  0.5261E-01  0.2793E+00
      5.393  0.3973E-01  0.2826E+00
      5.476  0.5624E-01  0.2873E+00
      5.559  0.5366E-01  0.2918E+00
      5.642  0.4028E-01  0.2951E+00
      5.726  0.3562E-01  0.2981E+00
      5.809  0.3846E-01  0.3013E+00
      5.892  0.4641E-01  0.3051E+00
      5.975  0.6218E-01  0.3103E+00
      6.058  0.5151E-01  0.3146E+00
      6.141  0.3182E-01  0.3172E+00
      6.225  0.3851E-01  0.3204E+00
      6.308  0.3813E-01  0.3236E+00
      6.391  0.5788E-01  0.3284E+00
      6.474  0.4972E-01  0.3325E+00
      6.557  0.6148E-01  0.3377E+00
      6.640  0.5864E-01  0.3425E+00
      6.723  0.5272E-01  0.3469E+00
      6.807  0.5615E-01  0.3516E+00
      6.890  0.4365E-01  0.3552E+00
      6.973  0.4248E-01  0.3587E+00
      7.056  0.4815E-01  0.3628E+00
      7.139  0.5614E-01  0.3674E+00
      7.222  0.3131E-01  0.3700E+00
      7.306  0.4820E-01  0.3740E+00
      7.389  0.4939E-01  0.3781E+00
      7.472  0.3439E-01  0.3810E+00
      7.555  0.3708E-01  0.3841E+00
      7.638  0.6313E-01  0.3893E+00
      7.721  0.5667E-01  0.3940E+00
      7.805  0.5304E-01  0.3985E+00
      7.888  0.7549E-01  0.4047E+00
      7.971  0.7121E-01  0.4107E+00
      8.054  0.6677E-01  0.4162E+00
      8.137  0.4269E-01  0.4198E+00
      8.220  0.6244E-01  0.4249E+00
      8.303  0.7490E-01  0.4312E+00
      8.387  0.9320E-01  0.4389E+00
      8.470  0.5478E-01  0.4435E+00
      8.553  0.6016E-01  0.4485E+00
      8.636  0.4436E-01  0.4522E+00
      8.719  0.6318E-01  0.4574E+00
      8.802  0.6011E-01  0.4624E+00
      8.886  0.4622E-01  0.4663E+00
      8.969  0.4013E-01  0.4696E+00
      9.052  0.3157E-01  0.4722E+00
      9.135  0.2562E-01  0.4744E+00
      9.218  0.1801E-01  0.4759E+00
      9.301  0.9051E-02  0.4766E+00
      9.384  0.8142E-02  0.4773E+00
      9.468  0.9927E-02  0.4781E+00
      9.551  0.6412E-02  0.4786E+00
      9.634  0.7239E-02  0.4793E+00
      9.717  0.3799E-02  0.4796E+00
      9.800  0.4255E-02  0.4799E+00
      9.883  0.9266E-03  0.4800E+00
      9.967  0.2363E-04  0.4800E+00
     10.050  0.7620E-08  0.4800E+00
     10.133  0.1275E-13  0.4800E+00
     10.216  0.0000E+00  0.4800E+00
     10.299  0.0000E+00  0.4800E+00
     10.382  0.0000E+00  0.4800E+00
     10.466  0.1349E-11  0.4800E+00
     10.549  0.2607E-06  0.4800E+00
     10.632  0.2908E-03  0.4800E+00
     10.715  0.4341E-02  0.4804E+00
     10.798  0.4180E-02  0.4807E+00
     10.881  0.5470E-02  0.4812E+00
     10.964  0.4134E-02  0.4815E+00
     11.048  0.1908E-01  0.4831E+00
     11.131  0.1458E-01  0.4843E+00
     11.214  0.3455E-01  0.4872E+00
     11.297  0.2509E-01  0.4893E+00
     11.380  0.1388E-01  0.4904E+00
     11.463  0.7490E-02  0.4911E+00
     11.547  0.8645E-02  0.4918E+00
     11.630  0.8727E-02  0.4925E+00
     11.713  0.1167E-01  0.4935E+00
     11.796  0.1647E-01  0.4949E+00
     11.879  0.2358E-01  0.4968E+00
     11.962  0.4213E-01  0.5003E+00
     12.046  0.3176E-01  0.5030E+00
     12.129  0.3171E-01  0.5056E+00
     12.212  0.2638E-01  0.5078E+00
     12.295  0.3087E-01  0.5104E+00
     12.378  0.2677E-01  0.5126E+00
     12.461  0.1301E-01  0.5137E+00
     12.544  0.1931E-01  0.5153E+00
     12.628  0.2753E-01  0.5176E+00
     12.711  0.2762E-01  0.5199E+00
     12.794  0.3068E-01  0.5224E+00
     12.877  0.2799E-01  0.5247E+00
     12.960  0.3815E-01  0.5279E+00
     13.043  0.1879E-01  0.5295E+00
     13.127  0.2232E-01  0.5313E+00
     13.210  0.4113E-01  0.5347E+00
     13.293  0.5173E-01  0.5390E+00
     13.376  0.4097E-01  0.5425E+00
     13.459  0.4125E-01  0.5459E+00
     13.542  0.4247E-01  0.5494E+00
     13.626  0.6557E-01  0.5549E+00
     13.709  0.5169E-01  0.5592E+00
     13.792  0.3033E-01  0.5617E+00
     13.875  0.2878E-01  0.5641E+00
     13.958  0.3924E-01  0.5673E+00
     14.041  0.4378E-01  0.5710E+00
     14.124  0.4792E-01  0.5750E+00
     14.208  0.5261E-01  0.5793E+00
     14.291  0.5484E-01  0.5839E+00
     14.374  0.2992E-01  0.5864E+00
     14.457  0.2782E-01  0.5887E+00
     14.540  0.3710E-01  0.5918E+00
     14.623  0.3752E-01  0.5949E+00
     14.707  0.5385E-01  0.5994E+00
     14.790  0.4214E-01  0.6029E+00
     14.873  0.4954E-01  0.6070E+00
     14.956  0.5393E-01  0.6115E+00
     15.039  0.4196E-01  0.6150E+00
     15.122  0.5244E-01  0.6193E+00
     15.206  0.4816E-01  0.6234E+00
     15.289  0.3546E-01  0.6263E+00
     15.372  0.3691E-01  0.6294E+00
     15.455  0.4425E-01  0.6331E+00
     15.538  0.3895E-01  0.6363E+00
     15.621  0.3468E-01  0.6392E+00
     15.704  0.3738E-01  0.6423E+00
     15.788  0.4208E-01  0.6458E+00
     15.871  0.2966E-01  0.6482E+00
     15.954  0.2567E-01  0.6504E+00
     16.037  0.2309E-01  0.6523E+00
     16.120  0.3380E-01  0.6551E+00
     16.203  0.2861E-01  0.6575E+00
     16.287  0.1991E-01  0.6592E+00
     16.370  0.8428E-02  0.6599E+00
     16.453  0.1667E-02  0.6600E+00
     16.536  0.1225E-03  0.6600E+00
     16.619  0.1081E-06  0.6600E+00
     16.702  0.5115E-12  0.6600E+00
     16.786  0.0000E+00  0.6600E+00
     16.869  0.0000E+00  0.6600E+00
     16.952  0.0000E+00  0.6600E+00
     17.035  0.0000E+00  0.6600E+00
     17.118  0.0000E+00  0.6600E+00
     17.201  0.0000E+00  0.6600E+00
     17.284  0.0000E+00  0.6600E+00
     17.368  0.0000E+00  0.6600E+00
     17.451  0.0000E+00  0.6600E+00
     17.534  0.0000E+00  0.6600E+00
