Al4C3 Pnma (POSCAR.IV, symmetrized via s
   1.00000000000000     
     8.8687877986054335    0.0000000000000000    0.0000000000000000
     0.0000000000000000    3.0595706192262035    0.0000000000000000
     0.0000000000000000    0.0000000000000000   10.5424912694858808
   Al   C 
    16    12
Direct
  0.2735502672922275  0.2500000000000000  0.3075329915271308
  0.2264497327077724  0.7500000000000000  0.8075329915271308
  0.7264497327077724  0.7500000000000000  0.6924670084728692
  0.7735502672922276  0.2500000000000000  0.1924670084728693
  0.3615341662279118  0.2500000000000000  0.0187587654397753
  0.1384658337720882  0.7500000000000000  0.5187587654397752
  0.6384658337720881  0.7500000000000000  0.9812412345602248
  0.8615341662279119  0.2500000000000000  0.4812412345602247
  0.5160590391368277  0.2500000000000000  0.7948720507037115
  0.9839409608631723  0.7500000000000000  0.2948720507037115
  0.4839409608631723  0.7500000000000000  0.2051279492962884
  0.0160590391368277  0.2500000000000000  0.7051279492962885
  0.0813324512462430  0.2500000000000000  0.0833467341491087
  0.4186675487537640  0.7500000000000000  0.5833467341491085
  0.9186675487537570  0.7500000000000000  0.9166532658508915
  0.5813324512462430  0.2500000000000000  0.4166532658508914
  0.2457612108131275  0.2500000000000000  0.6385376537495265
  0.2542387891868724  0.7500000000000000  0.1385376537495265
  0.7542387891868727  0.7500000000000000  0.3614623462504735
  0.7457612108131273  0.2500000000000000  0.8614623462504735
  0.5875004958432158  0.2500000000000000  0.6136101721742773
  0.9124995041567842  0.7500000000000000  0.1136101721742773
  0.4124995041567915  0.7500000000000000  0.3863898278257227
  0.0875004958432156  0.2500000000000000  0.8863898278257227
  0.0722337674812502  0.2500000000000000  0.3872433425577897
  0.4277662325187498  0.7500000000000000  0.8872433425577972
  0.9277662325187502  0.7500000000000000  0.6127566574422028
  0.5722337674812498  0.2500000000000000  0.1127566574422030
 
  0.00000000E+00  0.00000000E+00  0.00000000E+00
  0.00000000E+00  0.00000000E+00  0.00000000E+00
  0.00000000E+00  0.00000000E+00  0.00000000E+00
  0.00000000E+00  0.00000000E+00  0.00000000E+00
  0.00000000E+00  0.00000000E+00  0.00000000E+00
  0.00000000E+00  0.00000000E+00  0.00000000E+00
  0.00000000E+00  0.00000000E+00  0.00000000E+00
  0.00000000E+00  0.00000000E+00  0.00000000E+00
  0.00000000E+00  0.00000000E+00  0.00000000E+00
  0.00000000E+00  0.00000000E+00  0.00000000E+00
  0.00000000E+00  0.00000000E+00  0.00000000E+00
  0.00000000E+00  0.00000000E+00  0.00000000E+00
  0.00000000E+00  0.00000000E+00  0.00000000E+00
  0.00000000E+00  0.00000000E+00  0.00000000E+00
  0.00000000E+00  0.00000000E+00  0.00000000E+00
  0.00000000E+00  0.00000000E+00  0.00000000E+00
  0.00000000E+00  0.00000000E+00  0.00000000E+00
  0.00000000E+00  0.00000000E+00  0.00000000E+00
  0.00000000E+00  0.00000000E+00  0.00000000E+00
  0.00000000E+00  0.00000000E+00  0.00000000E+00
  0.00000000E+00  0.00000000E+00  0.00000000E+00
  0.00000000E+00  0.00000000E+00  0.00000000E+00
  0.00000000E+00  0.00000000E+00  0.00000000E+00
  0.00000000E+00  0.00000000E+00  0.00000000E+00
  0.00000000E+00  0.00000000E+00  0.00000000E+00
  0.00000000E+00  0.00000000E+00  0.00000000E+00
  0.00000000E+00  0.00000000E+00  0.00000000E+00
  0.00000000E+00  0.00000000E+00  0.00000000E+00
