       N       E                     dE             d eps       ncg     rms          rms(c)
DAV:   1    -0.762201176817E+02   -0.76220E+02   -0.35700E-05  5748   0.640E-02    0.818E-03
DAV:   2    -0.762201190777E+02   -0.13960E-05   -0.16605E-06  3108   0.795E-03
   1 F= -.78962802E+01 E0= -.78958517E+01  d E =-.789628E+01
       N       E                     dE             d eps       ncg     rms          rms(c)
DAV:   1    -0.712649697716E+02    0.49551E+01   -0.62576E+00  7044   0.142E+01    0.280E+00
DAV:   2    -0.711106622915E+02    0.15431E+00   -0.35683E-01  7368   0.270E+00    0.131E+00
DAV:   3    -0.710974109590E+02    0.13251E-01   -0.47732E-02  7392   0.955E-01    0.399E-01
DAV:   4    -0.710956739506E+02    0.17370E-02   -0.23383E-03  7428   0.223E-01    0.122E-01
DAV:   5    -0.710954077731E+02    0.26618E-03   -0.18569E-04  7464   0.683E-02    0.804E-02
DAV:   6    -0.710953856616E+02    0.22111E-04   -0.33777E-05  7140   0.290E-02    0.109E-02
DAV:   7    -0.710953882321E+02   -0.25705E-05   -0.34444E-06  4116   0.104E-02
   2 F= -.74936205E+01 E0= -.74932804E+01  d E =0.402660E+00
       N       E                     dE             d eps       ncg     rms          rms(c)
DAV:   1    -0.750535585335E+02   -0.39582E+01   -0.31688E+00  7080   0.982E+00    0.201E+00
DAV:   2    -0.749724699285E+02    0.81089E-01   -0.18578E-01  7344   0.193E+00    0.942E-01
DAV:   3    -0.749653447180E+02    0.71252E-02   -0.28827E-02  7380   0.710E-01    0.278E-01
DAV:   4    -0.749643072209E+02    0.10375E-02   -0.19575E-03  7356   0.186E-01    0.893E-02
DAV:   5    -0.749640986103E+02    0.20861E-03   -0.27361E-04  7428   0.720E-02    0.568E-02
DAV:   6    -0.749640703884E+02    0.28222E-04   -0.42362E-05  7092   0.281E-02    0.141E-02
DAV:   7    -0.749640662677E+02    0.41208E-05   -0.42229E-06  3792   0.985E-03
   3 F= -.79649476E+01 E0= -.79645520E+01  d E =-.686674E-01
       N       E                     dE             d eps       ncg     rms          rms(c)
DAV:   1    -0.749403414059E+02    0.23729E-01   -0.15024E-04  6984   0.675E-02    0.136E-02
DAV:   2    -0.749403391697E+02    0.22362E-05   -0.81639E-06  3456   0.131E-02
   4 F= -.79649723E+01 E0= -.79645766E+01  d E =-.686920E-01
       N       E                     dE             d eps       ncg     rms          rms(c)
DAV:   1    -0.749372011276E+02    0.31403E-02   -0.12889E-06  3180   0.609E-03    0.379E-03
DAV:   2    -0.749372015212E+02   -0.39363E-06   -0.20330E-07  3120   0.192E-03
   5 F= -.79649733E+01 E0= -.79645779E+01  d E =-.686931E-01
       N       E                     dE             d eps       ncg     rms          rms(c)
DAV:   1    -0.749384858795E+02   -0.12848E-02   -0.52478E-07  3048   0.409E-03    0.661E-04
DAV:   2    -0.749384858802E+02   -0.70577E-09   -0.31076E-08  3024   0.933E-04
   6 F= -.79649739E+01 E0= -.79645785E+01  d E =-.686937E-01
       N       E                     dE             d eps       ncg     rms          rms(c)
DAV:   1    -0.749221704353E+02    0.16315E-01   -0.92762E-02  6072   0.158E+00    0.682E-02
DAV:   2    -0.749220653167E+02    0.10512E-03   -0.15521E-03  7812   0.206E-01    0.409E-02
DAV:   3    -0.749220196009E+02    0.45716E-04   -0.14352E-04  7308   0.660E-02    0.163E-02
DAV:   4    -0.749220198233E+02   -0.22243E-06   -0.35560E-05  5700   0.270E-02
   7 F= -.79656664E+01 E0= -.79652628E+01  d E =-.692418E-03
       N       E                     dE             d eps       ncg     rms          rms(c)
DAV:   1    -0.749251540353E+02   -0.31344E-02   -0.30553E-03  6096   0.287E-01    0.122E-02
DAV:   2    -0.749251503711E+02    0.36643E-05   -0.52020E-05  7752   0.377E-02
   8 F= -.79657042E+01 E0= -.79653024E+01  d E =-.730241E-03
       N       E                     dE             d eps       ncg     rms          rms(c)
DAV:   1    -0.749253844151E+02   -0.23038E-03   -0.16010E-05  4464   0.228E-02    0.326E-03
DAV:   2    -0.749253843411E+02    0.74020E-07   -0.84064E-07  3036   0.483E-03
   9 F= -.79657027E+01 E0= -.79653010E+01  d E =-.728758E-03
       N       E                     dE             d eps       ncg     rms          rms(c)
DAV:   1    -0.749271997890E+02   -0.18154E-02   -0.72960E-03  6060   0.441E-01    0.204E-02
DAV:   2    -0.749271911628E+02    0.86262E-05   -0.11687E-04  7728   0.613E-02    0.115E-02
DAV:   3    -0.749271859403E+02    0.52225E-05   -0.20774E-05  5544   0.275E-02
  10 F= -.79657880E+01 E0= -.79653804E+01  d E =-.852534E-04
       N       E                     dE             d eps       ncg     rms          rms(c)
DAV:   1    -0.749274610687E+02   -0.26991E-03   -0.19909E-04  6096   0.744E-02    0.475E-03
DAV:   2    -0.749274608698E+02    0.19893E-06   -0.39250E-06  3108   0.110E-02
  11 F= -.79657911E+01 E0= -.79653816E+01  d E =-.883832E-04
       N       E                     dE             d eps       ncg     rms          rms(c)
DAV:   1    -0.749240526847E+02    0.34084E-02   -0.11200E-03  6156   0.180E-01    0.770E-03
DAV:   2    -0.749240527273E+02   -0.42653E-07   -0.88827E-06  5940   0.173E-02
  12 F= -.79658551E+01 E0= -.79654398E+01  d E =-.640643E-04
       N       E                     dE             d eps       ncg     rms          rms(c)
DAV:   1    -0.749198209647E+02    0.42317E-02   -0.16962E-03  6144   0.221E-01    0.101E-02
DAV:   2    -0.749198211262E+02   -0.16145E-06   -0.14392E-05  6408   0.215E-02
  13 F= -.79658840E+01 E0= -.79654609E+01  d E =-.929409E-04
