Al4C3 Pbam - H(P) scan @ 100 GPa (ISIF=8
           1
     8.214367    0.000000    0.000000
     0.000000    4.743046    0.000000
     0.000000    0.000000    2.809645
   Al   C 
     8     6
Direct configuration=     1
   0.78598614  0.16013304  0.00000000
   0.21401386  0.83986696  0.00000000
   0.71401386  0.66013304  0.00000000
   0.28598614  0.33986696  0.00000000
   0.03347971  0.25286650  0.50000000
   0.96652031  0.74713350  0.50000000
   0.46652028  0.75286650  0.50000000
   0.53347969  0.24713350  0.50000000
   0.00000000  0.00000000  0.00000000
   0.50000000  0.50000000  0.00000000
   0.82354565  0.44355137  0.50000000
   0.17645435  0.55644863  0.50000000
   0.67645435  0.94355137  0.50000000
   0.32354565  0.05644863  0.50000000
Al4C3 Pbam - H(P) scan @ 100 GPa (ISIF=8
           1
     8.020592    0.000000    0.000000
     0.000000    4.631159    0.000000
     0.000000    0.000000    2.743366
   Al   C 
     8     6
Direct configuration=     2
   0.78596567  0.16009386 -0.00000000
   0.21403433  0.83990614 -0.00000000
   0.71403433  0.66009386 -0.00000000
   0.28596567  0.33990614 -0.00000000
   0.03345111  0.25288394  0.50000000
   0.96654891  0.74711606  0.50000000
   0.46654888  0.75288394  0.50000000
   0.53345109  0.24711606  0.50000000
  -0.00000000  0.00000000 -0.00000000
   0.50000000  0.50000000 -0.00000000
   0.82354575  0.44347628  0.50000000
   0.17645425  0.55652372  0.50000000
   0.67645425  0.94347628  0.50000000
   0.32354575  0.05652372  0.50000000
Al4C3 Pbam - H(P) scan @ 100 GPa (ISIF=8
           1
     8.160931    0.000000    0.000000
     0.000000    4.712192    0.000000
     0.000000    0.000000    2.791367
   Al   C 
     8     6
Direct configuration=     3
   0.78598085  0.16012292 -0.00000000
   0.21401915  0.83987708 -0.00000000
   0.71401915  0.66012292 -0.00000000
   0.28598085  0.33987708 -0.00000000
   0.03347232  0.25287100  0.50000000
   0.96652770  0.74712900  0.50000000
   0.46652767  0.75287100  0.50000000
   0.53347230  0.24712900  0.50000000
  -0.00000000  0.00000000 -0.00000000
   0.50000000  0.50000000 -0.00000000
   0.82354567  0.44353198  0.50000000
   0.17645433  0.55646802  0.50000000
   0.67645433  0.94353198  0.50000000
   0.32354567  0.05646802  0.50000000
Al4C3 Pbam - H(P) scan @ 100 GPa (ISIF=8
           1
     8.159966    0.000000    0.000000
     0.000000    4.711635    0.000000
     0.000000    0.000000    2.791037
   Al   C 
     8     6
Direct configuration=     4
   0.78598075  0.16012273 -0.00000000
   0.21401925  0.83987727 -0.00000000
   0.71401925  0.66012273 -0.00000000
   0.28598075  0.33987727 -0.00000000
   0.03347218  0.25287109  0.50000000
   0.96652784  0.74712891  0.50000000
   0.46652781  0.75287109  0.50000000
   0.53347216  0.24712891  0.50000000
  -0.00000000  0.00000000 -0.00000000
   0.50000000  0.50000000 -0.00000000
   0.82354567  0.44353160  0.50000000
   0.17645433  0.55646840  0.50000000
   0.67645433  0.94353160  0.50000000
   0.32354567  0.05646840  0.50000000
Al4C3 Pbam - H(P) scan @ 100 GPa (ISIF=8
           1
     8.159839    0.000000    0.000000
     0.000000    4.711562    0.000000
     0.000000    0.000000    2.790994
   Al   C 
     8     6
Direct configuration=     5
   0.78598074  0.16012270 -0.00000000
   0.21401926  0.83987730 -0.00000000
   0.71401926  0.66012270 -0.00000000
   0.28598074  0.33987730 -0.00000000
   0.03347216  0.25287110  0.50000000
   0.96652786  0.74712890  0.50000000
   0.46652783  0.75287110  0.50000000
   0.53347214  0.24712890  0.50000000
  -0.00000000  0.00000000 -0.00000000
   0.50000000  0.50000000 -0.00000000
   0.82354567  0.44353155  0.50000000
   0.17645433  0.55646845  0.50000000
   0.67645433  0.94353155  0.50000000
   0.32354567  0.05646845  0.50000000
Al4C3 Pbam - H(P) scan @ 100 GPa (ISIF=8
           1
     8.159891    0.000000    0.000000
     0.000000    4.711592    0.000000
     0.000000    0.000000    2.791012
   Al   C 
     8     6
Direct configuration=     6
   0.78598074  0.16012271 -0.00000000
   0.21401926  0.83987729 -0.00000000
   0.71401926  0.66012271 -0.00000000
   0.28598074  0.33987729 -0.00000000
   0.03347217  0.25287110  0.50000000
   0.96652785  0.74712890  0.50000000
   0.46652782  0.75287110  0.50000000
   0.53347215  0.24712890  0.50000000
  -0.00000000  0.00000000 -0.00000000
   0.50000000  0.50000000 -0.00000000
   0.82354567  0.44353157  0.50000000
   0.17645433  0.55646843  0.50000000
   0.67645433  0.94353157  0.50000000
   0.32354567  0.05646843  0.50000000
Al4C3 Pbam - H(P) scan @ 100 GPa (ISIF=8
           1
     8.159194    0.000000    0.000000
     0.000000    4.711189    0.000000
     0.000000    0.000000    2.790773
   Al   C 
     8     6
Direct configuration=     7
   0.78574736  0.16031571 -0.00000000
   0.21425264  0.83968429 -0.00000000
   0.71425264  0.66031571 -0.00000000
   0.28574736  0.33968429 -0.00000000
   0.03374394  0.25294923  0.50000000
   0.96625609  0.74705077  0.50000000
   0.46625606  0.75294923  0.50000000
   0.53374391  0.24705077  0.50000000
  -0.00000000  0.00000000 -0.00000000
   0.50000000  0.50000000 -0.00000000
   0.82329390  0.44306851  0.50000000
   0.17670610  0.55693149  0.50000000
   0.67670610  0.94306851  0.50000000
   0.32329390  0.05693149  0.50000000
Al4C3 Pbam - H(P) scan @ 100 GPa (ISIF=8
           1
     8.159320    0.000000    0.000000
     0.000000    4.711262    0.000000
     0.000000    0.000000    2.790816
   Al   C 
     8     6
Direct configuration=     8
   0.78578943  0.16028092 -0.00000000
   0.21421057  0.83971908 -0.00000000
   0.71421057  0.66028092 -0.00000000
   0.28578943  0.33971908 -0.00000000
   0.03369495  0.25293515  0.50000000
   0.96630508  0.74706485  0.50000000
   0.46630505  0.75293515  0.50000000
   0.53369492  0.24706485  0.50000000
  -0.00000000  0.00000000 -0.00000000
   0.50000000  0.50000000 -0.00000000
   0.82333929  0.44315199  0.50000000
   0.17666071  0.55684801  0.50000000
   0.67666071  0.94315199  0.50000000
   0.32333929  0.05684801  0.50000000
Al4C3 Pbam - H(P) scan @ 100 GPa (ISIF=8
           1
     8.159329    0.000000    0.000000
     0.000000    4.711267    0.000000
     0.000000    0.000000    2.790820
   Al   C 
     8     6
Direct configuration=     9
   0.78579264  0.16027827 -0.00000000
   0.21420736  0.83972173 -0.00000000
   0.71420736  0.66027827 -0.00000000
   0.28579264  0.33972173 -0.00000000
   0.03369122  0.25293407  0.50000000
   0.96630881  0.74706593  0.50000000
   0.46630878  0.75293407  0.50000000
   0.53369119  0.24706593  0.50000000
  -0.00000000  0.00000000 -0.00000000
   0.50000000  0.50000000 -0.00000000
   0.82334274  0.44315835  0.50000000
   0.17665726  0.55684165  0.50000000
   0.67665726  0.94315835  0.50000000
   0.32334274  0.05684165  0.50000000
Al4C3 Pbam - H(P) scan @ 100 GPa (ISIF=8
           1
     8.159399    0.000000    0.000000
     0.000000    4.711308    0.000000
     0.000000    0.000000    2.790843
   Al   C 
     8     6
Direct configuration=    10
   0.78586496  0.16022819 -0.00000000
   0.21413504  0.83977181 -0.00000000
   0.71413504  0.66022819 -0.00000000
   0.28586496  0.33977181 -0.00000000
   0.03375501  0.25284677  0.50000000
   0.96624502  0.74715323  0.50000000
   0.46624499  0.75284677  0.50000000
   0.53375498  0.24715323  0.50000000
   0.00000000  0.00000000 -0.00000000
   0.50000000  0.50000000 -0.00000000
   0.82334229  0.44298426  0.50000000
   0.17665771  0.55701574  0.50000000
   0.67665771  0.94298426  0.50000000
   0.32334229  0.05701574  0.50000000
Al4C3 Pbam - H(P) scan @ 100 GPa (ISIF=8
           1
     8.159410    0.000000    0.000000
     0.000000    4.711314    0.000000
     0.000000    0.000000    2.790847
   Al   C 
     8     6
Direct configuration=    11
   0.78587641  0.16022026 -0.00000000
   0.21412359  0.83977974 -0.00000000
   0.71412359  0.66022026 -0.00000000
   0.28587641  0.33977974 -0.00000000
   0.03376511  0.25283295  0.50000000
   0.96623492  0.74716705  0.50000000
   0.46623489  0.75283295  0.50000000
   0.53376508  0.24716705  0.50000000
   0.00000000  0.00000000 -0.00000000
   0.50000000  0.50000000 -0.00000000
   0.82334222  0.44295670  0.50000000
   0.17665778  0.55704330  0.50000000
   0.67665778  0.94295670  0.50000000
   0.32334222  0.05704330  0.50000000
Al4C3 Pbam - H(P) scan @ 100 GPa (ISIF=8
           1
     8.159269    0.000000    0.000000
     0.000000    4.711232    0.000000
     0.000000    0.000000    2.790799
   Al   C 
     8     6
Direct configuration=    12
   0.78591790  0.16012150 -0.00000000
   0.21408210  0.83987850 -0.00000000
   0.71408210  0.66012150 -0.00000000
   0.28591790  0.33987850 -0.00000000
   0.03384458  0.25286412  0.50000000
   0.96615544  0.74713588  0.50000000
   0.46615541  0.75286412  0.50000000
   0.53384456  0.24713588  0.50000000
   0.00000000  0.00000000 -0.00000000
   0.50000000  0.50000000 -0.00000000
   0.82335288  0.44289401  0.50000000
   0.17664712  0.55710599  0.50000000
   0.67664712  0.94289401  0.50000000
   0.32335288  0.05710599  0.50000000
Al4C3 Pbam - H(P) scan @ 100 GPa (ISIF=8
           1
     8.159096    0.000000    0.000000
     0.000000    4.711133    0.000000
     0.000000    0.000000    2.790740
   Al   C 
     8     6
Direct configuration=    13
   0.78596880  0.16000032 -0.00000000
   0.21403120  0.83999968 -0.00000000
   0.71403120  0.66000032 -0.00000000
   0.28596880  0.33999968 -0.00000000
   0.03394210  0.25290237  0.50000000
   0.96605792  0.74709763  0.50000000
   0.46605789  0.75290237  0.50000000
   0.53394208  0.24709763  0.50000000
   0.00000000  0.00000000 -0.00000000
   0.50000000  0.50000000 -0.00000000
   0.82336595  0.44281708  0.50000000
   0.17663405  0.55718292  0.50000000
   0.67663405  0.94281708  0.50000000
   0.32336595  0.05718292  0.50000000
