  14  14   0   0
  0.9518171E+01  0.8770823E-09  0.5064349E-09  0.2999975E-09  0.5000000E-15
  1.000000000000000E-004
  CAR 
 Al4C3 Pbam - H(P) scan @ 10 GPa (ISIF=8)
     18.20261585     -6.55852045  301      9.70565378      1.00000000
     -6.559  0.0000E+00  0.0000E+00
     -6.476  0.0000E+00  0.0000E+00
     -6.393  0.0000E+00  0.0000E+00
     -6.311  0.0000E+00  0.0000E+00
     -6.228  0.0000E+00  0.0000E+00
     -6.146  0.0000E+00  0.0000E+00
     -6.063  0.0000E+00  0.0000E+00
     -5.981  0.0000E+00  0.0000E+00
     -5.898  0.0000E+00  0.0000E+00
     -5.816  0.0000E+00  0.0000E+00
     -5.733  0.0000E+00  0.0000E+00
     -5.651  0.1480E-12  0.1222E-13
     -5.568  0.2624E-07  0.2166E-08
     -5.486  0.2702E-04  0.2232E-05
     -5.403  0.3473E-03  0.3090E-04
     -5.320  0.1530E-02  0.1572E-03
     -5.238  0.2874E-02  0.3943E-03
     -5.155  0.3408E-02  0.6756E-03
     -5.073  0.2794E-02  0.9063E-03
     -4.990  0.2602E-02  0.1121E-02
     -4.908  0.6548E-02  0.1662E-02
     -4.825  0.7961E-02  0.2319E-02
     -4.743  0.3770E-02  0.2630E-02
     -4.660  0.1907E-02  0.2787E-02
     -4.578  0.6418E-02  0.3317E-02
     -4.495  0.1058E-01  0.4190E-02
     -4.413  0.7313E-02  0.4794E-02
     -4.330  0.6177E-02  0.5304E-02
     -4.247  0.7872E-02  0.5953E-02
     -4.165  0.9139E-02  0.6708E-02
     -4.082  0.1068E-01  0.7590E-02
     -4.000  0.1147E-01  0.8536E-02
     -3.917  0.7794E-02  0.9180E-02
     -3.835  0.5497E-02  0.9633E-02
     -3.752  0.3705E-02  0.9939E-02
     -3.670  0.9138E-02  0.1069E-01
     -3.587  0.1001E-01  0.1152E-01
     -3.505  0.8860E-02  0.1225E-01
     -3.422  0.4711E-02  0.1264E-01
     -3.340  0.1151E-01  0.1359E-01
     -3.257  0.1236E-01  0.1461E-01
     -3.174  0.8608E-02  0.1532E-01
     -3.092  0.7199E-02  0.1591E-01
     -3.009  0.1759E-01  0.1737E-01
     -2.927  0.1362E-01  0.1849E-01
     -2.844  0.7624E-02  0.1912E-01
     -2.762  0.9654E-02  0.1992E-01
     -2.679  0.2137E-01  0.2168E-01
     -2.597  0.1109E-01  0.2260E-01
     -2.514  0.1613E-01  0.2393E-01
     -2.432  0.1437E-01  0.2511E-01
     -2.349  0.6305E-02  0.2563E-01
     -2.267  0.1904E-01  0.2720E-01
     -2.184  0.1918E-01  0.2879E-01
     -2.102  0.1484E-01  0.3001E-01
     -2.019  0.2062E-01  0.3171E-01
     -1.936  0.2042E-01  0.3340E-01
     -1.854  0.2141E-01  0.3517E-01
     -1.771  0.3209E-01  0.3781E-01
     -1.689  0.2278E-01  0.3970E-01
     -1.606  0.2622E-01  0.4186E-01
     -1.524  0.3194E-01  0.4449E-01
     -1.441  0.1988E-01  0.4614E-01
     -1.359  0.1579E-01  0.4744E-01
     -1.276  0.1563E-01  0.4873E-01
     -1.194  0.1334E-01  0.4983E-01
     -1.111  0.1131E-01  0.5076E-01
     -1.029  0.8012E-02  0.5142E-01
     -0.946  0.9435E-02  0.5220E-01
     -0.863  0.1501E-01  0.5344E-01
     -0.781  0.1476E-01  0.5466E-01
     -0.698  0.9806E-02  0.5547E-01
     -0.616  0.4069E-02  0.5581E-01
     -0.533  0.8528E-02  0.5651E-01
     -0.451  0.8762E-02  0.5723E-01
     -0.368  0.7236E-02  0.5783E-01
     -0.286  0.2009E-02  0.5800E-01
     -0.203  0.1215E-02  0.5810E-01
     -0.121  0.5784E-02  0.5857E-01
     -0.038  0.4837E-02  0.5897E-01
      0.044  0.3358E-02  0.5925E-01
      0.127  0.1245E-02  0.5935E-01
      0.210  0.1671E-02  0.5949E-01
      0.292  0.2232E-02  0.5967E-01
      0.375  0.1790E-02  0.5982E-01
      0.457  0.1349E-02  0.5993E-01
      0.540  0.4335E-03  0.5997E-01
      0.622  0.3645E-03  0.6000E-01
      0.705  0.6335E-05  0.6000E-01
      0.787  0.8365E-09  0.6000E-01
      0.870  0.5857E-15  0.6000E-01
      0.952  0.4462E-15  0.6000E-01
      1.035  0.5577E-09  0.6000E-01
      1.117  0.3714E-05  0.6000E-01
      1.200  0.1974E-03  0.6002E-01
      1.283  0.7061E-03  0.6007E-01
      1.365  0.1580E-02  0.6021E-01
      1.448  0.2551E-02  0.6042E-01
      1.530  0.3584E-02  0.6071E-01
      1.613  0.5699E-02  0.6118E-01
      1.695  0.8625E-02  0.6189E-01
      1.778  0.1502E-01  0.6313E-01
      1.860  0.1437E-01  0.6432E-01
      1.943  0.1210E-01  0.6532E-01
      2.025  0.1137E-01  0.6626E-01
      2.108  0.2595E-01  0.6840E-01
      2.190  0.3069E-01  0.7093E-01
      2.273  0.2011E-01  0.7259E-01
      2.355  0.2254E-01  0.7445E-01
      2.438  0.2406E-01  0.7644E-01
      2.521  0.1969E-01  0.7806E-01
      2.603  0.2052E-01  0.7976E-01
      2.686  0.1731E-01  0.8118E-01
      2.768  0.1972E-01  0.8281E-01
      2.851  0.1637E-01  0.8416E-01
      2.933  0.2092E-01  0.8589E-01
      3.016  0.1294E-01  0.8696E-01
      3.098  0.2515E-01  0.8903E-01
      3.181  0.2493E-01  0.9109E-01
      3.263  0.2226E-01  0.9293E-01
      3.346  0.2092E-01  0.9466E-01
      3.428  0.1572E-01  0.9595E-01
      3.511  0.1462E-01  0.9716E-01
      3.594  0.2400E-01  0.9914E-01
      3.676  0.2196E-01  0.1010E+00
      3.759  0.1944E-01  0.1026E+00
      3.841  0.1964E-01  0.1042E+00
      3.924  0.1390E-01  0.1053E+00
      4.006  0.1641E-01  0.1067E+00
      4.089  0.1461E-01  0.1079E+00
      4.171  0.1328E-01  0.1090E+00
      4.254  0.2270E-01  0.1109E+00
      4.336  0.2778E-01  0.1131E+00
      4.419  0.2997E-01  0.1156E+00
      4.501  0.2769E-01  0.1179E+00
      4.584  0.2030E-01  0.1196E+00
      4.667  0.2122E-01  0.1213E+00
      4.749  0.1288E-01  0.1224E+00
      4.832  0.1403E-01  0.1236E+00
      4.914  0.1806E-01  0.1250E+00
      4.997  0.2181E-01  0.1268E+00
      5.079  0.2718E-01  0.1291E+00
      5.162  0.3397E-01  0.1319E+00
      5.244  0.2182E-01  0.1337E+00
      5.327  0.2382E-01  0.1357E+00
      5.409  0.2531E-01  0.1377E+00
      5.492  0.1776E-01  0.1392E+00
      5.574  0.2350E-01  0.1412E+00
      5.657  0.3032E-01  0.1437E+00
      5.740  0.2473E-01  0.1457E+00
      5.822  0.2668E-01  0.1479E+00
      5.905  0.2918E-01  0.1503E+00
      5.987  0.1853E-01  0.1518E+00
      6.070  0.1267E-01  0.1529E+00
      6.152  0.2115E-01  0.1546E+00
      6.235  0.2630E-01  0.1568E+00
      6.317  0.2748E-01  0.1591E+00
      6.400  0.1902E-01  0.1606E+00
      6.482  0.2540E-01  0.1627E+00
      6.565  0.4117E-01  0.1661E+00
      6.647  0.3609E-01  0.1691E+00
      6.730  0.1569E-01  0.1704E+00
      6.812  0.1636E-01  0.1718E+00
      6.895  0.2488E-01  0.1738E+00
      6.978  0.3241E-01  0.1765E+00
      7.060  0.2564E-01  0.1786E+00
      7.143  0.2994E-01  0.1811E+00
      7.225  0.2254E-01  0.1829E+00
      7.308  0.2408E-01  0.1849E+00
      7.390  0.3480E-01  0.1878E+00
      7.473  0.3010E-01  0.1903E+00
      7.555  0.3233E-01  0.1929E+00
      7.638  0.3228E-01  0.1956E+00
      7.720  0.2606E-01  0.1978E+00
      7.803  0.2845E-01  0.2001E+00
      7.885  0.2257E-01  0.2020E+00
      7.968  0.3706E-01  0.2050E+00
      8.051  0.3712E-01  0.2081E+00
      8.133  0.2933E-01  0.2105E+00
      8.216  0.1424E-01  0.2117E+00
      8.298  0.2563E-01  0.2138E+00
      8.381  0.2026E-01  0.2155E+00
      8.463  0.3796E-01  0.2186E+00
      8.546  0.3458E-01  0.2215E+00
      8.628  0.2932E-01  0.2239E+00
      8.711  0.3324E-01  0.2266E+00
      8.793  0.2957E-01  0.2291E+00
      8.876  0.2832E-01  0.2314E+00
      8.958  0.2280E-01  0.2333E+00
      9.041  0.1972E-01  0.2349E+00
      9.124  0.1839E-01  0.2364E+00
      9.206  0.1092E-01  0.2373E+00
      9.289  0.5952E-02  0.2378E+00
      9.371  0.5482E-02  0.2383E+00
      9.454  0.8980E-02  0.2390E+00
      9.536  0.5468E-02  0.2395E+00
      9.619  0.3044E-02  0.2397E+00
      9.701  0.3215E-02  0.2400E+00
      9.784  0.3815E-02  0.2403E+00
      9.866  0.3077E-02  0.2406E+00
      9.949  0.1906E-02  0.2407E+00
     10.031  0.7160E-03  0.2408E+00
     10.114  0.6172E-04  0.2408E+00
     10.197  0.9150E-03  0.2409E+00
     10.279  0.4816E-02  0.2413E+00
     10.362  0.2405E-02  0.2415E+00
     10.444  0.2881E-02  0.2417E+00
     10.527  0.3711E-02  0.2420E+00
     10.609  0.1753E-02  0.2421E+00
     10.692  0.1522E-02  0.2423E+00
     10.774  0.2218E-02  0.2424E+00
     10.857  0.6180E-02  0.2430E+00
     10.939  0.7511E-02  0.2436E+00
     11.022  0.4199E-02  0.2439E+00
     11.104  0.4320E-03  0.2440E+00
     11.187  0.8409E-03  0.2440E+00
     11.269  0.5312E-02  0.2445E+00
     11.352  0.6492E-02  0.2450E+00
     11.435  0.9952E-02  0.2458E+00
     11.517  0.8609E-02  0.2465E+00
     11.600  0.5430E-02  0.2470E+00
     11.682  0.4213E-02  0.2473E+00
     11.765  0.1006E-01  0.2482E+00
     11.847  0.1008E-01  0.2490E+00
     11.930  0.1369E-01  0.2501E+00
     12.012  0.1488E-01  0.2514E+00
     12.095  0.1216E-01  0.2524E+00
     12.177  0.1500E-01  0.2536E+00
     12.260  0.1083E-01  0.2545E+00
     12.342  0.2327E-01  0.2564E+00
     12.425  0.1526E-01  0.2577E+00
     12.508  0.1307E-01  0.2587E+00
     12.590  0.1692E-01  0.2601E+00
     12.673  0.1404E-01  0.2613E+00
     12.755  0.2371E-01  0.2633E+00
     12.838  0.1806E-01  0.2648E+00
     12.920  0.1695E-01  0.2661E+00
     13.003  0.2341E-01  0.2681E+00
     13.085  0.1854E-01  0.2696E+00
     13.168  0.2156E-01  0.2714E+00
     13.250  0.2402E-01  0.2734E+00
     13.333  0.1661E-01  0.2747E+00
     13.415  0.2115E-01  0.2765E+00
     13.498  0.2158E-01  0.2783E+00
     13.581  0.1971E-01  0.2799E+00
     13.663  0.2156E-01  0.2817E+00
     13.746  0.1526E-01  0.2829E+00
     13.828  0.2684E-01  0.2852E+00
     13.911  0.2286E-01  0.2870E+00
     13.993  0.2699E-01  0.2893E+00
     14.076  0.2237E-01  0.2911E+00
     14.158  0.2485E-01  0.2932E+00
     14.241  0.2687E-01  0.2954E+00
     14.323  0.2928E-01  0.2978E+00
     14.406  0.3073E-01  0.3003E+00
     14.488  0.2980E-01  0.3028E+00
     14.571  0.1841E-01  0.3043E+00
     14.654  0.2922E-01  0.3067E+00
     14.736  0.3603E-01  0.3097E+00
     14.819  0.2672E-01  0.3119E+00
     14.901  0.2509E-01  0.3140E+00
     14.984  0.2660E-01  0.3162E+00
     15.066  0.3073E-01  0.3187E+00
     15.149  0.3525E-01  0.3216E+00
     15.231  0.4042E-01  0.3250E+00
     15.314  0.3479E-01  0.3278E+00
     15.396  0.2275E-01  0.3297E+00
     15.479  0.2164E-01  0.3315E+00
     15.561  0.2701E-01  0.3337E+00
     15.644  0.2802E-01  0.3360E+00
     15.727  0.3300E-01  0.3388E+00
     15.809  0.2277E-01  0.3406E+00
     15.892  0.2242E-01  0.3425E+00
     15.974  0.2343E-01  0.3444E+00
     16.057  0.2326E-01  0.3463E+00
     16.139  0.2616E-01  0.3485E+00
     16.222  0.2302E-01  0.3504E+00
     16.304  0.2008E-01  0.3521E+00
     16.387  0.2337E-01  0.3540E+00
     16.469  0.2056E-01  0.3557E+00
     16.552  0.1588E-01  0.3570E+00
     16.634  0.1175E-01  0.3580E+00
     16.717  0.1215E-01  0.3590E+00
     16.799  0.5263E-02  0.3594E+00
     16.882  0.2988E-02  0.3596E+00
     16.965  0.1231E-02  0.3597E+00
     17.047  0.1380E-02  0.3599E+00
     17.130  0.1613E-02  0.3600E+00
     17.212  0.1118E-03  0.3600E+00
     17.295  0.1052E-06  0.3600E+00
     17.377  0.5923E-12  0.3600E+00
     17.460  0.0000E+00  0.3600E+00
     17.542  0.0000E+00  0.3600E+00
     17.625  0.0000E+00  0.3600E+00
     17.707  0.0000E+00  0.3600E+00
     17.790  0.0000E+00  0.3600E+00
     17.872  0.0000E+00  0.3600E+00
     17.955  0.0000E+00  0.3600E+00
     18.038  0.0000E+00  0.3600E+00
     18.120  0.0000E+00  0.3600E+00
     18.203  0.0000E+00  0.3600E+00
