       N       E                     dE             d eps       ncg     rms          rms(c)
DAV:   1    -0.836782116122E+02   -0.83678E+02   -0.42634E-02  5184   0.300E+00    0.137E-02
DAV:   2    -0.836782159116E+02   -0.42993E-05   -0.35103E-06  2916   0.116E-02
   1 F= -.75361135E+02 E0= -.75360915E+02  d E =-.753611E+02
       N       E                     dE             d eps       ncg     rms          rms(c)
DAV:   1    -0.846909688083E+02   -0.10128E+01   -0.93282E+00  6192   0.155E+01    0.327E+00
DAV:   2    -0.844308008274E+02    0.26017E+00   -0.73681E-01  6336   0.350E+00    0.130E+00
DAV:   3    -0.844183588059E+02    0.12442E-01   -0.69387E-02  6636   0.108E+00    0.452E-01
DAV:   4    -0.844149120013E+02    0.34468E-02   -0.59841E-03  6216   0.297E-01    0.169E-01
DAV:   5    -0.844142240318E+02    0.68797E-03   -0.13107E-03  6588   0.139E-01    0.822E-02
DAV:   6    -0.844141579854E+02    0.66046E-04   -0.13563E-04  6468   0.497E-02    0.456E-02
DAV:   7    -0.844141495815E+02    0.84040E-05   -0.39259E-05  5928   0.242E-02
   2 F= -.75365673E+02 E0= -.75365146E+02  d E =-.453828E-02
       N       E                     dE             d eps       ncg     rms          rms(c)
DAV:   1    -0.842777863391E+02    0.13637E+00   -0.24393E+00  6180   0.816E+00    0.166E+00
DAV:   2    -0.842118885897E+02    0.65898E-01   -0.18653E-01  6288   0.177E+00    0.660E-01
DAV:   3    -0.842085467770E+02    0.33418E-02   -0.14447E-02  6600   0.534E-01    0.242E-01
DAV:   4    -0.842077100608E+02    0.83672E-03   -0.10407E-03  6240   0.144E-01    0.824E-02
DAV:   5    -0.842075675152E+02    0.14255E-03   -0.11999E-04  6564   0.483E-02    0.456E-02
DAV:   6    -0.842075617057E+02    0.58094E-05   -0.83618E-06  4404   0.213E-02
   3 F= -.75532194E+02 E0= -.75531846E+02  d E =-.171059E+00
       N       E                     dE             d eps       ncg     rms          rms(c)
DAV:   1    -0.842054286898E+02    0.21388E-02   -0.85928E-05  6360   0.479E-02    0.920E-03
DAV:   2    -0.842054272293E+02    0.14605E-05   -0.58193E-06  3192   0.112E-02
   4 F= -.75532200E+02 E0= -.75531855E+02  d E =-.171066E+00
       N       E                     dE             d eps       ncg     rms          rms(c)
DAV:   1    -0.842151370879E+02   -0.97084E-02   -0.29253E-01  5184   0.275E+00    0.955E-02
DAV:   2    -0.842150152509E+02    0.12184E-03   -0.43557E-03  6852   0.318E-01    0.572E-02
DAV:   3    -0.842149152802E+02    0.99971E-04   -0.28954E-04  6576   0.913E-02    0.236E-02
DAV:   4    -0.842149170572E+02   -0.17770E-05   -0.91922E-05  6564   0.394E-02
   5 F= -.75535950E+02 E0= -.75535621E+02  d E =-.374971E-02
       N       E                     dE             d eps       ncg     rms          rms(c)
DAV:   1    -0.842188322911E+02   -0.39170E-02   -0.94626E-02  5184   0.156E+00    0.547E-02
DAV:   2    -0.842187960791E+02    0.36212E-04   -0.13998E-03  6852   0.180E-01    0.328E-02
DAV:   3    -0.842187643297E+02    0.31749E-04   -0.91742E-05  6552   0.516E-02    0.140E-02
DAV:   4    -0.842187649580E+02   -0.62829E-06   -0.29506E-05  5208   0.227E-02
   6 F= -.75536531E+02 E0= -.75536209E+02  d E =-.433007E-02
       N       E                     dE             d eps       ncg     rms          rms(c)
DAV:   1    -0.842209102159E+02   -0.21459E-02   -0.31814E-02  5184   0.905E-01    0.353E-02
DAV:   2    -0.842209186933E+02   -0.84773E-05   -0.53408E-04  6840   0.115E-01    0.221E-02
DAV:   3    -0.842209025126E+02    0.16181E-04   -0.46426E-05  6132   0.383E-02    0.807E-03
DAV:   4    -0.842209031426E+02   -0.63004E-06   -0.17088E-05  4380   0.188E-02
   7 F= -.75537236E+02 E0= -.75536924E+02  d E =-.705400E-03
       N       E                     dE             d eps       ncg     rms          rms(c)
DAV:   1    -0.842225501770E+02   -0.16477E-02   -0.30888E-02  5184   0.893E-01    0.350E-02
DAV:   2    -0.842225615810E+02   -0.11404E-04   -0.53665E-04  6852   0.115E-01    0.221E-02
DAV:   3    -0.842225460206E+02    0.15560E-04   -0.43819E-05  6120   0.375E-02    0.845E-03
DAV:   4    -0.842225465603E+02   -0.53968E-06   -0.16943E-05  4512   0.188E-02
   8 F= -.75537467E+02 E0= -.75537164E+02  d E =-.936288E-03
       N       E                     dE             d eps       ncg     rms          rms(c)
DAV:   1    -0.842225449480E+02    0.10726E-05   -0.80903E-03  5184   0.460E-01    0.214E-02
DAV:   2    -0.842225584726E+02   -0.13525E-04   -0.24474E-04  6828   0.737E-02    0.164E-02
DAV:   3    -0.842225545505E+02    0.39220E-05   -0.76670E-06  4140   0.170E-02
   9 F= -.75537666E+02 E0= -.75537369E+02  d E =-.199606E-03
       N       E                     dE             d eps       ncg     rms          rms(c)
DAV:   1    -0.842225625852E+02   -0.41126E-05   -0.24189E-05  4476   0.253E-02    0.295E-03
DAV:   2    -0.842225627540E+02   -0.16882E-06   -0.23920E-06  2724   0.750E-03
  10 F= -.75537667E+02 E0= -.75537368E+02  d E =-.200285E-03
       N       E                     dE             d eps       ncg     rms          rms(c)
DAV:   1    -0.842234542130E+02   -0.89163E-03   -0.78802E-03  5184   0.453E-01    0.160E-02
DAV:   2    -0.842234532019E+02    0.10111E-05   -0.15671E-04  6876   0.608E-02    0.109E-02
DAV:   3    -0.842234493649E+02    0.38371E-05   -0.11246E-05  4056   0.195E-02
  11 F= -.75537699E+02 E0= -.75537399E+02  d E =-.314824E-04
