Al4C3 Pbam polymorph (findsym-output) - 
   1.00000000000000     
     8.7708223928618168    0.0000000000000000    0.0000000000000000
     0.0000000000000000    5.0643486504994160    0.0000000000000000
     0.0000000000000000    0.0000000000000000    2.9999748311297236
   Al   C 
     8     6
Direct
  0.7855512994198938  0.1584315378784954 -0.0000000000000000
  0.2144487005801062  0.8415684621215047  0.0000000000000000
  0.7144487005801062  0.6584315378784953 -0.0000000000000000
  0.2855512994198939  0.3415684621215047  0.0000000000000000
  0.0283240574955364  0.2534800716192701  0.5000000000000000
  0.9716759665044656  0.7465199283807230  0.5000000000000000
  0.4716759365044631  0.7534800716192770  0.5000000000000000
  0.5283240334955344  0.2465199283807229  0.5000000000000000
  0.0000000000000000 -0.0000000000000000  0.0000000000000000
  0.5000000000000000  0.5000000000000000  0.0000000000000000
  0.8258433560255821  0.4500876654028961  0.5000000000000000
  0.1741566439744180  0.5499123345971040  0.5000000000000000
  0.6741566439744179  0.9500876654028960  0.5000000000000000
  0.3258433560255820  0.0499123345971039  0.5000000000000000
 
  0.00000000E+00  0.00000000E+00  0.00000000E+00
  0.00000000E+00  0.00000000E+00  0.00000000E+00
  0.00000000E+00  0.00000000E+00  0.00000000E+00
  0.00000000E+00  0.00000000E+00  0.00000000E+00
  0.00000000E+00  0.00000000E+00  0.00000000E+00
  0.00000000E+00  0.00000000E+00  0.00000000E+00
  0.00000000E+00  0.00000000E+00  0.00000000E+00
  0.00000000E+00  0.00000000E+00  0.00000000E+00
  0.00000000E+00  0.00000000E+00  0.00000000E+00
  0.00000000E+00  0.00000000E+00  0.00000000E+00
  0.00000000E+00  0.00000000E+00  0.00000000E+00
  0.00000000E+00  0.00000000E+00  0.00000000E+00
  0.00000000E+00  0.00000000E+00  0.00000000E+00
  0.00000000E+00  0.00000000E+00  0.00000000E+00
