Al4C3 Pbam - H(P) scan @ 10 GPa (ISIF=8)
           1
     8.770822    0.000000    0.000000
     0.000000    5.064349    0.000000
     0.000000    0.000000    2.999975
   Al   C 
     8     6
Direct configuration=     1
   0.78555130  0.15843154  0.00000000
   0.21444870  0.84156846  0.00000000
   0.71444870  0.65843154  0.00000000
   0.28555130  0.34156846  0.00000000
   0.02832406  0.25348007  0.50000000
   0.97167597  0.74651993  0.50000000
   0.47167594  0.75348007  0.50000000
   0.52832403  0.24651993  0.50000000
   0.00000000  0.00000000  0.00000000
   0.50000000  0.50000000  0.00000000
   0.82584336  0.45008767  0.50000000
   0.17415664  0.54991233  0.50000000
   0.67415664  0.95008767  0.50000000
   0.32584336  0.04991233  0.50000000
Al4C3 Pbam - H(P) scan @ 10 GPa (ISIF=8)
           1
     9.020733    0.000000    0.000000
     0.000000    5.208649    0.000000
     0.000000    0.000000    3.085454
   Al   C 
     8     6
Direct configuration=     2
   0.78555299  0.15845132 -0.00000000
   0.21444701  0.84154868  0.00000000
   0.71444701  0.65845132 -0.00000000
   0.28555299  0.34154868  0.00000000
   0.02833081  0.25347283  0.50000000
   0.97166921  0.74652717  0.50000000
   0.47166918  0.75347283  0.50000000
   0.52833079  0.24652717  0.50000000
  -0.00000000  0.00000000  0.00000000
   0.50000000  0.50000000  0.00000000
   0.82584021  0.45012844  0.50000000
   0.17415979  0.54987156  0.50000000
   0.67415979  0.95012844  0.50000000
   0.32584021  0.04987156  0.50000000
Al4C3 Pbam - H(P) scan @ 10 GPa (ISIF=8)
           1
     8.895000    0.000000    0.000000
     0.000000    5.136050    0.000000
     0.000000    0.000000    3.042449
   Al   C 
     8     6
Direct configuration=     3
   0.78555216  0.15844164 -0.00000000
   0.21444784  0.84155836  0.00000000
   0.71444784  0.65844164 -0.00000000
   0.28555216  0.34155836  0.00000000
   0.02832751  0.25347637  0.50000000
   0.97167252  0.74652363  0.50000000
   0.47167249  0.75347637  0.50000000
   0.52832748  0.24652363  0.50000000
  -0.00000000  0.00000000  0.00000000
   0.50000000  0.50000000  0.00000000
   0.82584175  0.45010849  0.50000000
   0.17415825  0.54989151  0.50000000
   0.67415825  0.95010849  0.50000000
   0.32584175  0.04989151  0.50000000
Al4C3 Pbam - H(P) scan @ 10 GPa (ISIF=8)
           1
     8.894269    0.000000    0.000000
     0.000000    5.135628    0.000000
     0.000000    0.000000    3.042198
   Al   C 
     8     6
Direct configuration=     4
   0.78555216  0.15844159 -0.00000000
   0.21444784  0.84155841  0.00000000
   0.71444784  0.65844159 -0.00000000
   0.28555216  0.34155841  0.00000000
   0.02832749  0.25347639  0.50000000
   0.97167254  0.74652361  0.50000000
   0.47167251  0.75347639  0.50000000
   0.52832746  0.24652361  0.50000000
  -0.00000000  0.00000000  0.00000000
   0.50000000  0.50000000  0.00000000
   0.82584176  0.45010838  0.50000000
   0.17415824  0.54989162  0.50000000
   0.67415824  0.95010838  0.50000000
   0.32584176  0.04989162  0.50000000
Al4C3 Pbam - H(P) scan @ 10 GPa (ISIF=8)
           1
     8.896230    0.000000    0.000000
     0.000000    5.136760    0.000000
     0.000000    0.000000    3.042869
   Al   C 
     8     6
Direct configuration=     5
   0.78580701  0.15788291 -0.00000000
   0.21419299  0.84211709  0.00000000
   0.71419299  0.65788291 -0.00000000
   0.28580701  0.34211709  0.00000000
   0.02788336  0.25358290  0.50000000
   0.97211666  0.74641710  0.50000000
   0.47211663  0.75358290  0.50000000
   0.52788334  0.24641710  0.50000000
  -0.00000000  0.00000000  0.00000000
   0.50000000  0.50000000  0.00000000
   0.82627816  0.45086588  0.50000000
   0.17372184  0.54913412  0.50000000
   0.67372184  0.95086588  0.50000000
   0.32627816  0.04913412  0.50000000
Al4C3 Pbam - H(P) scan @ 10 GPa (ISIF=8)
           1
     8.897347    0.000000    0.000000
     0.000000    5.137405    0.000000
     0.000000    0.000000    3.043251
   Al   C 
     8     6
Direct configuration=     6
   0.78595200  0.15756507 -0.00000000
   0.21404800  0.84243493  0.00000000
   0.71404800  0.65756507 -0.00000000
   0.28595200  0.34243493  0.00000000
   0.02763069  0.25364349  0.50000000
   0.97236933  0.74635651  0.50000000
   0.47236930  0.75364349  0.50000000
   0.52763067  0.24635651  0.50000000
  -0.00000000  0.00000000  0.00000000
   0.50000000  0.50000000  0.00000000
   0.82652644  0.45129685  0.50000000
   0.17347356  0.54870315  0.50000000
   0.67347356  0.95129685  0.50000000
   0.32652644  0.04870315  0.50000000
Al4C3 Pbam - H(P) scan @ 10 GPa (ISIF=8)
           1
     8.897836    0.000000    0.000000
     0.000000    5.137687    0.000000
     0.000000    0.000000    3.043419
   Al   C 
     8     6
Direct configuration=     7
   0.78572523  0.15723931  0.00000000
   0.21427477  0.84276069 -0.00000000
   0.71427477  0.65723931  0.00000000
   0.28572523  0.34276069 -0.00000000
   0.02743857  0.25377111  0.50000000
   0.97256146  0.74622889  0.50000000
   0.47256143  0.75377111  0.50000000
   0.52743854  0.24622889  0.50000000
  -0.00000000  0.00000000  0.00000000
   0.50000000  0.50000000  0.00000000
   0.82643986  0.45158791  0.50000000
   0.17356014  0.54841209  0.50000000
   0.67356014  0.95158791  0.50000000
   0.32643986  0.04841209  0.50000000
Al4C3 Pbam - H(P) scan @ 10 GPa (ISIF=8)
           1
     8.898318    0.000000    0.000000
     0.000000    5.137966    0.000000
     0.000000    0.000000    3.043584
   Al   C 
     8     6
Direct configuration=     8
   0.78550170  0.15691821  0.00000000
   0.21449830  0.84308179 -0.00000000
   0.71449830  0.65691821  0.00000000
   0.28550170  0.34308179 -0.00000000
   0.02724919  0.25389690  0.50000000
   0.97275083  0.74610310  0.50000000
   0.47275080  0.75389690  0.50000000
   0.52724917  0.24610310  0.50000000
  -0.00000000  0.00000000  0.00000000
   0.50000000  0.50000000  0.00000000
   0.82635453  0.45187481  0.50000000
   0.17364547  0.54812519  0.50000000
   0.67364547  0.95187481  0.50000000
   0.32635453  0.04812519  0.50000000
Al4C3 Pbam - H(P) scan @ 10 GPa (ISIF=8)
           1
     8.898253    0.000000    0.000000
     0.000000    5.137928    0.000000
     0.000000    0.000000    3.043561
   Al   C 
     8     6
Direct configuration=     9
   0.78534073  0.15677584  0.00000000
   0.21465927  0.84322416 -0.00000000
   0.71465927  0.65677584  0.00000000
   0.28534073  0.34322416 -0.00000000
   0.02699793  0.25369339  0.50000000
   0.97300209  0.74630661  0.50000000
   0.47300206  0.75369339  0.50000000
   0.52699791  0.24630661  0.50000000
  -0.00000000  0.00000000  0.00000000
   0.50000000  0.50000000  0.00000000
   0.82638238  0.45175812  0.50000000
   0.17361762  0.54824188  0.50000000
   0.67361762  0.95175812  0.50000000
   0.32638238  0.04824188  0.50000000
Al4C3 Pbam - H(P) scan @ 10 GPa (ISIF=8)
           1
     8.898255    0.000000    0.000000
     0.000000    5.137930    0.000000
     0.000000    0.000000    3.043562
   Al   C 
     8     6
Direct configuration=    10
   0.78534705  0.15678143  0.00000000
   0.21465295  0.84321857 -0.00000000
   0.71465295  0.65678143  0.00000000
   0.28534705  0.34321857 -0.00000000
   0.02700780  0.25370138  0.50000000
   0.97299223  0.74629862  0.50000000
   0.47299220  0.75370138  0.50000000
   0.52700777  0.24629862  0.50000000
  -0.00000000  0.00000000  0.00000000
   0.50000000  0.50000000  0.00000000
   0.82638128  0.45176270  0.50000000
   0.17361872  0.54823730  0.50000000
   0.67361872  0.95176270  0.50000000
   0.32638128  0.04823730  0.50000000
Al4C3 Pbam - H(P) scan @ 10 GPa (ISIF=8)
           1
     8.898548    0.000000    0.000000
     0.000000    5.138098    0.000000
     0.000000    0.000000    3.043662
   Al   C 
     8     6
Direct configuration=    11
   0.78525774  0.15677274  0.00000000
   0.21474226  0.84322726 -0.00000000
   0.71474226  0.65677274  0.00000000
   0.28525774  0.34322726 -0.00000000
   0.02696045  0.25379693  0.50000000
   0.97303958  0.74620307  0.50000000
   0.47303955  0.75379693  0.50000000
   0.52696042  0.24620307  0.50000000
  -0.00000000  0.00000000  0.00000000
   0.50000000  0.50000000  0.00000000
   0.82646418  0.45167056  0.50000000
   0.17353582  0.54832944  0.50000000
   0.67353582  0.95167056  0.50000000
   0.32646418  0.04832944  0.50000000
