Al4C3 Pnma (CIF findsym, P21/n21/m21/a) 
   1.00000000000000     
     9.1627798498167774    0.0000000000000000    0.0000000000000000
     0.0000000000000000    3.1482108688461650    0.0000000000000000
     0.0000000000000000    0.0000000000000000    9.6592526741610705
   Al   C 
    16    12
Direct
  0.2668440917111329  0.2500000000000000  0.2667509325310912
  0.7668440917111328  0.2500000000000000  0.2332490674689087
  0.7331559082888672  0.7500000000000000  0.7332490674689087
  0.2331559082888671  0.7500000000000000  0.7667509325310913
  0.4676311526200317  0.2500000000000000  0.8918013840618675
  0.9676311526200314  0.2500000000000000  0.6081986159381325
  0.5323688473799686  0.7500000000000000  0.1081986159381325
  0.0323688473799683  0.7500000000000000  0.3918013840618676
  0.5062120780485458  0.2500000000000000  0.6033594040086737
  0.0062120780485459  0.2500000000000000  0.8966405959913263
  0.4937879219514542  0.7500000000000000  0.3966405959913263
  0.9937879219514542  0.7500000000000000  0.1033594040086738
  0.2389722108168687  0.2500000000000000  0.5593155251070558
  0.7389722108168685  0.2500000000000000  0.9406844748929442
  0.7610277891831315  0.7500000000000000  0.4406844748929442
  0.2610277891831312  0.7500000000000000  0.0593155251070559
  0.3846923708293693  0.2500000000000000  0.4247418388895634
  0.8846923708293694  0.2500000000000000  0.0752581611104366
  0.6153076291706306  0.7500000000000000  0.5752581611104366
  0.1153076291706307  0.7500000000000000  0.9247418388895634
  0.3922947726853152  0.2500000000000000  0.0857645105649950
  0.8922947726853153  0.2500000000000000  0.4142354894350050
  0.6077052273146847  0.7500000000000000  0.9142354894350051
  0.1077052273146848  0.7500000000000000  0.5857645105649949
  0.3483551724600418  0.2500000000000000  0.7346739449783337
  0.8483551724600418  0.2500000000000000  0.7653260550216663
  0.6516448275399582  0.7500000000000000  0.2653260550216663
  0.1516448275399583  0.7500000000000000  0.2346739449783337
 
  0.00000000E+00  0.00000000E+00  0.00000000E+00
  0.00000000E+00  0.00000000E+00  0.00000000E+00
  0.00000000E+00  0.00000000E+00  0.00000000E+00
  0.00000000E+00  0.00000000E+00  0.00000000E+00
  0.00000000E+00  0.00000000E+00  0.00000000E+00
  0.00000000E+00  0.00000000E+00  0.00000000E+00
  0.00000000E+00  0.00000000E+00  0.00000000E+00
  0.00000000E+00  0.00000000E+00  0.00000000E+00
  0.00000000E+00  0.00000000E+00  0.00000000E+00
  0.00000000E+00  0.00000000E+00  0.00000000E+00
  0.00000000E+00  0.00000000E+00  0.00000000E+00
  0.00000000E+00  0.00000000E+00  0.00000000E+00
  0.00000000E+00  0.00000000E+00  0.00000000E+00
  0.00000000E+00  0.00000000E+00  0.00000000E+00
  0.00000000E+00  0.00000000E+00  0.00000000E+00
  0.00000000E+00  0.00000000E+00  0.00000000E+00
  0.00000000E+00  0.00000000E+00  0.00000000E+00
  0.00000000E+00  0.00000000E+00  0.00000000E+00
  0.00000000E+00  0.00000000E+00  0.00000000E+00
  0.00000000E+00  0.00000000E+00  0.00000000E+00
  0.00000000E+00  0.00000000E+00  0.00000000E+00
  0.00000000E+00  0.00000000E+00  0.00000000E+00
  0.00000000E+00  0.00000000E+00  0.00000000E+00
  0.00000000E+00  0.00000000E+00  0.00000000E+00
  0.00000000E+00  0.00000000E+00  0.00000000E+00
  0.00000000E+00  0.00000000E+00  0.00000000E+00
  0.00000000E+00  0.00000000E+00  0.00000000E+00
  0.00000000E+00  0.00000000E+00  0.00000000E+00
