  28  28   0   0
  0.1005874E+02  0.9195659E-09  0.3159508E-09  0.9693914E-09  0.5000000E-15
  1.000000000000000E-004
  CAR 
 Al4C3 Pnma-VII - r2SCAN H(P) scan @ 30 G
     18.06606365     -7.76341016  301      9.03112896      1.00000000
     -7.763  0.0000E+00  0.0000E+00
     -7.677  0.0000E+00  0.0000E+00
     -7.591  0.0000E+00  0.0000E+00
     -7.505  0.0000E+00  0.0000E+00
     -7.419  0.0000E+00  0.0000E+00
     -7.333  0.0000E+00  0.0000E+00
     -7.247  0.0000E+00  0.0000E+00
     -7.161  0.0000E+00  0.0000E+00
     -7.075  0.0000E+00  0.0000E+00
     -6.989  0.0000E+00  0.0000E+00
     -6.902  0.0000E+00  0.0000E+00
     -6.816  0.4942E-13  0.4255E-14
     -6.730  0.2450E-07  0.2110E-08
     -6.644  0.4419E-04  0.3807E-05
     -6.558  0.7929E-03  0.7207E-04
     -6.472  0.3282E-02  0.3546E-03
     -6.386  0.6207E-02  0.8890E-03
     -6.300  0.7439E-02  0.1529E-02
     -6.214  0.7645E-02  0.2188E-02
     -6.128  0.9055E-02  0.2967E-02
     -6.041  0.1370E-01  0.4147E-02
     -5.955  0.1299E-01  0.5266E-02
     -5.869  0.1086E-01  0.6201E-02
     -5.783  0.1050E-01  0.7105E-02
     -5.697  0.1336E-01  0.8255E-02
     -5.611  0.8101E-02  0.8953E-02
     -5.525  0.8505E-02  0.9685E-02
     -5.439  0.1691E-01  0.1114E-01
     -5.353  0.2047E-01  0.1290E-01
     -5.267  0.1519E-01  0.1421E-01
     -5.180  0.1147E-01  0.1520E-01
     -5.094  0.2200E-01  0.1709E-01
     -5.008  0.2549E-01  0.1929E-01
     -4.922  0.1866E-01  0.2089E-01
     -4.836  0.1378E-01  0.2208E-01
     -4.750  0.8608E-02  0.2282E-01
     -4.664  0.1749E-01  0.2433E-01
     -4.578  0.2000E-01  0.2605E-01
     -4.492  0.2386E-01  0.2810E-01
     -4.406  0.2017E-01  0.2984E-01
     -4.319  0.3001E-01  0.3242E-01
     -4.233  0.2234E-01  0.3435E-01
     -4.147  0.2821E-01  0.3678E-01
     -4.061  0.2837E-01  0.3922E-01
     -3.975  0.1733E-01  0.4071E-01
     -3.889  0.2164E-01  0.4258E-01
     -3.803  0.2627E-01  0.4484E-01
     -3.717  0.2228E-01  0.4676E-01
     -3.631  0.2449E-01  0.4886E-01
     -3.545  0.4798E-01  0.5299E-01
     -3.458  0.4711E-01  0.5705E-01
     -3.372  0.2581E-01  0.5927E-01
     -3.286  0.3076E-01  0.6192E-01
     -3.200  0.4600E-01  0.6588E-01
     -3.114  0.3827E-01  0.6918E-01
     -3.028  0.4786E-01  0.7330E-01
     -2.942  0.5241E-01  0.7781E-01
     -2.856  0.4762E-01  0.8191E-01
     -2.770  0.4004E-01  0.8536E-01
     -2.684  0.3099E-01  0.8803E-01
     -2.598  0.3934E-01  0.9141E-01
     -2.511  0.3565E-01  0.9448E-01
     -2.425  0.4405E-01  0.9828E-01
     -2.339  0.4872E-01  0.1025E+00
     -2.253  0.5931E-01  0.1076E+00
     -2.167  0.5559E-01  0.1124E+00
     -2.081  0.6063E-01  0.1176E+00
     -1.995  0.2740E-01  0.1199E+00
     -1.909  0.6666E-03  0.1200E+00
     -1.823  0.1431E-06  0.1200E+00
     -1.737  0.1299E-12  0.1200E+00
     -1.650  0.0000E+00  0.1200E+00
     -1.564  0.0000E+00  0.1200E+00
     -1.478  0.0000E+00  0.1200E+00
     -1.392  0.0000E+00  0.1200E+00
     -1.306  0.0000E+00  0.1200E+00
     -1.220  0.0000E+00  0.1200E+00
     -1.134  0.0000E+00  0.1200E+00
     -1.048  0.0000E+00  0.1200E+00
     -0.962  0.0000E+00  0.1200E+00
     -0.876  0.0000E+00  0.1200E+00
     -0.789  0.0000E+00  0.1200E+00
     -0.703  0.0000E+00  0.1200E+00
     -0.617  0.0000E+00  0.1200E+00
     -0.531  0.0000E+00  0.1200E+00
     -0.445  0.0000E+00  0.1200E+00
     -0.359  0.0000E+00  0.1200E+00
     -0.273  0.0000E+00  0.1200E+00
     -0.187  0.0000E+00  0.1200E+00
     -0.101  0.0000E+00  0.1200E+00
     -0.015  0.0000E+00  0.1200E+00
      0.072  0.0000E+00  0.1200E+00
      0.158  0.2176E-17  0.1200E+00
      0.244  0.3548E-10  0.1200E+00
      0.330  0.1854E-05  0.1200E+00
      0.416  0.4866E-03  0.1200E+00
      0.502  0.3109E-02  0.1203E+00
      0.588  0.3691E-02  0.1206E+00
      0.674  0.8846E-02  0.1214E+00
      0.760  0.1099E-01  0.1223E+00
      0.846  0.7817E-02  0.1230E+00
      0.933  0.2015E-01  0.1247E+00
      1.019  0.2874E-01  0.1272E+00
      1.105  0.1836E-01  0.1288E+00
      1.191  0.1676E-01  0.1302E+00
      1.277  0.1574E-01  0.1316E+00
      1.363  0.2315E-01  0.1336E+00
      1.449  0.3025E-01  0.1362E+00
      1.535  0.2832E-01  0.1386E+00
      1.621  0.2988E-01  0.1412E+00
      1.707  0.2223E-01  0.1431E+00
      1.793  0.2729E-01  0.1455E+00
      1.880  0.2016E-01  0.1472E+00
      1.966  0.2728E-01  0.1496E+00
      2.052  0.2699E-01  0.1519E+00
      2.138  0.2847E-01  0.1543E+00
      2.224  0.2347E-01  0.1563E+00
      2.310  0.3160E-01  0.1591E+00
      2.396  0.5031E-01  0.1634E+00
      2.482  0.5933E-01  0.1685E+00
      2.568  0.5812E-01  0.1735E+00
      2.654  0.5075E-01  0.1779E+00
      2.741  0.4812E-01  0.1820E+00
      2.827  0.3187E-01  0.1848E+00
      2.913  0.5568E-01  0.1896E+00
      2.999  0.6205E-01  0.1949E+00
      3.085  0.4746E-01  0.1990E+00
      3.171  0.3651E-01  0.2021E+00
      3.257  0.3685E-01  0.2053E+00
      3.343  0.3747E-01  0.2085E+00
      3.429  0.4036E-01  0.2120E+00
      3.515  0.3992E-01  0.2154E+00
      3.602  0.2620E-01  0.2177E+00
      3.688  0.3626E-01  0.2208E+00
      3.774  0.3623E-01  0.2239E+00
      3.860  0.4802E-01  0.2281E+00
      3.946  0.3650E-01  0.2312E+00
      4.032  0.2637E-01  0.2335E+00
      4.118  0.4263E-01  0.2372E+00
      4.204  0.3000E-01  0.2397E+00
      4.290  0.4461E-01  0.2436E+00
      4.376  0.6407E-01  0.2491E+00
      4.463  0.3976E-01  0.2525E+00
      4.549  0.3126E-01  0.2552E+00
      4.635  0.3931E-01  0.2586E+00
      4.721  0.4978E-01  0.2629E+00
      4.807  0.6402E-01  0.2684E+00
      4.893  0.4607E-01  0.2724E+00
      4.979  0.4174E-01  0.2760E+00
      5.065  0.4092E-01  0.2795E+00
      5.151  0.4648E-01  0.2835E+00
      5.237  0.5362E-01  0.2881E+00
      5.324  0.4083E-01  0.2916E+00
      5.410  0.5232E-01  0.2961E+00
      5.496  0.5006E-01  0.3004E+00
      5.582  0.5348E-01  0.3050E+00
      5.668  0.5552E-01  0.3098E+00
      5.754  0.5726E-01  0.3147E+00
      5.840  0.5428E-01  0.3194E+00
      5.926  0.5488E-01  0.3241E+00
      6.012  0.6031E-01  0.3293E+00
      6.098  0.6389E-01  0.3348E+00
      6.185  0.8710E-01  0.3423E+00
      6.271  0.5309E-01  0.3469E+00
      6.357  0.7347E-01  0.3532E+00
      6.443  0.4726E-01  0.3573E+00
      6.529  0.6790E-01  0.3631E+00
      6.615  0.7589E-01  0.3697E+00
      6.701  0.8470E-01  0.3770E+00
      6.787  0.6568E-01  0.3826E+00
      6.873  0.7025E-01  0.3887E+00
      6.959  0.8198E-01  0.3957E+00
      7.045  0.4903E-01  0.4000E+00
      7.132  0.3993E-01  0.4034E+00
      7.218  0.7795E-01  0.4101E+00
      7.304  0.7814E-01  0.4168E+00
      7.390  0.6742E-01  0.4226E+00
      7.476  0.8572E-01  0.4300E+00
      7.562  0.6310E-01  0.4355E+00
      7.648  0.5027E-01  0.4398E+00
      7.734  0.4872E-01  0.4440E+00
      7.820  0.6849E-01  0.4499E+00
      7.906  0.6251E-01  0.4553E+00
      7.993  0.5760E-01  0.4602E+00
      8.079  0.4439E-01  0.4640E+00
      8.165  0.3652E-01  0.4672E+00
      8.251  0.3747E-01  0.4704E+00
      8.337  0.3651E-01  0.4735E+00
      8.423  0.3838E-01  0.4769E+00
      8.509  0.1229E-01  0.4779E+00
      8.595  0.1498E-02  0.4780E+00
      8.681  0.9507E-02  0.4789E+00
      8.767  0.1165E-01  0.4799E+00
      8.854  0.1595E-02  0.4800E+00
      8.940  0.4381E-05  0.4800E+00
      9.026  0.8068E-10  0.4800E+00
      9.112  0.5964E-17  0.4800E+00
      9.198  0.0000E+00  0.4800E+00
      9.284  0.2946E-16  0.4800E+00
      9.370  0.2173E-09  0.4800E+00
      9.456  0.5207E-05  0.4800E+00
      9.542  0.5762E-03  0.4801E+00
      9.628  0.1040E-02  0.4801E+00
      9.715  0.5343E-03  0.4802E+00
      9.801  0.6164E-03  0.4802E+00
      9.887  0.2721E-02  0.4805E+00
      9.973  0.2145E-02  0.4807E+00
     10.059  0.6654E-02  0.4812E+00
     10.145  0.2820E-02  0.4815E+00
     10.231  0.7113E-02  0.4821E+00
     10.317  0.6781E-02  0.4827E+00
     10.403  0.6526E-02  0.4832E+00
     10.489  0.4874E-02  0.4837E+00
     10.576  0.3472E-02  0.4839E+00
     10.662  0.9455E-02  0.4848E+00
     10.748  0.9950E-02  0.4856E+00
     10.834  0.1011E-01  0.4865E+00
     10.920  0.4389E-02  0.4869E+00
     11.006  0.9011E-02  0.4876E+00
     11.092  0.1507E-01  0.4889E+00
     11.178  0.1795E-01  0.4905E+00
     11.264  0.1670E-01  0.4919E+00
     11.350  0.1354E-01  0.4931E+00
     11.436  0.1109E-01  0.4940E+00
     11.523  0.1377E-01  0.4952E+00
     11.609  0.1798E-01  0.4968E+00
     11.695  0.2196E-01  0.4987E+00
     11.781  0.1955E-01  0.5004E+00
     11.867  0.9110E-02  0.5011E+00
     11.953  0.9040E-02  0.5019E+00
     12.039  0.1831E-01  0.5035E+00
     12.125  0.1939E-01  0.5052E+00
     12.211  0.1603E-01  0.5065E+00
     12.297  0.2010E-01  0.5083E+00
     12.384  0.2721E-01  0.5106E+00
     12.470  0.2890E-01  0.5131E+00
     12.556  0.2792E-01  0.5155E+00
     12.642  0.2699E-01  0.5178E+00
     12.728  0.2742E-01  0.5202E+00
     12.814  0.3450E-01  0.5232E+00
     12.900  0.3066E-01  0.5258E+00
     12.986  0.2536E-01  0.5280E+00
     13.072  0.3357E-01  0.5309E+00
     13.158  0.3610E-01  0.5340E+00
     13.245  0.2703E-01  0.5363E+00
     13.331  0.2950E-01  0.5389E+00
     13.417  0.1871E-01  0.5405E+00
     13.503  0.2100E-01  0.5423E+00
     13.589  0.3689E-01  0.5454E+00
     13.675  0.3648E-01  0.5486E+00
     13.761  0.3122E-01  0.5513E+00
     13.847  0.3868E-01  0.5546E+00
     13.933  0.4330E-01  0.5583E+00
     14.019  0.1891E-01  0.5600E+00
     14.106  0.2035E-01  0.5617E+00
     14.192  0.2595E-01  0.5639E+00
     14.278  0.2620E-01  0.5662E+00
     14.364  0.3837E-01  0.5695E+00
     14.450  0.3229E-01  0.5723E+00
     14.536  0.2925E-01  0.5748E+00
     14.622  0.3536E-01  0.5778E+00
     14.708  0.3865E-01  0.5812E+00
     14.794  0.5176E-01  0.5856E+00
     14.880  0.4729E-01  0.5897E+00
     14.967  0.4060E-01  0.5932E+00
     15.053  0.1993E-01  0.5949E+00
     15.139  0.3941E-01  0.5983E+00
     15.225  0.3599E-01  0.6014E+00
     15.311  0.4531E-01  0.6053E+00
     15.397  0.4061E-01  0.6088E+00
     15.483  0.3796E-01  0.6121E+00
     15.569  0.2805E-01  0.6145E+00
     15.655  0.3721E-01  0.6177E+00
     15.741  0.5076E-01  0.6221E+00
     15.828  0.4662E-01  0.6261E+00
     15.914  0.5120E-01  0.6305E+00
     16.000  0.5151E-01  0.6349E+00
     16.086  0.4477E-01  0.6388E+00
     16.172  0.4853E-01  0.6430E+00
     16.258  0.4031E-01  0.6464E+00
     16.344  0.3152E-01  0.6491E+00
     16.430  0.3433E-01  0.6521E+00
     16.516  0.3251E-01  0.6549E+00
     16.602  0.2581E-01  0.6571E+00
     16.688  0.1840E-01  0.6587E+00
     16.775  0.7336E-02  0.6593E+00
     16.861  0.3646E-02  0.6596E+00
     16.947  0.3933E-02  0.6600E+00
     17.033  0.2062E-03  0.6600E+00
     17.119  0.1010E-06  0.6600E+00
     17.205  0.1986E-12  0.6600E+00
     17.291  0.0000E+00  0.6600E+00
     17.377  0.0000E+00  0.6600E+00
     17.463  0.0000E+00  0.6600E+00
     17.549  0.0000E+00  0.6600E+00
     17.636  0.0000E+00  0.6600E+00
     17.722  0.0000E+00  0.6600E+00
     17.808  0.0000E+00  0.6600E+00
     17.894  0.0000E+00  0.6600E+00
     17.980  0.0000E+00  0.6600E+00
     18.066  0.0000E+00  0.6600E+00
