       N       E                     dE             d eps       ncg     rms          rms(c)
DAV:   1    -0.246479027517E+03   -0.24648E+03   -0.90788E+00  7818   0.127E+01    0.727E+00
DAV:   2    -0.230514096369E+03    0.15965E+02   -0.17598E+00  7656   0.639E+00    0.625E+00
DAV:   3    -0.230894450489E+03   -0.38035E+00   -0.22852E-01  8604   0.221E+00    0.515E+00
DAV:   4    -0.230934414174E+03   -0.39964E-01   -0.20492E-01  8490   0.144E+00    0.612E-01
DAV:   5    -0.230929011675E+03    0.54025E-02   -0.27266E-02  8220   0.520E-01    0.433E-01
DAV:   6    -0.230929111282E+03   -0.99607E-04   -0.49355E-03  8268   0.235E-01    0.123E-01
DAV:   7    -0.230929081267E+03    0.30015E-04   -0.27157E-04  8370   0.603E-02    0.812E-02
DAV:   8    -0.230929079108E+03    0.21590E-05   -0.14380E-04  8580   0.463E-02    0.442E-02
DAV:   9    -0.230929059263E+03    0.19845E-04   -0.30678E-05  6540   0.238E-02    0.922E-03
DAV:  10    -0.230929059811E+03   -0.54843E-06   -0.14207E-06  4302   0.643E-03
   1 F= -.17819246E+03 E0= -.17819246E+03  d E =-.178192E+03
       N       E                     dE             d eps       ncg     rms          rms(c)
DAV:   1    -0.229442728354E+03    0.14863E+01   -0.22599E+00  7968   0.628E+00    0.153E+00
DAV:   2    -0.229407897868E+03    0.34830E-01   -0.15426E-01  8478   0.129E+00    0.792E-01
DAV:   3    -0.229406417170E+03    0.14807E-02   -0.26261E-02  8334   0.478E-01    0.275E-01
DAV:   4    -0.229406631580E+03   -0.21441E-03   -0.85221E-04  8484   0.124E-01    0.141E-01
DAV:   5    -0.229406656798E+03   -0.25218E-04   -0.20122E-04  8406   0.593E-02    0.110E-01
DAV:   6    -0.229406658426E+03   -0.16285E-05   -0.11939E-04  7974   0.405E-02    0.285E-02
DAV:   7    -0.229406661130E+03   -0.27038E-05   -0.20621E-05  4404   0.146E-02
   2 F= -.17814927E+03 E0= -.17814927E+03  d E =0.431908E-01
       N       E                     dE             d eps       ncg     rms          rms(c)
DAV:   1    -0.230379276749E+03   -0.97262E+00   -0.80107E-01  7950   0.369E+00    0.923E-01
DAV:   2    -0.230368171953E+03    0.11105E-01   -0.55570E-02  8526   0.768E-01    0.473E-01
DAV:   3    -0.230367981027E+03    0.19093E-03   -0.95008E-03  8280   0.285E-01    0.163E-01
DAV:   4    -0.230368114107E+03   -0.13308E-03   -0.30837E-04  8472   0.744E-02    0.840E-02
DAV:   5    -0.230368140589E+03   -0.26482E-04   -0.77951E-05  8274   0.364E-02    0.654E-02
DAV:   6    -0.230368149996E+03   -0.94065E-05   -0.45344E-05  7632   0.245E-02
   3 F= -.17822663E+03 E0= -.17822663E+03  d E =-.341689E-01
       N       E                     dE             d eps       ncg     rms          rms(c)
DAV:   1    -0.230356552617E+03    0.11588E-01   -0.10766E-04  7974   0.458E-02    0.168E-02
DAV:   2    -0.230356543010E+03    0.96074E-05   -0.10834E-05  4188   0.107E-02
   4 F= -.17822661E+03 E0= -.17822661E+03  d E =-.341536E-01
       N       E                     dE             d eps       ncg     rms          rms(c)
DAV:   1    -0.230359136173E+03   -0.25836E-02   -0.17313E-05  4080   0.159E-02    0.264E-03
DAV:   2    -0.230359136293E+03   -0.11988E-06   -0.14706E-06  3978   0.477E-03
   5 F= -.17822661E+03 E0= -.17822661E+03  d E =-.341510E-01
       N       E                     dE             d eps       ncg     rms          rms(c)
DAV:   1    -0.230386782425E+03   -0.27646E-01   -0.86948E-02  7176   0.124E+00    0.546E-02
DAV:   2    -0.230386828756E+03   -0.46331E-04   -0.13410E-03  8844   0.138E-01    0.375E-02
DAV:   3    -0.230386807649E+03    0.21107E-04   -0.49697E-05  8508   0.286E-02    0.254E-02
DAV:   4    -0.230386791047E+03    0.16602E-04   -0.21688E-05  5364   0.187E-02    0.108E-02
DAV:   5    -0.230386785725E+03    0.53218E-05   -0.87030E-06  4446   0.102E-02
   6 F= -.17822857E+03 E0= -.17822857E+03  d E =-.196019E-02
       N       E                     dE             d eps       ncg     rms          rms(c)
DAV:   1    -0.230394872135E+03   -0.80811E-02   -0.83801E-03  7290   0.384E-01    0.173E-02
DAV:   2    -0.230394874382E+03   -0.22465E-05   -0.12963E-04  8856   0.429E-02    0.117E-02
DAV:   3    -0.230394870495E+03    0.38869E-05   -0.40750E-06  4512   0.894E-03
   7 F= -.17822868E+03 E0= -.17822868E+03  d E =-.207310E-02
       N       E                     dE             d eps       ncg     rms          rms(c)
DAV:   1    -0.230405926338E+03   -0.11052E-01   -0.26517E-02  7182   0.672E-01    0.321E-02
DAV:   2    -0.230405946408E+03   -0.20070E-04   -0.46850E-04  8676   0.811E-02    0.233E-02
DAV:   3    -0.230405939083E+03    0.73255E-05   -0.17804E-05  5574   0.194E-02
   8 F= -.17822904E+03 E0= -.17822904E+03  d E =-.356694E-03
       N       E                     dE             d eps       ncg     rms          rms(c)
DAV:   1    -0.230413497530E+03   -0.75511E-02   -0.12677E-02  7296   0.466E-01    0.240E-02
DAV:   2    -0.230413507554E+03   -0.10024E-04   -0.18803E-04  8700   0.521E-02    0.166E-02
DAV:   3    -0.230413507052E+03    0.50171E-06   -0.89991E-06  4800   0.133E-02
   9 F= -.17822911E+03 E0= -.17822911E+03  d E =-.427286E-03
       N       E                     dE             d eps       ncg     rms          rms(c)
DAV:   1    -0.230405517378E+03    0.79902E-02   -0.12651E-02  7188   0.466E-01    0.207E-02
DAV:   2    -0.230405515363E+03    0.20152E-05   -0.14006E-04  8820   0.464E-02    0.146E-02
DAV:   3    -0.230405511308E+03    0.40554E-05   -0.82007E-06  4788   0.122E-02
  10 F= -.17822930E+03 E0= -.17822930E+03  d E =-.185778E-03
       N       E                     dE             d eps       ncg     rms          rms(c)
DAV:   1    -0.230401432203E+03    0.40832E-02   -0.30883E-03  7356   0.231E-01    0.105E-02
DAV:   2    -0.230401430088E+03    0.21143E-05   -0.26458E-05  7164   0.216E-02
  11 F= -.17822931E+03 E0= -.17822931E+03  d E =-.203174E-03
       N       E                     dE             d eps       ncg     rms          rms(c)
DAV:   1    -0.230402295077E+03   -0.86287E-03   -0.27648E-03  7266   0.208E-01    0.115E-02
DAV:   2    -0.230402295893E+03   -0.81599E-06   -0.56917E-05  8430   0.285E-02
  12 F= -.17822936E+03 E0= -.17822936E+03  d E =-.477806E-04
