Al4C3 Pnma (CIF findsym, P21/n21/m21/a) 
   1.00000000000000     
     9.1956593570540246    0.0000000000000000    0.0000000000000000
     0.0000000000000000    3.1595078358958184    0.0000000000000000
     0.0000000000000000    0.0000000000000000    9.6939137129955721
   Al   C 
    16    12
Direct
  0.2669981779197083  0.2500000000000000  0.2666689284762125
  0.7669981779197084  0.2500000000000000  0.2333310715237874
  0.7330018220802916  0.7500000000000000  0.7333310715237874
  0.2330018220802917  0.7500000000000000  0.7666689284762126
  0.4668895987360300  0.2500000000000000  0.8916154194787852
  0.9668895987360299  0.2500000000000000  0.6083845805212148
  0.5331104012639701  0.7500000000000000  0.1083845805212148
  0.0331104012639700  0.7500000000000000  0.3916154194787854
  0.5064636006624708  0.2500000000000000  0.6040274470035795
  0.0064636006624707  0.2500000000000000  0.8959725529964205
  0.4935363993375294  0.7500000000000000  0.3959725529964204
  0.9935363993375292  0.7500000000000000  0.1040274470035797
  0.2382904565574216  0.2500000000000000  0.5586474452145118
  0.7382904565574216  0.2500000000000000  0.9413525547854882
  0.7617095434425784  0.7500000000000000  0.4413525547854881
  0.2617095434425785  0.7500000000000000  0.0586474452145119
  0.3846980220925919  0.2500000000000000  0.4247655346008134
  0.8846980220925921  0.2500000000000000  0.0752344653991868
  0.6153019779074079  0.7500000000000000  0.5752344653991869
  0.1153019779074080  0.7500000000000000  0.9247655346008131
  0.3929895107176397  0.2500000000000000  0.0863080214642438
  0.8929895107176397  0.2500000000000000  0.4136919785357563
  0.6070104892823603  0.7500000000000000  0.9136919785357561
  0.1070104892823604  0.7500000000000000  0.5863080214642439
  0.3479826698883546  0.2500000000000000  0.7343583122420688
  0.8479826698883547  0.2500000000000000  0.7656416877579312
  0.6520173301116453  0.7500000000000000  0.2656416877579313
  0.1520173301116454  0.7500000000000000  0.2343583122420687
 
  0.00000000E+00  0.00000000E+00  0.00000000E+00
  0.00000000E+00  0.00000000E+00  0.00000000E+00
  0.00000000E+00  0.00000000E+00  0.00000000E+00
  0.00000000E+00  0.00000000E+00  0.00000000E+00
  0.00000000E+00  0.00000000E+00  0.00000000E+00
  0.00000000E+00  0.00000000E+00  0.00000000E+00
  0.00000000E+00  0.00000000E+00  0.00000000E+00
  0.00000000E+00  0.00000000E+00  0.00000000E+00
  0.00000000E+00  0.00000000E+00  0.00000000E+00
  0.00000000E+00  0.00000000E+00  0.00000000E+00
  0.00000000E+00  0.00000000E+00  0.00000000E+00
  0.00000000E+00  0.00000000E+00  0.00000000E+00
  0.00000000E+00  0.00000000E+00  0.00000000E+00
  0.00000000E+00  0.00000000E+00  0.00000000E+00
  0.00000000E+00  0.00000000E+00  0.00000000E+00
  0.00000000E+00  0.00000000E+00  0.00000000E+00
  0.00000000E+00  0.00000000E+00  0.00000000E+00
  0.00000000E+00  0.00000000E+00  0.00000000E+00
  0.00000000E+00  0.00000000E+00  0.00000000E+00
  0.00000000E+00  0.00000000E+00  0.00000000E+00
  0.00000000E+00  0.00000000E+00  0.00000000E+00
  0.00000000E+00  0.00000000E+00  0.00000000E+00
  0.00000000E+00  0.00000000E+00  0.00000000E+00
  0.00000000E+00  0.00000000E+00  0.00000000E+00
  0.00000000E+00  0.00000000E+00  0.00000000E+00
  0.00000000E+00  0.00000000E+00  0.00000000E+00
  0.00000000E+00  0.00000000E+00  0.00000000E+00
  0.00000000E+00  0.00000000E+00  0.00000000E+00
