  28  28   0   0
  0.7737201E+01  0.8083924E-09  0.2788807E-09  0.9609510E-09  0.5000000E-15
  1.000000000000000E-004
  CAR 
 Al4C3 Pnma - H(P) scan @ 90 GPa (ISIF=8)
     22.54325658     -5.40309865  301     13.51891270      1.00000000
     -5.403  0.0000E+00  0.0000E+00
     -5.310  0.0000E+00  0.0000E+00
     -5.217  0.0000E+00  0.0000E+00
     -5.124  0.0000E+00  0.0000E+00
     -5.030  0.0000E+00  0.0000E+00
     -4.937  0.0000E+00  0.0000E+00
     -4.844  0.0000E+00  0.0000E+00
     -4.751  0.0000E+00  0.0000E+00
     -4.658  0.0000E+00  0.0000E+00
     -4.565  0.0000E+00  0.0000E+00
     -4.472  0.0000E+00  0.0000E+00
     -4.378  0.1048E-14  0.9765E-16
     -4.285  0.4533E-08  0.4223E-09
     -4.192  0.2618E-04  0.2439E-05
     -4.099  0.5229E-03  0.5115E-04
     -4.006  0.2283E-02  0.2638E-03
     -3.913  0.4449E-02  0.6782E-03
     -3.819  0.4871E-02  0.1132E-02
     -3.726  0.4127E-02  0.1516E-02
     -3.633  0.5153E-02  0.1996E-02
     -3.540  0.8986E-02  0.2834E-02
     -3.447  0.1014E-01  0.3778E-02
     -3.354  0.6074E-02  0.4344E-02
     -3.261  0.4962E-02  0.4807E-02
     -3.167  0.1113E-01  0.5843E-02
     -3.074  0.1135E-01  0.6900E-02
     -2.981  0.6158E-02  0.7474E-02
     -2.888  0.1049E-01  0.8451E-02
     -2.795  0.1278E-01  0.9642E-02
     -2.702  0.1408E-01  0.1095E-01
     -2.608  0.1009E-01  0.1189E-01
     -2.515  0.1338E-01  0.1314E-01
     -2.422  0.8407E-02  0.1392E-01
     -2.329  0.9836E-02  0.1484E-01
     -2.236  0.1478E-01  0.1622E-01
     -2.143  0.1941E-01  0.1802E-01
     -2.050  0.1039E-01  0.1899E-01
     -1.956  0.9153E-02  0.1984E-01
     -1.863  0.1714E-01  0.2144E-01
     -1.770  0.2320E-01  0.2360E-01
     -1.677  0.1609E-01  0.2510E-01
     -1.584  0.1078E-01  0.2611E-01
     -1.491  0.1631E-01  0.2763E-01
     -1.397  0.1682E-01  0.2919E-01
     -1.304  0.1131E-01  0.3025E-01
     -1.211  0.1471E-01  0.3162E-01
     -1.118  0.1949E-01  0.3343E-01
     -1.025  0.2145E-01  0.3543E-01
     -0.932  0.2642E-01  0.3789E-01
     -0.839  0.2164E-01  0.3991E-01
     -0.745  0.1474E-01  0.4128E-01
     -0.652  0.2237E-01  0.4336E-01
     -0.559  0.2624E-01  0.4581E-01
     -0.466  0.1562E-01  0.4726E-01
     -0.373  0.9773E-02  0.4817E-01
     -0.280  0.2121E-01  0.5015E-01
     -0.186  0.2425E-01  0.5241E-01
     -0.093  0.2907E-01  0.5512E-01
     -0.000  0.3637E-01  0.5851E-01
      0.093  0.2401E-01  0.6074E-01
      0.186  0.2069E-01  0.6267E-01
      0.279  0.2508E-01  0.6501E-01
      0.372  0.2688E-01  0.6751E-01
      0.466  0.3208E-01  0.7050E-01
      0.559  0.3601E-01  0.7385E-01
      0.652  0.3592E-01  0.7720E-01
      0.745  0.4033E-01  0.8096E-01
      0.838  0.3311E-01  0.8404E-01
      0.931  0.4044E-01  0.8781E-01
      1.025  0.3280E-01  0.9086E-01
      1.118  0.3591E-01  0.9421E-01
      1.211  0.3756E-01  0.9771E-01
      1.304  0.2717E-01  0.1002E+00
      1.397  0.1756E-01  0.1019E+00
      1.490  0.1636E-01  0.1034E+00
      1.583  0.1861E-01  0.1051E+00
      1.677  0.2621E-01  0.1076E+00
      1.770  0.1150E-01  0.1086E+00
      1.863  0.1373E-01  0.1099E+00
      1.956  0.1322E-01  0.1112E+00
      2.049  0.1857E-01  0.1129E+00
      2.142  0.1006E-01  0.1138E+00
      2.236  0.8389E-02  0.1146E+00
      2.329  0.1050E-01  0.1156E+00
      2.422  0.1070E-01  0.1166E+00
      2.515  0.8974E-02  0.1174E+00
      2.608  0.7465E-02  0.1181E+00
      2.701  0.7482E-02  0.1188E+00
      2.794  0.8135E-02  0.1196E+00
      2.888  0.2909E-02  0.1198E+00
      2.981  0.1715E-02  0.1200E+00
      3.074  0.2152E-04  0.1200E+00
      3.167  0.5081E-04  0.1200E+00
      3.260  0.1499E-02  0.1201E+00
      3.353  0.3183E-02  0.1204E+00
      3.447  0.3977E-02  0.1208E+00
      3.540  0.2501E-02  0.1210E+00
      3.633  0.6408E-02  0.1216E+00
      3.726  0.1029E-01  0.1226E+00
      3.819  0.1212E-01  0.1237E+00
      3.912  0.1730E-01  0.1253E+00
      4.006  0.1905E-01  0.1271E+00
      4.099  0.3565E-01  0.1304E+00
      4.192  0.2638E-01  0.1329E+00
      4.285  0.3113E-01  0.1358E+00
      4.378  0.2748E-01  0.1384E+00
      4.471  0.2312E-01  0.1405E+00
      4.564  0.2613E-01  0.1429E+00
      4.658  0.3896E-01  0.1466E+00
      4.751  0.4688E-01  0.1509E+00
      4.844  0.2707E-01  0.1535E+00
      4.937  0.3061E-01  0.1563E+00
      5.030  0.4580E-01  0.1606E+00
      5.123  0.4010E-01  0.1643E+00
      5.217  0.3166E-01  0.1673E+00
      5.310  0.3674E-01  0.1707E+00
      5.403  0.3123E-01  0.1736E+00
      5.496  0.3080E-01  0.1765E+00
      5.589  0.3381E-01  0.1796E+00
      5.682  0.2987E-01  0.1824E+00
      5.775  0.3736E-01  0.1859E+00
      5.869  0.3139E-01  0.1888E+00
      5.962  0.2397E-01  0.1910E+00
      6.055  0.2582E-01  0.1934E+00
      6.148  0.3202E-01  0.1964E+00
      6.241  0.3955E-01  0.2001E+00
      6.334  0.3438E-01  0.2033E+00
      6.428  0.3427E-01  0.2065E+00
      6.521  0.3094E-01  0.2094E+00
      6.614  0.2697E-01  0.2119E+00
      6.707  0.3944E-01  0.2156E+00
      6.800  0.4757E-01  0.2200E+00
      6.893  0.4054E-01  0.2238E+00
      6.986  0.3130E-01  0.2267E+00
      7.080  0.3227E-01  0.2297E+00
      7.173  0.3625E-01  0.2331E+00
      7.266  0.2672E-01  0.2356E+00
      7.359  0.2914E-01  0.2383E+00
      7.452  0.3267E-01  0.2413E+00
      7.545  0.3234E-01  0.2443E+00
      7.639  0.4780E-01  0.2488E+00
      7.732  0.4498E-01  0.2530E+00
      7.825  0.4053E-01  0.2568E+00
      7.918  0.4696E-01  0.2611E+00
      8.011  0.3920E-01  0.2648E+00
      8.104  0.3491E-01  0.2680E+00
      8.197  0.4166E-01  0.2719E+00
      8.291  0.4799E-01  0.2764E+00
      8.384  0.3688E-01  0.2798E+00
      8.477  0.4430E-01  0.2839E+00
      8.570  0.4896E-01  0.2885E+00
      8.663  0.2843E-01  0.2912E+00
      8.756  0.3787E-01  0.2947E+00
      8.850  0.2782E-01  0.2973E+00
      8.943  0.3539E-01  0.3006E+00
      9.036  0.3124E-01  0.3035E+00
      9.129  0.4749E-01  0.3079E+00
      9.222  0.3000E-01  0.3107E+00
      9.315  0.3736E-01  0.3142E+00
      9.408  0.5296E-01  0.3191E+00
      9.502  0.3747E-01  0.3226E+00
      9.595  0.4808E-01  0.3271E+00
      9.688  0.4494E-01  0.3313E+00
      9.781  0.3887E-01  0.3349E+00
      9.874  0.4461E-01  0.3390E+00
      9.967  0.4218E-01  0.3430E+00
     10.061  0.4119E-01  0.3468E+00
     10.154  0.5215E-01  0.3517E+00
     10.247  0.4553E-01  0.3559E+00
     10.340  0.4164E-01  0.3598E+00
     10.433  0.3004E-01  0.3626E+00
     10.526  0.3030E-01  0.3654E+00
     10.619  0.3965E-01  0.3691E+00
     10.713  0.5231E-01  0.3740E+00
     10.806  0.5241E-01  0.3789E+00
     10.899  0.6569E-01  0.3850E+00
     10.992  0.5167E-01  0.3898E+00
     11.085  0.6510E-01  0.3959E+00
     11.178  0.6321E-01  0.4017E+00
     11.272  0.5722E-01  0.4071E+00
     11.365  0.4433E-01  0.4112E+00
     11.458  0.5285E-01  0.4161E+00
     11.551  0.6323E-01  0.4220E+00
     11.644  0.6777E-01  0.4283E+00
     11.737  0.6877E-01  0.4347E+00
     11.830  0.7046E-01  0.4413E+00
     11.924  0.5063E-01  0.4460E+00
     12.017  0.4620E-01  0.4503E+00
     12.110  0.4385E-01  0.4544E+00
     12.203  0.4120E-01  0.4582E+00
     12.296  0.2788E-01  0.4608E+00
     12.389  0.4349E-01  0.4649E+00
     12.483  0.3268E-01  0.4679E+00
     12.576  0.2477E-01  0.4702E+00
     12.669  0.2579E-01  0.4726E+00
     12.762  0.2083E-01  0.4746E+00
     12.855  0.1374E-01  0.4759E+00
     12.948  0.1357E-01  0.4771E+00
     13.041  0.1056E-01  0.4781E+00
     13.135  0.9394E-02  0.4790E+00
     13.228  0.6195E-02  0.4796E+00
     13.321  0.4035E-02  0.4799E+00
     13.414  0.5901E-03  0.4800E+00
     13.507  0.2155E-05  0.4800E+00
     13.600  0.2760E-10  0.4800E+00
     13.694  0.4966E-18  0.4800E+00
     13.787  0.0000E+00  0.4800E+00
     13.880  0.0000E+00  0.4800E+00
     13.973  0.0000E+00  0.4800E+00
     14.066  0.0000E+00  0.4800E+00
     14.159  0.2058E-13  0.4800E+00
     14.253  0.6342E-07  0.4800E+00
     14.346  0.2895E-03  0.4800E+00
     14.439  0.4972E-02  0.4805E+00
     14.532  0.9234E-02  0.4814E+00
     14.625  0.1545E-01  0.4828E+00
     14.718  0.7899E-02  0.4835E+00
     14.811  0.1881E-01  0.4853E+00
     14.905  0.1737E-01  0.4869E+00
     14.998  0.2054E-01  0.4888E+00
     15.091  0.1728E-01  0.4904E+00
     15.184  0.2224E-01  0.4925E+00
     15.277  0.1062E-01  0.4935E+00
     15.370  0.1002E-01  0.4944E+00
     15.464  0.1636E-01  0.4959E+00
     15.557  0.2055E-01  0.4979E+00
     15.650  0.2795E-01  0.5005E+00
     15.743  0.2504E-01  0.5028E+00
     15.836  0.3816E-01  0.5063E+00
     15.929  0.2928E-01  0.5091E+00
     16.022  0.2466E-01  0.5114E+00
     16.116  0.2840E-01  0.5140E+00
     16.209  0.1955E-01  0.5158E+00
     16.302  0.2120E-01  0.5178E+00
     16.395  0.3128E-01  0.5207E+00
     16.488  0.2206E-01  0.5228E+00
     16.581  0.1264E-01  0.5240E+00
     16.675  0.1663E-01  0.5255E+00
     16.768  0.1213E-01  0.5266E+00
     16.861  0.1375E-01  0.5279E+00
     16.954  0.2316E-01  0.5301E+00
     17.047  0.2819E-01  0.5327E+00
     17.140  0.2750E-01  0.5353E+00
     17.233  0.2424E-01  0.5375E+00
     17.327  0.2172E-01  0.5395E+00
     17.420  0.2283E-01  0.5417E+00
     17.513  0.1843E-01  0.5434E+00
     17.606  0.2960E-01  0.5461E+00
     17.699  0.4756E-01  0.5506E+00
     17.792  0.5217E-01  0.5554E+00
     17.886  0.4125E-01  0.5593E+00
     17.979  0.3301E-01  0.5624E+00
     18.072  0.2812E-01  0.5650E+00
     18.165  0.3697E-01  0.5684E+00
     18.258  0.4771E-01  0.5729E+00
     18.351  0.4229E-01  0.5768E+00
     18.444  0.3316E-01  0.5799E+00
     18.538  0.4109E-01  0.5837E+00
     18.631  0.3338E-01  0.5868E+00
     18.724  0.3004E-01  0.5896E+00
     18.817  0.4318E-01  0.5936E+00
     18.910  0.3505E-01  0.5969E+00
     19.003  0.2789E-01  0.5995E+00
     19.097  0.2735E-01  0.6021E+00
     19.190  0.4046E-01  0.6058E+00
     19.283  0.2948E-01  0.6086E+00
     19.376  0.4046E-01  0.6123E+00
     19.469  0.2978E-01  0.6151E+00
     19.562  0.2386E-01  0.6173E+00
     19.655  0.2723E-01  0.6199E+00
     19.749  0.2243E-01  0.6220E+00
     19.842  0.2943E-01  0.6247E+00
     19.935  0.3334E-01  0.6278E+00
     20.028  0.3613E-01  0.6312E+00
     20.121  0.3778E-01  0.6347E+00
     20.214  0.3736E-01  0.6382E+00
     20.308  0.3264E-01  0.6412E+00
     20.401  0.2947E-01  0.6440E+00
     20.494  0.2109E-01  0.6459E+00
     20.587  0.2431E-01  0.6482E+00
     20.680  0.1874E-01  0.6499E+00
     20.773  0.1981E-01  0.6518E+00
     20.866  0.2690E-01  0.6543E+00
     20.960  0.2925E-01  0.6570E+00
     21.053  0.1980E-01  0.6589E+00
     21.146  0.7747E-02  0.6596E+00
     21.239  0.3198E-02  0.6599E+00
     21.332  0.1295E-02  0.6600E+00
     21.425  0.5310E-04  0.6600E+00
     21.519  0.9069E-08  0.6600E+00
     21.612  0.2096E-14  0.6600E+00
     21.705  0.0000E+00  0.6600E+00
     21.798  0.0000E+00  0.6600E+00
     21.891  0.0000E+00  0.6600E+00
     21.984  0.0000E+00  0.6600E+00
     22.077  0.0000E+00  0.6600E+00
     22.171  0.0000E+00  0.6600E+00
     22.264  0.0000E+00  0.6600E+00
     22.357  0.0000E+00  0.6600E+00
     22.450  0.0000E+00  0.6600E+00
     22.543  0.0000E+00  0.6600E+00
