       N       E                     dE             d eps       ncg     rms          rms(c)
DAV:   1    -0.152709966041E+03   -0.15271E+03   -0.66811E-05  8106   0.701E-02    0.117E-02
DAV:   2    -0.152709969159E+03   -0.31183E-05   -0.10632E-06  4578   0.601E-03
   1 F= -.31014660E+02 E0= -.31014660E+02  d E =-.310147E+02
       N       E                     dE             d eps       ncg     rms          rms(c)
DAV:   1    -0.144069194829E+03    0.86408E+01   -0.12498E+01  9306   0.152E+01    0.380E+00
DAV:   2    -0.143789474373E+03    0.27972E+00   -0.69394E-01  9744   0.278E+00    0.183E+00
DAV:   3    -0.143761708823E+03    0.27766E-01   -0.12696E-01  9516   0.109E+00    0.498E-01
DAV:   4    -0.143758686074E+03    0.30227E-02   -0.64761E-03  9876   0.270E-01    0.169E-01
DAV:   5    -0.143758233786E+03    0.45229E-03   -0.52207E-04  9798   0.863E-02    0.106E-01
DAV:   6    -0.143758184509E+03    0.49276E-04   -0.15766E-04  9558   0.438E-02    0.143E-02
DAV:   7    -0.143758180899E+03    0.36101E-05   -0.13259E-05  5598   0.200E-02
   2 F= -.30337308E+02 E0= -.30337308E+02  d E =0.677352E+00
       N       E                     dE             d eps       ncg     rms          rms(c)
DAV:   1    -0.150542239858E+03   -0.67841E+01   -0.60366E+00  9312   0.102E+01    0.269E+00
DAV:   2    -0.150399839529E+03    0.14240E+00   -0.35579E-01  9738   0.196E+00    0.127E+00
DAV:   3    -0.150386305061E+03    0.13534E-01   -0.62360E-02  9522   0.753E-01    0.356E-01
DAV:   4    -0.150384564786E+03    0.17403E-02   -0.36026E-03  9894   0.196E-01    0.117E-01
DAV:   5    -0.150384243873E+03    0.32091E-03   -0.34189E-04  9822   0.673E-02    0.713E-02
DAV:   6    -0.150384184581E+03    0.59293E-04   -0.92560E-05  9318   0.326E-02    0.115E-02
DAV:   7    -0.150384179204E+03    0.53763E-05   -0.78308E-06  5172   0.151E-02
   3 F= -.31155739E+02 E0= -.31155739E+02  d E =-.141079E+00
       N       E                     dE             d eps       ncg     rms          rms(c)
DAV:   1    -0.150343035381E+03    0.41149E-01   -0.30849E-04  9348   0.731E-02    0.197E-02
DAV:   2    -0.150343030849E+03    0.45324E-05   -0.17588E-05  5082   0.141E-02
   4 F= -.31155782E+02 E0= -.31155782E+02  d E =-.141122E+00
       N       E                     dE             d eps       ncg     rms          rms(c)
DAV:   1    -0.150337569047E+03    0.54663E-02   -0.29799E-06  4764   0.668E-03    0.524E-03
DAV:   2    -0.150337569761E+03   -0.71346E-06   -0.51852E-07  4680   0.239E-03
   5 F= -.31155784E+02 E0= -.31155784E+02  d E =-.141124E+00
       N       E                     dE             d eps       ncg     rms          rms(c)
DAV:   1    -0.150339984201E+03   -0.24152E-02   -0.11721E-06  4620   0.467E-03    0.922E-04
DAV:   2    -0.150339984182E+03    0.18596E-07   -0.74782E-08  4554   0.110E-03
   6 F= -.31155785E+02 E0= -.31155785E+02  d E =-.141125E+00
       N       E                     dE             d eps       ncg     rms          rms(c)
DAV:   1    -0.150297684263E+03    0.42300E-01   -0.23349E-01  8346   0.199E+00    0.115E-01
DAV:   2    -0.150297598744E+03    0.85519E-04   -0.43745E-03 10014   0.259E-01    0.756E-02
DAV:   3    -0.150297439973E+03    0.15877E-03   -0.45817E-04  9786   0.878E-02    0.297E-02
DAV:   4    -0.150297436069E+03    0.39043E-05   -0.11861E-04  9804   0.402E-02    0.165E-02
DAV:   5    -0.150297435090E+03    0.97881E-06   -0.14501E-05  5682   0.143E-02
   7 F= -.31157636E+02 E0= -.31157636E+02  d E =-.185163E-02
       N       E                     dE             d eps       ncg     rms          rms(c)
DAV:   1    -0.150307210952E+03   -0.97749E-02   -0.10827E-02  8340   0.430E-01    0.242E-02
DAV:   2    -0.150307208247E+03    0.27045E-05   -0.20188E-04  9996   0.552E-02    0.157E-02
DAV:   3    -0.150307201068E+03    0.71787E-05   -0.16320E-05  6174   0.179E-02
   8 F= -.31157781E+02 E0= -.31157781E+02  d E =-.199600E-02
       N       E                     dE             d eps       ncg     rms          rms(c)
DAV:   1    -0.150297066329E+03    0.10142E-01   -0.15408E-01  8334   0.157E+00    0.851E-02
DAV:   2    -0.150296921874E+03    0.14446E-03   -0.31722E-03 10116   0.222E-01    0.502E-02
DAV:   3    -0.150296840127E+03    0.81747E-04   -0.24556E-04  9690   0.648E-02    0.207E-02
DAV:   4    -0.150296839946E+03    0.18108E-06   -0.80393E-05  8436   0.295E-02
   9 F= -.31158605E+02 E0= -.31158605E+02  d E =-.824478E-03
       N       E                     dE             d eps       ncg     rms          rms(c)
DAV:   1    -0.150298902544E+03   -0.20624E-02   -0.50078E-03  8388   0.284E-01    0.160E-02
DAV:   2    -0.150298897752E+03    0.47913E-05   -0.10734E-04 10062   0.406E-02    0.909E-03
DAV:   3    -0.150298894905E+03    0.28478E-05   -0.77772E-06  4788   0.120E-02
  10 F= -.31158649E+02 E0= -.31158649E+02  d E =-.868354E-03
       N       E                     dE             d eps       ncg     rms          rms(c)
DAV:   1    -0.150286549200E+03    0.12349E-01   -0.37666E-02  8328   0.797E-01    0.384E-02
DAV:   2    -0.150286556929E+03   -0.77294E-05   -0.77142E-04 10134   0.108E-01    0.260E-02
DAV:   3    -0.150286541445E+03    0.15484E-04   -0.39767E-05  8994   0.264E-02    0.135E-02
DAV:   4    -0.150286538827E+03    0.26186E-05   -0.20741E-05  5520   0.165E-02
  11 F= -.31159017E+02 E0= -.31159017E+02  d E =-.368193E-03
       N       E                     dE             d eps       ncg     rms          rms(c)
DAV:   1    -0.150285673868E+03    0.86758E-03   -0.18054E-04  9030   0.558E-02    0.429E-03
DAV:   2    -0.150285673995E+03   -0.12711E-06   -0.45815E-06  4806   0.845E-03
  12 F= -.31159020E+02 E0= -.31159020E+02  d E =-.370606E-03
       N       E                     dE             d eps       ncg     rms          rms(c)
DAV:   1    -0.150290825811E+03   -0.51519E-02   -0.15928E-02  8322   0.513E-01    0.233E-02
DAV:   2    -0.150290825463E+03    0.34792E-06   -0.21181E-04  9954   0.578E-02    0.147E-02
DAV:   3    -0.150290817345E+03    0.81179E-05   -0.16823E-05  6468   0.184E-02
  13 F= -.31159206E+02 E0= -.31159206E+02  d E =-.186362E-03
       N       E                     dE             d eps       ncg     rms          rms(c)
DAV:   1    -0.150295003656E+03   -0.41782E-02   -0.10993E-02  8328   0.427E-01    0.196E-02
DAV:   2    -0.150295003577E+03    0.79059E-07   -0.14004E-04 10014   0.469E-02    0.122E-02
DAV:   3    -0.150294998320E+03    0.52578E-05   -0.98089E-06  5550   0.144E-02
  14 F= -.31159254E+02 E0= -.31159254E+02  d E =-.234159E-03
       N       E                     dE             d eps       ncg     rms          rms(c)
DAV:   1    -0.150269403792E+03    0.25600E-01   -0.13991E-02  8328   0.481E-01    0.244E-02
DAV:   2    -0.150269402493E+03    0.12993E-05   -0.19221E-04 10152   0.551E-02    0.140E-02
DAV:   3    -0.150269398067E+03    0.44266E-05   -0.13330E-05  5790   0.161E-02
  15 F= -.31159357E+02 E0= -.31159357E+02  d E =-.102973E-03
