Al4C3 Pnma - H(P) scan @ 90 GPa (ISIF=8)
           1
     8.083924    0.000000    0.000000
     0.000000    2.788807    0.000000
     0.000000    0.000000    9.609510
   Al   C 
    16    12
Direct configuration=     1
   0.26152421  0.25000000  0.29713536
   0.23847579  0.75000000  0.79713536
   0.73847579  0.75000000  0.70286464
   0.76152421  0.25000000  0.20286464
   0.34406990  0.25000000  0.01086877
   0.15593010  0.75000000  0.51086877
   0.65593010  0.75000000  0.98913123
   0.84406990  0.25000000  0.48913123
   0.52261808  0.25000000  0.79356359
   0.97738192  0.75000000  0.29356359
   0.47738192  0.75000000  0.20643641
   0.02261808  0.25000000  0.70643641
   0.06642565  0.25000000  0.09077706
   0.43357435  0.75000000  0.59077706
   0.93357435  0.75000000  0.90922294
   0.56642565  0.25000000  0.40922294
   0.26188826  0.25000000  0.64261830
   0.23811174  0.75000000  0.14261830
   0.73811174  0.75000000  0.35738170
   0.76188826  0.25000000  0.85738170
   0.60755258  0.25000000  0.60675912
   0.89244742  0.75000000  0.10675912
   0.39244742  0.75000000  0.39324088
   0.10755258  0.25000000  0.89324088
   0.06274909  0.25000000  0.39021471
   0.43725091  0.75000000  0.89021471
   0.93725091  0.75000000  0.60978529
   0.56274909  0.25000000  0.10978529
Al4C3 Pnma - H(P) scan @ 90 GPa (ISIF=8)
           1
     7.896391    0.000000    0.000000
     0.000000    2.724111    0.000000
     0.000000    0.000000    9.386585
   Al   C 
    16    12
Direct configuration=     2
   0.26152466  0.25000000  0.29713894
   0.23847534  0.75000000  0.79713894
   0.73847534  0.75000000  0.70286106
   0.76152466  0.25000000  0.20286106
   0.34403488  0.25000000  0.01083374
   0.15596512  0.75000000  0.51083374
   0.65596512  0.75000000  0.98916626
   0.84403488  0.25000000  0.48916626
   0.52266456  0.25000000  0.79358365
   0.97733544  0.75000000  0.29358365
   0.47733544  0.75000000  0.20641635
   0.02266456  0.25000000  0.70641635
   0.06642234  0.25000000  0.09079424
   0.43357766  0.75000000  0.59079424
   0.93357766  0.75000000  0.90920576
   0.56642234  0.25000000  0.40920576
   0.26186599  0.25000000  0.64259161
   0.23813401  0.75000000  0.14259161
   0.73813401  0.75000000  0.35740839
   0.76186599  0.25000000  0.85740839
   0.60756879  0.25000000  0.60673600
   0.89243121  0.75000000  0.10673600
   0.39243121  0.75000000  0.39326400
   0.10756879  0.25000000  0.89326400
   0.06271410  0.25000000  0.39018281
   0.43728590  0.75000000  0.89018281
   0.93728590  0.75000000  0.60981719
   0.56271410  0.25000000  0.10981719
Al4C3 Pnma - H(P) scan @ 90 GPa (ISIF=8)
           1
     8.028928    0.000000    0.000000
     0.000000    2.769834    0.000000
     0.000000    0.000000    9.544135
   Al   C 
    16    12
Direct configuration=     3
   0.26152433  0.25000000  0.29713635
   0.23847567  0.75000000  0.79713635
   0.73847567  0.75000000  0.70286365
   0.76152433  0.25000000  0.20286365
   0.34406021  0.25000000  0.01085909
   0.15593979  0.75000000  0.51085909
   0.65593979  0.75000000  0.98914091
   0.84406021  0.25000000  0.48914091
   0.52263093  0.25000000  0.79356914
   0.97736907  0.75000000  0.29356914
   0.47736907  0.75000000  0.20643086
   0.02263093  0.25000000  0.70643086
   0.06642474  0.25000000  0.09078181
   0.43357526  0.75000000  0.59078181
   0.93357526  0.75000000  0.90921819
   0.56642474  0.25000000  0.40921819
   0.26188210  0.25000000  0.64261092
   0.23811790  0.75000000  0.14261092
   0.73811790  0.75000000  0.35738908
   0.76188210  0.25000000  0.85738908
   0.60755706  0.25000000  0.60675273
   0.89244294  0.75000000  0.10675273
   0.39244294  0.75000000  0.39324727
   0.10755706  0.25000000  0.89324727
   0.06273941  0.25000000  0.39020589
   0.43726059  0.75000000  0.89020589
   0.93726059  0.75000000  0.60979411
   0.56273941  0.25000000  0.10979411
Al4C3 Pnma - H(P) scan @ 90 GPa (ISIF=8)
           1
     8.028004    0.000000    0.000000
     0.000000    2.769515    0.000000
     0.000000    0.000000    9.543036
   Al   C 
    16    12
Direct configuration=     4
   0.26152433  0.25000000  0.29713637
   0.23847567  0.75000000  0.79713637
   0.73847567  0.75000000  0.70286363
   0.76152433  0.25000000  0.20286363
   0.34406004  0.25000000  0.01085891
   0.15593996  0.75000000  0.51085891
   0.65593996  0.75000000  0.98914109
   0.84406004  0.25000000  0.48914109
   0.52263116  0.25000000  0.79356924
   0.97736884  0.75000000  0.29356924
   0.47736884  0.75000000  0.20643076
   0.02263116  0.25000000  0.70643076
   0.06642472  0.25000000  0.09078190
   0.43357528  0.75000000  0.59078190
   0.93357528  0.75000000  0.90921810
   0.56642472  0.25000000  0.40921810
   0.26188199  0.25000000  0.64261079
   0.23811801  0.75000000  0.14261079
   0.73811801  0.75000000  0.35738921
   0.76188199  0.25000000  0.85738921
   0.60755714  0.25000000  0.60675261
   0.89244286  0.75000000  0.10675261
   0.39244286  0.75000000  0.39324739
   0.10755714  0.25000000  0.89324739
   0.06273924  0.25000000  0.39020573
   0.43726076  0.75000000  0.89020573
   0.93726076  0.75000000  0.60979427
   0.56273924  0.25000000  0.10979427
Al4C3 Pnma - H(P) scan @ 90 GPa (ISIF=8)
           1
     8.027881    0.000000    0.000000
     0.000000    2.769473    0.000000
     0.000000    0.000000    9.542890
   Al   C 
    16    12
Direct configuration=     5
   0.26152433  0.25000000  0.29713637
   0.23847567  0.75000000  0.79713637
   0.73847567  0.75000000  0.70286363
   0.76152433  0.25000000  0.20286363
   0.34406002  0.25000000  0.01085889
   0.15593998  0.75000000  0.51085889
   0.65593998  0.75000000  0.98914111
   0.84406002  0.25000000  0.48914111
   0.52263119  0.25000000  0.79356925
   0.97736881  0.75000000  0.29356925
   0.47736881  0.75000000  0.20643075
   0.02263119  0.25000000  0.70643075
   0.06642472  0.25000000  0.09078191
   0.43357528  0.75000000  0.59078191
   0.93357528  0.75000000  0.90921809
   0.56642472  0.25000000  0.40921809
   0.26188198  0.25000000  0.64261077
   0.23811802  0.75000000  0.14261077
   0.73811802  0.75000000  0.35738923
   0.76188198  0.25000000  0.85738923
   0.60755715  0.25000000  0.60675260
   0.89244285  0.75000000  0.10675260
   0.39244285  0.75000000  0.39324740
   0.10755715  0.25000000  0.89324740
   0.06273922  0.25000000  0.39020571
   0.43726078  0.75000000  0.89020571
   0.93726078  0.75000000  0.60979429
   0.56273922  0.25000000  0.10979429
Al4C3 Pnma - H(P) scan @ 90 GPa (ISIF=8)
           1
     8.027935    0.000000    0.000000
     0.000000    2.769492    0.000000
     0.000000    0.000000    9.542954
   Al   C 
    16    12
Direct configuration=     6
   0.26152433  0.25000000  0.29713637
   0.23847567  0.75000000  0.79713637
   0.73847567  0.75000000  0.70286363
   0.76152433  0.25000000  0.20286363
   0.34406003  0.25000000  0.01085890
   0.15593997  0.75000000  0.51085890
   0.65593997  0.75000000  0.98914110
   0.84406003  0.25000000  0.48914110
   0.52263117  0.25000000  0.79356924
   0.97736883  0.75000000  0.29356924
   0.47736883  0.75000000  0.20643076
   0.02263117  0.25000000  0.70643076
   0.06642472  0.25000000  0.09078190
   0.43357528  0.75000000  0.59078190
   0.93357528  0.75000000  0.90921810
   0.56642472  0.25000000  0.40921810
   0.26188198  0.25000000  0.64261078
   0.23811802  0.75000000  0.14261078
   0.73811802  0.75000000  0.35738922
   0.76188198  0.25000000  0.85738922
   0.60755715  0.25000000  0.60675260
   0.89244285  0.75000000  0.10675260
   0.39244285  0.75000000  0.39324740
   0.10755715  0.25000000  0.89324740
   0.06273923  0.25000000  0.39020572
   0.43726077  0.75000000  0.89020572
   0.93726077  0.75000000  0.60979428
   0.56273923  0.25000000  0.10979428
Al4C3 Pnma - H(P) scan @ 90 GPa (ISIF=8)
           1
     8.026938    0.000000    0.000000
     0.000000    2.769148    0.000000
     0.000000    0.000000    9.541769
   Al   C 
    16    12
Direct configuration=     7
   0.26173337  0.25000000  0.29697800
   0.23826663  0.75000000  0.79697800
   0.73826663  0.75000000  0.70302200
   0.76173337  0.25000000  0.20302200
   0.34370754  0.25000000  0.01085338
   0.15629246  0.75000000  0.51085338
   0.65629246  0.75000000  0.98914662
   0.84370754  0.25000000  0.48914662
   0.52259404  0.25000000  0.79326682
   0.97740596  0.75000000  0.29326682
   0.47740596  0.75000000  0.20673318
   0.02259404  0.25000000  0.70673318
   0.06636421  0.25000000  0.09107288
   0.43363579  0.75000000  0.59107288
   0.93363579  0.75000000  0.90892712
   0.56636421  0.25000000  0.40892712
   0.26206245  0.25000000  0.64256222
   0.23793755  0.75000000  0.14256222
   0.73793755  0.75000000  0.35743778
   0.76206245  0.25000000  0.85743778
   0.60788345  0.25000000  0.60651382
   0.89211655  0.75000000  0.10651382
   0.39211655  0.75000000  0.39348618
   0.10788345  0.25000000  0.89348618
   0.06265138  0.25000000  0.39050574
   0.43734862  0.75000000  0.89050574
   0.93734862  0.75000000  0.60949426
   0.56265138  0.25000000  0.10949426
Al4C3 Pnma - H(P) scan @ 90 GPa (ISIF=8)
           1
     8.027154    0.000000    0.000000
     0.000000    2.769222    0.000000
     0.000000    0.000000    9.542026
   Al   C 
    16    12
Direct configuration=     8
   0.26168806  0.25000000  0.29701233
   0.23831194  0.75000000  0.79701233
   0.73831194  0.75000000  0.70298767
   0.76168806  0.25000000  0.20298767
   0.34378394  0.25000000  0.01085458
   0.15621606  0.75000000  0.51085458
   0.65621606  0.75000000  0.98914542
   0.84378394  0.25000000  0.48914542
   0.52260209  0.25000000  0.79333237
   0.97739791  0.75000000  0.29333237
   0.47739791  0.75000000  0.20666763
   0.02260209  0.25000000  0.70666763
   0.06637733  0.25000000  0.09100981
   0.43362267  0.75000000  0.59100981
   0.93362267  0.75000000  0.90899019
   0.56637733  0.25000000  0.40899019
   0.26202333  0.25000000  0.64257275
   0.23797667  0.75000000  0.14257275
   0.73797667  0.75000000  0.35742725
   0.76202333  0.25000000  0.85742725
   0.60781272  0.25000000  0.60656558
   0.89218728  0.75000000  0.10656558
   0.39218728  0.75000000  0.39343442
   0.10781272  0.25000000  0.89343442
   0.06267042  0.25000000  0.39044071
   0.43732958  0.75000000  0.89044071
   0.93732958  0.75000000  0.60955929
   0.56267042  0.25000000  0.10955929
Al4C3 Pnma - H(P) scan @ 90 GPa (ISIF=8)
           1
     8.026903    0.000000    0.000000
     0.000000    2.769136    0.000000
     0.000000    0.000000    9.541727
   Al   C 
    16    12
Direct configuration=     9
   0.26151694  0.25000000  0.29698372
   0.23848306  0.75000000  0.79698372
   0.73848306  0.75000000  0.70301628
   0.76151694  0.25000000  0.20301628
   0.34353058  0.25000000  0.01078795
   0.15646942  0.75000000  0.51078795
   0.65646942  0.75000000  0.98921205
   0.84353058  0.25000000  0.48921205
   0.52232656  0.25000000  0.79334802
   0.97767344  0.75000000  0.29334802
   0.47767344  0.75000000  0.20665198
   0.02232656  0.25000000  0.70665198
   0.06617048  0.25000000  0.09115475
   0.43382952  0.75000000  0.59115475
   0.93382952  0.75000000  0.90884525
   0.56617048  0.25000000  0.40884525
   0.26220544  0.25000000  0.64263372
   0.23779456  0.75000000  0.14263372
   0.73779456  0.75000000  0.35736628
   0.76220544  0.25000000  0.85736628
   0.60809072  0.25000000  0.60629942
   0.89190928  0.75000000  0.10629942
   0.39190928  0.75000000  0.39370058
   0.10809072  0.25000000  0.89370058
   0.06261308  0.25000000  0.39041944
   0.43738692  0.75000000  0.89041944
   0.93738692  0.75000000  0.60958056
   0.56261308  0.25000000  0.10958056
Al4C3 Pnma - H(P) scan @ 90 GPa (ISIF=8)
           1
     8.026948    0.000000    0.000000
     0.000000    2.769151    0.000000
     0.000000    0.000000    9.541781
   Al   C 
    16    12
Direct configuration=    10
   0.26154771  0.25000000  0.29698886
   0.23845229  0.75000000  0.79698886
   0.73845229  0.75000000  0.70301114
   0.76154771  0.25000000  0.20301114
   0.34357614  0.25000000  0.01079993
   0.15642386  0.75000000  0.51079993
   0.65642386  0.75000000  0.98920007
   0.84357614  0.25000000  0.48920007
   0.52237610  0.25000000  0.79334521
   0.97762390  0.75000000  0.29334521
   0.47762390  0.75000000  0.20665479
   0.02237610  0.25000000  0.70665479
   0.06620767  0.25000000  0.09112869
   0.43379233  0.75000000  0.59112869
   0.93379233  0.75000000  0.90887131
   0.56620767  0.25000000  0.40887131
   0.26217269  0.25000000  0.64262276
   0.23782731  0.75000000  0.14262276
   0.73782731  0.75000000  0.35737724
   0.76217269  0.25000000  0.85737724
   0.60804074  0.25000000  0.60634728
   0.89195926  0.75000000  0.10634728
   0.39195926  0.75000000  0.39365272
   0.10804074  0.25000000  0.89365272
   0.06262339  0.25000000  0.39042327
   0.43737661  0.75000000  0.89042327
   0.93737661  0.75000000  0.60957673
   0.56262339  0.25000000  0.10957673
Al4C3 Pnma - H(P) scan @ 90 GPa (ISIF=8)
           1
     8.026662    0.000000    0.000000
     0.000000    2.769053    0.000000
     0.000000    0.000000    9.541441
   Al   C 
    16    12
Direct configuration=    11
   0.26148377  0.25000000  0.29696992
   0.23851623  0.75000000  0.79696992
   0.73851623  0.75000000  0.70303008
   0.76148377  0.25000000  0.20303008
   0.34344894  0.25000000  0.01079758
   0.15655106  0.75000000  0.51079758
   0.65655106  0.75000000  0.98920242
   0.84344894  0.25000000  0.48920242
   0.52239158  0.25000000  0.79330730
   0.97760842  0.75000000  0.29330730
   0.47760842  0.75000000  0.20669270
   0.02239158  0.25000000  0.70669270
   0.06594113  0.25000000  0.09110446
   0.43405887  0.75000000  0.59110446
   0.93405887  0.75000000  0.90889554
   0.56594113  0.25000000  0.40889554
   0.26225963  0.25000000  0.64275355
   0.23774037  0.75000000  0.14275355
   0.73774037  0.75000000  0.35724645
   0.76225963  0.25000000  0.85724645
   0.60818067  0.25000000  0.60635979
   0.89181933  0.75000000  0.10635979
   0.39181933  0.75000000  0.39364021
   0.10818067  0.25000000  0.89364021
   0.06253899  0.25000000  0.39043049
   0.43746101  0.75000000  0.89043049
   0.93746101  0.75000000  0.60956951
   0.56253899  0.25000000  0.10956951
Al4C3 Pnma - H(P) scan @ 90 GPa (ISIF=8)
           1
     8.026643    0.000000    0.000000
     0.000000    2.769046    0.000000
     0.000000    0.000000    9.541418
   Al   C 
    16    12
Direct configuration=    12
   0.26147942  0.25000000  0.29696863
   0.23852058  0.75000000  0.79696863
   0.73852058  0.75000000  0.70303137
   0.76147942  0.25000000  0.20303137
   0.34344027  0.25000000  0.01079742
   0.15655973  0.75000000  0.51079742
   0.65655973  0.75000000  0.98920258
   0.84344027  0.25000000  0.48920258
   0.52239264  0.25000000  0.79330472
   0.97760736  0.75000000  0.29330472
   0.47760736  0.75000000  0.20669528
   0.02239264  0.25000000  0.70669528
   0.06592296  0.25000000  0.09110281
   0.43407704  0.75000000  0.59110281
   0.93407704  0.75000000  0.90889719
   0.56592296  0.25000000  0.40889719
   0.26226556  0.25000000  0.64276246
   0.23773444  0.75000000  0.14276246
   0.73773444  0.75000000  0.35723754
   0.76226556  0.25000000  0.85723754
   0.60819021  0.25000000  0.60636064
   0.89180979  0.75000000  0.10636064
   0.39180979  0.75000000  0.39363936
   0.10819021  0.25000000  0.89363936
   0.06253323  0.25000000  0.39043098
   0.43746677  0.75000000  0.89043098
   0.93746677  0.75000000  0.60956902
   0.56253323  0.25000000  0.10956902
Al4C3 Pnma - H(P) scan @ 90 GPa (ISIF=8)
           1
     8.026754    0.000000    0.000000
     0.000000    2.769084    0.000000
     0.000000    0.000000    9.541550
   Al   C 
    16    12
Direct configuration=    13
   0.26135776  0.25000000  0.29692251
   0.23864224  0.75000000  0.79692251
   0.73864224  0.75000000  0.70307749
   0.76135776  0.25000000  0.20307749
   0.34341657  0.25000000  0.01083697
   0.15658343  0.75000000  0.51083697
   0.65658343  0.75000000  0.98916303
   0.84341657  0.25000000  0.48916303
   0.52248501  0.25000000  0.79333025
   0.97751499  0.75000000  0.29333025
   0.47751499  0.75000000  0.20666975
   0.02248501  0.25000000  0.70666975
   0.06587047  0.25000000  0.09110551
   0.43412953  0.75000000  0.59110551
   0.93412953  0.75000000  0.90889449
   0.56587047  0.25000000  0.40889449
   0.26239019  0.25000000  0.64279606
   0.23760981  0.75000000  0.14279606
   0.73760981  0.75000000  0.35720394
   0.76239019  0.25000000  0.85720394
   0.60823952  0.25000000  0.60636058
   0.89176048  0.75000000  0.10636058
   0.39176048  0.75000000  0.39363942
   0.10823952  0.25000000  0.89363942
   0.06247041  0.25000000  0.39046505
   0.43752959  0.75000000  0.89046505
   0.93752959  0.75000000  0.60953495
   0.56247041  0.25000000  0.10953495
Al4C3 Pnma - H(P) scan @ 90 GPa (ISIF=8)
           1
     8.026847    0.000000    0.000000
     0.000000    2.769116    0.000000
     0.000000    0.000000    9.541661
   Al   C 
    16    12
Direct configuration=    14
   0.26125632  0.25000000  0.29688406
   0.23874368  0.75000000  0.79688406
   0.73874368  0.75000000  0.70311594
   0.76125632  0.25000000  0.20311594
   0.34339681  0.25000000  0.01086994
   0.15660319  0.75000000  0.51086994
   0.65660319  0.75000000  0.98913006
   0.84339681  0.25000000  0.48913006
   0.52256202  0.25000000  0.79335154
   0.97743798  0.75000000  0.29335154
   0.47743798  0.75000000  0.20664846
   0.02256202  0.25000000  0.70664846
   0.06582669  0.25000000  0.09110777
   0.43417331  0.75000000  0.59110777
   0.93417331  0.75000000  0.90889223
   0.56582669  0.25000000  0.40889223
   0.26249410  0.25000000  0.64282408
   0.23750590  0.75000000  0.14282408
   0.73750590  0.75000000  0.35717592
   0.76249410  0.25000000  0.85717592
   0.60828064  0.25000000  0.60636053
   0.89171936  0.75000000  0.10636053
   0.39171936  0.75000000  0.39363947
   0.10828064  0.25000000  0.89363947
   0.06241803  0.25000000  0.39049346
   0.43758197  0.75000000  0.89049346
   0.93758197  0.75000000  0.60950654
   0.56241803  0.25000000  0.10950654
Al4C3 Pnma - H(P) scan @ 90 GPa (ISIF=8)
           1
     8.026270    0.000000    0.000000
     0.000000    2.768917    0.000000
     0.000000    0.000000    9.540974
   Al   C 
    16    12
Direct configuration=    15
   0.26114903  0.25000000  0.29692598
   0.23885097  0.75000000  0.79692598
   0.73885097  0.75000000  0.70307402
   0.76114903  0.25000000  0.20307402
   0.34336597  0.25000000  0.01082813
   0.15663403  0.75000000  0.51082813
   0.65663403  0.75000000  0.98917187
   0.84336597  0.25000000  0.48917187
   0.52268006  0.25000000  0.79338520
   0.97731994  0.75000000  0.29338520
   0.47731994  0.75000000  0.20661480
   0.02268006  0.25000000  0.70661480
   0.06577155  0.25000000  0.09111456
   0.43422845  0.75000000  0.59111456
   0.93422845  0.75000000  0.90888544
   0.56577155  0.25000000  0.40888544
   0.26257642  0.25000000  0.64278303
   0.23742358  0.75000000  0.14278303
   0.73742358  0.75000000  0.35721697
   0.76257642  0.25000000  0.85721697
   0.60836441  0.25000000  0.60637715
   0.89163559  0.75000000  0.10637715
   0.39163559  0.75000000  0.39362285
   0.10836441  0.25000000  0.89362285
   0.06235651  0.25000000  0.39051695
   0.43764349  0.75000000  0.89051695
   0.93764349  0.75000000  0.60948305
   0.56235651  0.25000000  0.10948305
