  28  28   0   0
  0.8052970E+01  0.6086553E-09  0.6086553E-09  0.6086553E-09  0.5000000E-15
  1.000000000000000E-004
  CAR 
 Al4C3 I-43d - H(P) scan @ 60 GPa (ISIF=8
     20.93936890     -5.41601181  301     13.21394793      1.00000000
     -5.416  0.0000E+00  0.0000E+00
     -5.328  0.0000E+00  0.0000E+00
     -5.240  0.0000E+00  0.0000E+00
     -5.152  0.0000E+00  0.0000E+00
     -5.065  0.0000E+00  0.0000E+00
     -4.977  0.0000E+00  0.0000E+00
     -4.889  0.0000E+00  0.0000E+00
     -4.801  0.0000E+00  0.0000E+00
     -4.713  0.0000E+00  0.0000E+00
     -4.625  0.0000E+00  0.0000E+00
     -4.537  0.0000E+00  0.0000E+00
     -4.450  0.1507E-13  0.1324E-14
     -4.362  0.1260E-07  0.1107E-08
     -4.274  0.3000E-04  0.2636E-05
     -4.186  0.4874E-03  0.4545E-04
     -4.098  0.2345E-02  0.2514E-03
     -4.010  0.4591E-02  0.6548E-03
     -3.923  0.4500E-02  0.1050E-02
     -3.835  0.3326E-02  0.1342E-02
     -3.747  0.5032E-02  0.1784E-02
     -3.659  0.1117E-01  0.2766E-02
     -3.571  0.1029E-01  0.3670E-02
     -3.483  0.1251E-02  0.3780E-02
     -3.395  0.5245E-02  0.4241E-02
     -3.308  0.1238E-01  0.5328E-02
     -3.220  0.1214E-01  0.6395E-02
     -3.132  0.1125E-01  0.7384E-02
     -3.044  0.7811E-02  0.8070E-02
     -2.956  0.6586E-02  0.8648E-02
     -2.868  0.1455E-01  0.9926E-02
     -2.780  0.1838E-01  0.1154E-01
     -2.693  0.1283E-02  0.1165E-01
     -2.605  0.4720E-02  0.1207E-01
     -2.517  0.2123E-01  0.1393E-01
     -2.429  0.1826E-01  0.1554E-01
     -2.341  0.1301E-01  0.1668E-01
     -2.253  0.1189E-01  0.1773E-01
     -2.166  0.1992E-01  0.1948E-01
     -2.078  0.1639E-01  0.2092E-01
     -1.990  0.4909E-02  0.2135E-01
     -1.902  0.6361E-02  0.2191E-01
     -1.814  0.1305E-01  0.2305E-01
     -1.726  0.2363E-01  0.2513E-01
     -1.638  0.2857E-01  0.2764E-01
     -1.551  0.1132E-01  0.2863E-01
     -1.463  0.1298E-01  0.2977E-01
     -1.375  0.3141E-01  0.3253E-01
     -1.287  0.1827E-01  0.3414E-01
     -1.199  0.2764E-02  0.3438E-01
     -1.111  0.1226E-01  0.3546E-01
     -1.023  0.2602E-01  0.3774E-01
     -0.936  0.2486E-01  0.3993E-01
     -0.848  0.2294E-01  0.4194E-01
     -0.760  0.1257E-01  0.4305E-01
     -0.672  0.2618E-01  0.4535E-01
     -0.584  0.2150E-01  0.4724E-01
     -0.496  0.7459E-02  0.4789E-01
     -0.408  0.3840E-01  0.5126E-01
     -0.321  0.4080E-01  0.5485E-01
     -0.233  0.1689E-01  0.5633E-01
     -0.145  0.2700E-01  0.5871E-01
     -0.057  0.2734E-01  0.6111E-01
      0.031  0.2085E-01  0.6294E-01
      0.119  0.3048E-01  0.6562E-01
      0.206  0.2922E-01  0.6818E-01
      0.294  0.2819E-01  0.7066E-01
      0.382  0.7105E-01  0.7690E-01
      0.470  0.4323E-01  0.8070E-01
      0.558  0.1429E-01  0.8196E-01
      0.646  0.8574E-02  0.8271E-01
      0.734  0.2358E-01  0.8478E-01
      0.821  0.1734E-01  0.8630E-01
      0.909  0.2891E-02  0.8656E-01
      0.997  0.2196E-02  0.8675E-01
      1.085  0.1516E-01  0.8808E-01
      1.173  0.1041E-01  0.8900E-01
      1.261  0.3271E-01  0.9187E-01
      1.349  0.4813E-01  0.9610E-01
      1.436  0.2749E-01  0.9851E-01
      1.524  0.3101E-01  0.1012E+00
      1.612  0.2833E-01  0.1037E+00
      1.700  0.3010E-01  0.1064E+00
      1.788  0.5806E-01  0.1115E+00
      1.876  0.3858E-01  0.1149E+00
      1.963  0.9885E-02  0.1157E+00
      2.051  0.7697E-03  0.1158E+00
      2.139  0.1398E-01  0.1170E+00
      2.227  0.1345E-01  0.1182E+00
      2.315  0.7172E-02  0.1188E+00
      2.403  0.9970E-02  0.1197E+00
      2.491  0.1159E-02  0.1198E+00
      2.578  0.8916E-03  0.1199E+00
      2.666  0.1187E-02  0.1200E+00
      2.754  0.2265E-04  0.1200E+00
      2.842  0.1811E-08  0.1200E+00
      2.930  0.3824E-15  0.1200E+00
      3.018  0.0000E+00  0.1200E+00
      3.106  0.0000E+00  0.1200E+00
      3.193  0.5791E-11  0.1200E+00
      3.281  0.1733E-05  0.1200E+00
      3.369  0.1583E-02  0.1201E+00
      3.457  0.1345E-01  0.1213E+00
      3.545  0.2284E-01  0.1233E+00
      3.633  0.2710E-01  0.1257E+00
      3.721  0.2451E-01  0.1279E+00
      3.808  0.4124E-01  0.1315E+00
      3.896  0.2108E-01  0.1333E+00
      3.984  0.2039E-01  0.1351E+00
      4.072  0.2760E-01  0.1376E+00
      4.160  0.2479E-01  0.1397E+00
      4.248  0.3813E-01  0.1431E+00
      4.335  0.4325E-01  0.1469E+00
      4.423  0.2088E-01  0.1487E+00
      4.511  0.2256E-01  0.1507E+00
      4.599  0.4368E-01  0.1545E+00
      4.687  0.2927E-01  0.1571E+00
      4.775  0.2502E-01  0.1593E+00
      4.863  0.2757E-01  0.1617E+00
      4.950  0.2331E-01  0.1638E+00
      5.038  0.1172E-01  0.1648E+00
      5.126  0.1783E-01  0.1664E+00
      5.214  0.6003E-01  0.1716E+00
      5.302  0.7124E-01  0.1779E+00
      5.390  0.4828E-01  0.1821E+00
      5.478  0.2940E-01  0.1847E+00
      5.565  0.1748E-01  0.1863E+00
      5.653  0.3531E-02  0.1866E+00
      5.741  0.2754E-01  0.1890E+00
      5.829  0.5871E-01  0.1941E+00
      5.917  0.5704E-01  0.1992E+00
      6.005  0.3773E-01  0.2025E+00
      6.093  0.1648E-01  0.2039E+00
      6.180  0.4537E-01  0.2079E+00
      6.268  0.5635E-01  0.2129E+00
      6.356  0.3078E-01  0.2156E+00
      6.444  0.1678E-01  0.2170E+00
      6.532  0.2556E-01  0.2193E+00
      6.620  0.4026E-01  0.2228E+00
      6.707  0.5820E-02  0.2233E+00
      6.795  0.1767E-01  0.2249E+00
      6.883  0.5217E-01  0.2295E+00
      6.971  0.5245E-01  0.2341E+00
      7.059  0.4435E-01  0.2380E+00
      7.147  0.3379E-01  0.2409E+00
      7.235  0.2103E-01  0.2428E+00
      7.322  0.2987E-01  0.2454E+00
      7.410  0.1886E-01  0.2471E+00
      7.498  0.4098E-01  0.2507E+00
      7.586  0.5447E-01  0.2555E+00
      7.674  0.5765E-01  0.2605E+00
      7.762  0.3063E-01  0.2632E+00
      7.850  0.3922E-01  0.2667E+00
      7.937  0.6688E-01  0.2725E+00
      8.025  0.7411E-01  0.2790E+00
      8.113  0.3332E-01  0.2820E+00
      8.201  0.4195E-01  0.2857E+00
      8.289  0.2963E-01  0.2883E+00
      8.377  0.2907E-01  0.2908E+00
      8.464  0.2944E-01  0.2934E+00
      8.552  0.3260E-01  0.2963E+00
      8.640  0.2533E-01  0.2985E+00
      8.728  0.4627E-01  0.3025E+00
      8.816  0.4486E-01  0.3065E+00
      8.904  0.3737E-01  0.3098E+00
      8.992  0.3249E-01  0.3126E+00
      9.079  0.5280E-01  0.3173E+00
      9.167  0.4265E-01  0.3210E+00
      9.255  0.2779E-01  0.3235E+00
      9.343  0.3233E-01  0.3263E+00
      9.431  0.4745E-01  0.3305E+00
      9.519  0.1828E-01  0.3321E+00
      9.607  0.3384E-01  0.3350E+00
      9.694  0.4161E-01  0.3387E+00
      9.782  0.4172E-01  0.3424E+00
      9.870  0.8016E-01  0.3494E+00
      9.958  0.4750E-01  0.3536E+00
     10.046  0.3614E-01  0.3568E+00
     10.134  0.3697E-01  0.3600E+00
     10.222  0.4398E-01  0.3639E+00
     10.309  0.3957E-01  0.3673E+00
     10.397  0.5978E-01  0.3726E+00
     10.485  0.2697E-01  0.3750E+00
     10.573  0.1230E-01  0.3760E+00
     10.661  0.4851E-01  0.3803E+00
     10.749  0.7202E-01  0.3866E+00
     10.836  0.1044E+00  0.3958E+00
     10.924  0.6135E-01  0.4012E+00
     11.012  0.1623E-01  0.4026E+00
     11.100  0.3614E-01  0.4058E+00
     11.188  0.5763E-01  0.4109E+00
     11.276  0.4424E-01  0.4147E+00
     11.364  0.3678E-01  0.4180E+00
     11.451  0.3927E-01  0.4214E+00
     11.539  0.2720E-01  0.4238E+00
     11.627  0.4716E-01  0.4280E+00
     11.715  0.4845E-01  0.4322E+00
     11.803  0.4270E-01  0.4360E+00
     11.891  0.4857E-01  0.4402E+00
     11.979  0.4009E-01  0.4438E+00
     12.066  0.6839E-01  0.4498E+00
     12.154  0.1234E+00  0.4606E+00
     12.242  0.7918E-01  0.4676E+00
     12.330  0.6091E-01  0.4729E+00
     12.418  0.2875E-01  0.4754E+00
     12.506  0.1588E-01  0.4768E+00
     12.593  0.1596E-01  0.4782E+00
     12.681  0.8177E-02  0.4789E+00
     12.769  0.4032E-02  0.4793E+00
     12.857  0.2932E-02  0.4796E+00
     12.945  0.3674E-02  0.4799E+00
     13.033  0.1262E-02  0.4800E+00
     13.121  0.9373E-04  0.4800E+00
     13.208  0.4129E-07  0.4800E+00
     13.296  0.5191E-13  0.4800E+00
     13.384  0.0000E+00  0.4800E+00
     13.472  0.0000E+00  0.4800E+00
     13.560  0.0000E+00  0.4800E+00
     13.648  0.0000E+00  0.4800E+00
     13.736  0.0000E+00  0.4800E+00
     13.823  0.0000E+00  0.4800E+00
     13.911  0.0000E+00  0.4800E+00
     13.999  0.0000E+00  0.4800E+00
     14.087  0.0000E+00  0.4800E+00
     14.175  0.0000E+00  0.4800E+00
     14.263  0.0000E+00  0.4800E+00
     14.351  0.0000E+00  0.4800E+00
     14.438  0.0000E+00  0.4800E+00
     14.526  0.0000E+00  0.4800E+00
     14.614  0.0000E+00  0.4800E+00
     14.702  0.0000E+00  0.4800E+00
     14.790  0.1161E-15  0.4800E+00
     14.878  0.1011E-08  0.4800E+00
     14.965  0.2273E-04  0.4800E+00
     15.053  0.1976E-02  0.4802E+00
     15.141  0.2194E-02  0.4804E+00
     15.229  0.3139E-02  0.4806E+00
     15.317  0.9205E-02  0.4815E+00
     15.405  0.1151E-01  0.4825E+00
     15.493  0.4252E-01  0.4862E+00
     15.580  0.4244E-01  0.4899E+00
     15.668  0.5900E-01  0.4951E+00
     15.756  0.4188E-01  0.4988E+00
     15.844  0.4870E-01  0.5031E+00
     15.932  0.5025E-01  0.5075E+00
     16.020  0.2223E-01  0.5094E+00
     16.108  0.2539E-01  0.5117E+00
     16.195  0.4419E-01  0.5156E+00
     16.283  0.5180E-01  0.5201E+00
     16.371  0.2518E-01  0.5223E+00
     16.459  0.4416E-01  0.5262E+00
     16.547  0.6332E-01  0.5318E+00
     16.635  0.4405E-01  0.5356E+00
     16.723  0.5027E-01  0.5400E+00
     16.810  0.4673E-01  0.5441E+00
     16.898  0.4328E-01  0.5479E+00
     16.986  0.5840E-01  0.5531E+00
     17.074  0.3919E-01  0.5565E+00
     17.162  0.3657E-01  0.5597E+00
     17.250  0.4021E-01  0.5633E+00
     17.337  0.5670E-01  0.5682E+00
     17.425  0.7144E-01  0.5745E+00
     17.513  0.5684E-01  0.5795E+00
     17.601  0.3991E-01  0.5830E+00
     17.689  0.7588E-01  0.5897E+00
     17.777  0.7970E-01  0.5967E+00
     17.865  0.3654E-01  0.5999E+00
     17.952  0.3998E-01  0.6034E+00
     18.040  0.2741E-01  0.6058E+00
     18.128  0.3617E-01  0.6090E+00
     18.216  0.5587E-01  0.6139E+00
     18.304  0.5274E-01  0.6185E+00
     18.392  0.4194E-01  0.6222E+00
     18.480  0.3314E-01  0.6251E+00
     18.567  0.1847E-01  0.6268E+00
     18.655  0.1965E-01  0.6285E+00
     18.743  0.2772E-01  0.6309E+00
     18.831  0.4052E-01  0.6345E+00
     18.919  0.4104E-01  0.6381E+00
     19.007  0.3028E-01  0.6407E+00
     19.094  0.1756E-01  0.6423E+00
     19.182  0.2514E-01  0.6445E+00
     19.270  0.6284E-01  0.6500E+00
     19.358  0.6377E-01  0.6556E+00
     19.446  0.2279E-01  0.6576E+00
     19.534  0.1085E-01  0.6586E+00
     19.622  0.1003E-01  0.6595E+00
     19.709  0.3556E-02  0.6598E+00
     19.797  0.2435E-02  0.6600E+00
     19.885  0.1799E-03  0.6600E+00
     19.973  0.7559E-07  0.6600E+00
     20.061  0.9044E-13  0.6600E+00
     20.149  0.0000E+00  0.6600E+00
     20.237  0.0000E+00  0.6600E+00
     20.324  0.0000E+00  0.6600E+00
     20.412  0.0000E+00  0.6600E+00
     20.500  0.0000E+00  0.6600E+00
     20.588  0.0000E+00  0.6600E+00
     20.676  0.0000E+00  0.6600E+00
     20.764  0.0000E+00  0.6600E+00
     20.852  0.0000E+00  0.6600E+00
     20.939  0.0000E+00  0.6600E+00
