       N       E                     dE             d eps       ncg     rms          rms(c)
DAV:   1    -0.154155842786E+03   -0.15416E+03   -0.35218E-05  2406   0.172E-02    0.182E-03
DAV:   2    -0.154155842793E+03   -0.75852E-08   -0.82473E-07  1710   0.365E-03
   1 F= -.69714567E+02 E0= -.69714567E+02  d E =-.697146E+02
       N       E                     dE             d eps       ncg     rms          rms(c)
DAV:   1    -0.148080119281E+03    0.60757E+01   -0.13950E+01  2886   0.157E+01    0.391E+00
DAV:   2    -0.147775378781E+03    0.30474E+00   -0.81552E-01  3120   0.296E+00    0.182E+00
DAV:   3    -0.147751819313E+03    0.23559E-01   -0.95073E-02  3072   0.950E-01    0.566E-01
DAV:   4    -0.147747827410E+03    0.39919E-02   -0.59721E-03  3072   0.233E-01    0.183E-01
DAV:   5    -0.147747289264E+03    0.53815E-03   -0.98635E-04  3078   0.993E-02    0.118E-01
DAV:   6    -0.147747250786E+03    0.38478E-04   -0.99956E-05  2964   0.309E-02    0.186E-02
DAV:   7    -0.147747246170E+03    0.46160E-05   -0.20250E-05  1656   0.143E-02
   2 F= -.69270204E+02 E0= -.69270204E+02  d E =0.444363E+00
       N       E                     dE             d eps       ncg     rms          rms(c)
DAV:   1    -0.152348962277E+03   -0.46017E+01   -0.56713E+00  2898   0.971E+00    0.255E+00
DAV:   2    -0.152218407858E+03    0.13055E+00   -0.35537E-01  3066   0.192E+00    0.115E+00
DAV:   3    -0.152209053512E+03    0.93543E-02   -0.38518E-02  3096   0.596E-01    0.366E-01
DAV:   4    -0.152207195118E+03    0.18584E-02   -0.27043E-03  3072   0.153E-01    0.117E-01
DAV:   5    -0.152206882373E+03    0.31275E-03   -0.54617E-04  3060   0.713E-02    0.734E-02
DAV:   6    -0.152206850555E+03    0.31818E-04   -0.60523E-05  2886   0.235E-02    0.151E-02
DAV:   7    -0.152206850947E+03   -0.39197E-06   -0.10987E-05  1626   0.104E-02
   3 F= -.69897292E+02 E0= -.69897292E+02  d E =-.182725E+00
       N       E                     dE             d eps       ncg     rms          rms(c)
DAV:   1    -0.152178445502E+03    0.28405E-01   -0.29280E-04  2850   0.697E-02    0.167E-02
DAV:   2    -0.152178441931E+03    0.35705E-05   -0.14540E-05  1650   0.128E-02
   4 F= -.69897329E+02 E0= -.69897329E+02  d E =-.182762E+00
       N       E                     dE             d eps       ncg     rms          rms(c)
DAV:   1    -0.152174282311E+03    0.41632E-02   -0.28327E-06  1518   0.692E-03    0.475E-03
DAV:   2    -0.152174282845E+03   -0.53418E-06   -0.39253E-07  1500   0.194E-03
   5 F= -.69897330E+02 E0= -.69897330E+02  d E =-.182763E+00
       N       E                     dE             d eps       ncg     rms          rms(c)
DAV:   1    -0.152176018636E+03   -0.17363E-02   -0.14205E-06  1488   0.500E-03    0.103E-03
DAV:   2    -0.152176018607E+03    0.28688E-07   -0.77276E-08  1446   0.112E-03
   6 F= -.69897331E+02 E0= -.69897331E+02  d E =-.182764E+00
       N       E                     dE             d eps       ncg     rms          rms(c)
DAV:   1    -0.152149284331E+03    0.26734E-01   -0.31266E-02  2670   0.675E-01    0.784E-02
DAV:   2    -0.152149145662E+03    0.13867E-03   -0.83840E-04  3228   0.105E-01    0.333E-02
DAV:   3    -0.152149131463E+03    0.14199E-04   -0.79638E-05  3102   0.292E-02    0.168E-02
DAV:   4    -0.152149128862E+03    0.26003E-05   -0.88706E-06  1608   0.994E-03
   7 F= -.69901361E+02 E0= -.69901361E+02  d E =-.403020E-02
       N       E                     dE             d eps       ncg     rms          rms(c)
DAV:   1    -0.152114959108E+03    0.34172E-01   -0.42275E-02  2676   0.785E-01    0.910E-02
DAV:   2    -0.152114773385E+03    0.18572E-03   -0.11266E-03  3216   0.122E-01    0.390E-02
DAV:   3    -0.152114754937E+03    0.18448E-04   -0.10613E-04  3108   0.338E-02    0.198E-02
DAV:   4    -0.152114751838E+03    0.30987E-05   -0.11852E-05  1686   0.115E-02
   8 F= -.69902983E+02 E0= -.69902983E+02  d E =-.565169E-02
