Al4C3 I-43d - H(P) scan @ 60 GPa (ISIF=8
           1
     6.086553    0.000000    0.000000
     0.000000    6.086553    0.000000
     0.000000    0.000000    6.086553
   Al   C 
    16    12
Direct configuration=     1
   0.31351034  0.31351034  0.31351034
   0.18648966  0.68648966  0.81351034
   0.68648966  0.81351034  0.18648966
   0.81351034  0.18648966  0.68648966
   0.56351034  0.56351034  0.56351034
   0.93648966  0.43648966  0.06351034
   0.06351034  0.93648966  0.43648966
   0.43648966  0.06351034  0.93648966
   0.81351034  0.81351034  0.81351034
   0.68648966  0.18648966  0.31351034
   0.18648966  0.31351034  0.68648966
   0.31351034  0.68648966  0.18648966
   0.06351034  0.06351034  0.06351034
   0.43648966  0.93648966  0.56351034
   0.56351034  0.43648966  0.93648966
   0.93648966  0.56351034  0.43648966
   0.37500000  0.00000000  0.25000000
   0.12500000  0.00000000  0.75000000
   0.62500000  0.50000000  0.25000000
   0.87500000  0.50000000  0.75000000
   0.25000000  0.37500000  0.00000000
   0.75000000  0.12500000  0.00000000
   0.25000000  0.62500000  0.50000000
   0.75000000  0.87500000  0.50000000
   0.00000000  0.25000000  0.37500000
   0.00000000  0.75000000  0.12500000
   0.50000000  0.25000000  0.62500000
   0.50000000  0.75000000  0.87500000
Al4C3 I-43d - H(P) scan @ 60 GPa (ISIF=8
           1
     5.939738    0.000000    0.000000
     0.000000    5.939738    0.000000
     0.000000    0.000000    5.939738
   Al   C 
    16    12
Direct configuration=     2
   0.31350928  0.31350928  0.31350928
   0.18649072  0.68649072  0.81350928
   0.68649072  0.81350928  0.18649072
   0.81350928  0.18649072  0.68649072
   0.56350928  0.56350928  0.56350928
   0.93649072  0.43649072  0.06350928
   0.06350928  0.93649072  0.43649072
   0.43649072  0.06350928  0.93649072
   0.81350928  0.81350928  0.81350928
   0.68649072  0.18649072  0.31350928
   0.18649072  0.31350928  0.68649072
   0.31350928  0.68649072  0.18649072
   0.06350928  0.06350928  0.06350928
   0.43649072  0.93649072  0.56350928
   0.56350928  0.43649072  0.93649072
   0.93649072  0.56350928  0.43649072
   0.37500000 -0.00000000  0.25000000
   0.12500000 -0.00000000  0.75000000
   0.62500000  0.50000000  0.25000000
   0.87500000  0.50000000  0.75000000
   0.25000000  0.37500000 -0.00000000
   0.75000000  0.12500000 -0.00000000
   0.25000000  0.62500000  0.50000000
   0.75000000  0.87500000  0.50000000
  -0.00000000  0.25000000  0.37500000
  -0.00000000  0.75000000  0.12500000
   0.50000000  0.25000000  0.62500000
   0.50000000  0.75000000  0.87500000
Al4C3 I-43d - H(P) scan @ 60 GPa (ISIF=8
           1
     6.034897    0.000000    0.000000
     0.000000    6.034897    0.000000
     0.000000    0.000000    6.034897
   Al   C 
    16    12
Direct configuration=     3
   0.31350999  0.31350999  0.31350999
   0.18649001  0.68649001  0.81350999
   0.68649001  0.81350999  0.18649001
   0.81350999  0.18649001  0.68649001
   0.56350999  0.56350999  0.56350999
   0.93649001  0.43649001  0.06350999
   0.06350999  0.93649001  0.43649001
   0.43649001  0.06350999  0.93649001
   0.81350999  0.81350999  0.81350999
   0.68649001  0.18649001  0.31350999
   0.18649001  0.31350999  0.68649001
   0.31350999  0.68649001  0.18649001
   0.06350999  0.06350999  0.06350999
   0.43649001  0.93649001  0.56350999
   0.56350999  0.43649001  0.93649001
   0.93649001  0.56350999  0.43649001
   0.37500000 -0.00000000  0.25000000
   0.12500000 -0.00000000  0.75000000
   0.62500000  0.50000000  0.25000000
   0.87500000  0.50000000  0.75000000
   0.25000000  0.37500000 -0.00000000
   0.75000000  0.12500000 -0.00000000
   0.25000000  0.62500000  0.50000000
   0.75000000  0.87500000  0.50000000
  -0.00000000  0.25000000  0.37500000
  -0.00000000  0.75000000  0.12500000
   0.50000000  0.25000000  0.62500000
   0.50000000  0.75000000  0.87500000
Al4C3 I-43d - H(P) scan @ 60 GPa (ISIF=8
           1
     6.034202    0.000000    0.000000
     0.000000    6.034202    0.000000
     0.000000    0.000000    6.034202
   Al   C 
    16    12
Direct configuration=     4
   0.31350998  0.31350998  0.31350998
   0.18649002  0.68649002  0.81350998
   0.68649002  0.81350998  0.18649002
   0.81350998  0.18649002  0.68649002
   0.56350998  0.56350998  0.56350998
   0.93649002  0.43649002  0.06350998
   0.06350998  0.93649002  0.43649002
   0.43649002  0.06350998  0.93649002
   0.81350998  0.81350998  0.81350998
   0.68649002  0.18649002  0.31350998
   0.18649002  0.31350998  0.68649002
   0.31350998  0.68649002  0.18649002
   0.06350998  0.06350998  0.06350998
   0.43649002  0.93649002  0.56350998
   0.56350998  0.43649002  0.93649002
   0.93649002  0.56350998  0.43649002
   0.37500000 -0.00000000  0.25000000
   0.12500000 -0.00000000  0.75000000
   0.62500000  0.50000000  0.25000000
   0.87500000  0.50000000  0.75000000
   0.25000000  0.37500000 -0.00000000
   0.75000000  0.12500000 -0.00000000
   0.25000000  0.62500000  0.50000000
   0.75000000  0.87500000  0.50000000
  -0.00000000  0.25000000  0.37500000
  -0.00000000  0.75000000  0.12500000
   0.50000000  0.25000000  0.62500000
   0.50000000  0.75000000  0.87500000
Al4C3 I-43d - H(P) scan @ 60 GPa (ISIF=8
           1
     6.034100    0.000000    0.000000
     0.000000    6.034100    0.000000
     0.000000    0.000000    6.034100
   Al   C 
    16    12
Direct configuration=     5
   0.31350998  0.31350998  0.31350998
   0.18649002  0.68649002  0.81350998
   0.68649002  0.81350998  0.18649002
   0.81350998  0.18649002  0.68649002
   0.56350998  0.56350998  0.56350998
   0.93649002  0.43649002  0.06350998
   0.06350998  0.93649002  0.43649002
   0.43649002  0.06350998  0.93649002
   0.81350998  0.81350998  0.81350998
   0.68649002  0.18649002  0.31350998
   0.18649002  0.31350998  0.68649002
   0.31350998  0.68649002  0.18649002
   0.06350998  0.06350998  0.06350998
   0.43649002  0.93649002  0.56350998
   0.56350998  0.43649002  0.93649002
   0.93649002  0.56350998  0.43649002
   0.37500000 -0.00000000  0.25000000
   0.12500000 -0.00000000  0.75000000
   0.62500000  0.50000000  0.25000000
   0.87500000  0.50000000  0.75000000
   0.25000000  0.37500000 -0.00000000
   0.75000000  0.12500000 -0.00000000
   0.25000000  0.62500000  0.50000000
   0.75000000  0.87500000  0.50000000
  -0.00000000  0.25000000  0.37500000
  -0.00000000  0.75000000  0.12500000
   0.50000000  0.25000000  0.62500000
   0.50000000  0.75000000  0.87500000
Al4C3 I-43d - H(P) scan @ 60 GPa (ISIF=8
           1
     6.034143    0.000000    0.000000
     0.000000    6.034143    0.000000
     0.000000    0.000000    6.034143
   Al   C 
    16    12
Direct configuration=     6
   0.31350998  0.31350998  0.31350998
   0.18649002  0.68649002  0.81350998
   0.68649002  0.81350998  0.18649002
   0.81350998  0.18649002  0.68649002
   0.56350998  0.56350998  0.56350998
   0.93649002  0.43649002  0.06350998
   0.06350998  0.93649002  0.43649002
   0.43649002  0.06350998  0.93649002
   0.81350998  0.81350998  0.81350998
   0.68649002  0.18649002  0.31350998
   0.18649002  0.31350998  0.68649002
   0.31350998  0.68649002  0.18649002
   0.06350998  0.06350998  0.06350998
   0.43649002  0.93649002  0.56350998
   0.56350998  0.43649002  0.93649002
   0.93649002  0.56350998  0.43649002
   0.37500000 -0.00000000  0.25000000
   0.12500000 -0.00000000  0.75000000
   0.62500000  0.50000000  0.25000000
   0.87500000  0.50000000  0.75000000
   0.25000000  0.37500000 -0.00000000
   0.75000000  0.12500000 -0.00000000
   0.25000000  0.62500000  0.50000000
   0.75000000  0.87500000  0.50000000
  -0.00000000  0.25000000  0.37500000
  -0.00000000  0.75000000  0.12500000
   0.50000000  0.25000000  0.62500000
   0.50000000  0.75000000  0.87500000
Al4C3 I-43d - H(P) scan @ 60 GPa (ISIF=8
           1
     6.033387    0.000000    0.000000
     0.000000    6.033387    0.000000
     0.000000    0.000000    6.033387
   Al   C 
    16    12
Direct configuration=     7
   0.31386525  0.31386525  0.31386525
   0.18613475  0.68613475  0.81386525
   0.68613475  0.81386525  0.18613475
   0.81386525  0.18613475  0.68613475
   0.56386525  0.56386525  0.56386525
   0.93613475  0.43613475  0.06386525
   0.06386525  0.93613475  0.43613475
   0.43613475  0.06386525  0.93613475
   0.81386525  0.81386525  0.81386525
   0.68613475  0.18613475  0.31386525
   0.18613475  0.31386525  0.68613475
   0.31386525  0.68613475  0.18613475
   0.06386525  0.06386525  0.06386525
   0.43613475  0.93613475  0.56386525
   0.56386525  0.43613475  0.93613475
   0.93613475  0.56386525  0.43613475
   0.37500000  0.00000000  0.25000000
   0.12500000  0.00000000  0.75000000
   0.62500000  0.50000000  0.25000000
   0.87500000  0.50000000  0.75000000
   0.25000000  0.37500000  0.00000000
   0.75000000  0.12500000  0.00000000
   0.25000000  0.62500000  0.50000000
   0.75000000  0.87500000  0.50000000
  -0.00000000  0.25000000  0.37500000
  -0.00000000  0.75000000  0.12500000
   0.50000000  0.25000000  0.62500000
   0.50000000  0.75000000  0.87500000
Al4C3 I-43d - H(P) scan @ 60 GPa (ISIF=8
           1
     6.032506    0.000000    0.000000
     0.000000    6.032506    0.000000
     0.000000    0.000000    6.032506
   Al   C 
    16    12
Direct configuration=     8
   0.31427904  0.31427904  0.31427904
   0.18572096  0.68572096  0.81427904
   0.68572096  0.81427904  0.18572096
   0.81427904  0.18572096  0.68572096
   0.56427904  0.56427904  0.56427904
   0.93572096  0.43572096  0.06427904
   0.06427904  0.93572096  0.43572096
   0.43572096  0.06427904  0.93572096
   0.81427904  0.81427904  0.81427904
   0.68572096  0.18572096  0.31427904
   0.18572096  0.31427904  0.68572096
   0.31427904  0.68572096  0.18572096
   0.06427904  0.06427904  0.06427904
   0.43572096  0.93572096  0.56427904
   0.56427904  0.43572096  0.93572096
   0.93572096  0.56427904  0.43572096
   0.37500000  0.00000000  0.25000000
   0.12500000  0.00000000  0.75000000
   0.62500000  0.50000000  0.25000000
   0.87500000  0.50000000  0.75000000
   0.25000000  0.37500000  0.00000000
   0.75000000  0.12500000  0.00000000
   0.25000000  0.62500000  0.50000000
   0.75000000  0.87500000  0.50000000
  -0.00000000  0.25000000  0.37500000
  -0.00000000  0.75000000  0.12500000
   0.50000000  0.25000000  0.62500000
   0.50000000  0.75000000  0.87500000
