Al4C3 Pnma (POSCAR.IV, symmetrized via s
   1.00000000000000     
     8.2818924636301983    0.0000000000000000    0.0000000000000000
     0.0000000000000000    2.8571023942300542    0.0000000000000000
     0.0000000000000000    0.0000000000000000    9.8448379841010016
   Al   C 
    16    12
Direct
     0.2640283954398577    0.2500000000000000    0.2986369642652852
     0.2359716045601425    0.7500000000000000    0.7986369642652851
     0.7359716045601424    0.7500000000000000    0.7013630357347149
     0.7640283954398576    0.2500000000000000    0.2013630357347149
     0.3479303947951055    0.2500000000000000    0.0124183042497681
     0.1520696052048945    0.7500000000000000    0.5124183042497681
     0.6520696052048947    0.7500000000000000    0.9875816957502319
     0.8479303947951053    0.2500000000000000    0.4875816957502319
     0.5201395154291637    0.2500000000000000    0.7938292433775247
     0.9798604845708363    0.7500000000000000    0.2938292433775246
     0.4798604845708362    0.7500000000000000    0.2061707566224754
     0.0201395154291638    0.2500000000000000    0.7061707566224753
     0.0695125684920284    0.2500000000000000    0.0885184535835504
     0.4304874315079718    0.7500000000000000    0.5885184535835504
     0.9304874315079715    0.7500000000000000    0.9114815464164496
     0.5695125684920285    0.2500000000000000    0.4114815464164496
     0.2595056583102169    0.2500000000000000    0.6419275784457512
     0.2404943416897831    0.7500000000000000    0.1419275784457512
     0.7404943416897829    0.7500000000000000    0.3580724215542487
     0.7595056583102171    0.2500000000000000    0.8580724215542488
     0.6038281768326939    0.2500000000000000    0.6089749533033015
     0.8961718231673061    0.7500000000000000    0.1089749533033014
     0.3961718231673061    0.7500000000000000    0.3910250466966985
     0.1038281768326939    0.2500000000000000    0.8910250466966985
     0.0646129556846691    0.2500000000000000    0.3898742023400152
     0.4353870443153309    0.7500000000000000    0.8898742023400152
     0.9353870443153308    0.7500000000000000    0.6101257976599848
     0.5646129556846692    0.2500000000000000    0.1101257976599848
 
  0.00000000E+00  0.00000000E+00  0.00000000E+00
  0.00000000E+00  0.00000000E+00  0.00000000E+00
  0.00000000E+00  0.00000000E+00  0.00000000E+00
  0.00000000E+00  0.00000000E+00  0.00000000E+00
  0.00000000E+00  0.00000000E+00  0.00000000E+00
  0.00000000E+00  0.00000000E+00  0.00000000E+00
  0.00000000E+00  0.00000000E+00  0.00000000E+00
  0.00000000E+00  0.00000000E+00  0.00000000E+00
  0.00000000E+00  0.00000000E+00  0.00000000E+00
  0.00000000E+00  0.00000000E+00  0.00000000E+00
  0.00000000E+00  0.00000000E+00  0.00000000E+00
  0.00000000E+00  0.00000000E+00  0.00000000E+00
  0.00000000E+00  0.00000000E+00  0.00000000E+00
  0.00000000E+00  0.00000000E+00  0.00000000E+00
  0.00000000E+00  0.00000000E+00  0.00000000E+00
  0.00000000E+00  0.00000000E+00  0.00000000E+00
  0.00000000E+00  0.00000000E+00  0.00000000E+00
  0.00000000E+00  0.00000000E+00  0.00000000E+00
  0.00000000E+00  0.00000000E+00  0.00000000E+00
  0.00000000E+00  0.00000000E+00  0.00000000E+00
  0.00000000E+00  0.00000000E+00  0.00000000E+00
  0.00000000E+00  0.00000000E+00  0.00000000E+00
  0.00000000E+00  0.00000000E+00  0.00000000E+00
  0.00000000E+00  0.00000000E+00  0.00000000E+00
  0.00000000E+00  0.00000000E+00  0.00000000E+00
  0.00000000E+00  0.00000000E+00  0.00000000E+00
  0.00000000E+00  0.00000000E+00  0.00000000E+00
  0.00000000E+00  0.00000000E+00  0.00000000E+00
