  28  28   0   0
  0.9944317E+01  0.8789266E-09  0.3032137E-09  0.1044796E-08  0.5000000E-15
  1.000000000000000E-004
  CAR 
 Al4C3 Pnma (POSCAR.IV) - relax @ 50 GPa 
     20.16942972     -5.79292078  301     12.29688781      1.00000000
     -5.793  0.0000E+00  0.0000E+00
     -5.706  0.0000E+00  0.0000E+00
     -5.620  0.0000E+00  0.0000E+00
     -5.533  0.0000E+00  0.0000E+00
     -5.447  0.0000E+00  0.0000E+00
     -5.360  0.0000E+00  0.0000E+00
     -5.274  0.0000E+00  0.0000E+00
     -5.187  0.0000E+00  0.0000E+00
     -5.101  0.0000E+00  0.0000E+00
     -5.014  0.0000E+00  0.0000E+00
     -4.928  0.0000E+00  0.0000E+00
     -4.841  0.2146E-14  0.1857E-15
     -4.754  0.2252E-08  0.1949E-09
     -4.668  0.1112E-04  0.9626E-06
     -4.581  0.6447E-03  0.5676E-04
     -4.495  0.2632E-02  0.2845E-03
     -4.408  0.4067E-02  0.6365E-03
     -4.322  0.5099E-02  0.1078E-02
     -4.235  0.5970E-02  0.1594E-02
     -4.149  0.6757E-02  0.2179E-02
     -4.062  0.7505E-02  0.2829E-02
     -3.976  0.8295E-02  0.3547E-02
     -3.889  0.9225E-02  0.4345E-02
     -3.802  0.9314E-02  0.5151E-02
     -3.716  0.8986E-02  0.5929E-02
     -3.629  0.9554E-02  0.6755E-02
     -3.543  0.1034E-01  0.7650E-02
     -3.456  0.1094E-01  0.8597E-02
     -3.370  0.1156E-01  0.9598E-02
     -3.283  0.1237E-01  0.1067E-01
     -3.197  0.1269E-01  0.1177E-01
     -3.110  0.1277E-01  0.1287E-01
     -3.024  0.1318E-01  0.1401E-01
     -2.937  0.1383E-01  0.1521E-01
     -2.851  0.1443E-01  0.1646E-01
     -2.764  0.1453E-01  0.1771E-01
     -2.677  0.1470E-01  0.1899E-01
     -2.591  0.1495E-01  0.2028E-01
     -2.504  0.1565E-01  0.2164E-01
     -2.418  0.1624E-01  0.2304E-01
     -2.331  0.1634E-01  0.2446E-01
     -2.245  0.1700E-01  0.2593E-01
     -2.158  0.1750E-01  0.2744E-01
     -2.072  0.1794E-01  0.2899E-01
     -1.985  0.1828E-01  0.3058E-01
     -1.899  0.1890E-01  0.3221E-01
     -1.812  0.1946E-01  0.3389E-01
     -1.725  0.2027E-01  0.3565E-01
     -1.639  0.2102E-01  0.3747E-01
     -1.552  0.2117E-01  0.3930E-01
     -1.466  0.2122E-01  0.4114E-01
     -1.379  0.2162E-01  0.4301E-01
     -1.293  0.2278E-01  0.4498E-01
     -1.206  0.2349E-01  0.4701E-01
     -1.120  0.2302E-01  0.4900E-01
     -1.033  0.2388E-01  0.5107E-01
     -0.947  0.2538E-01  0.5327E-01
     -0.860  0.2689E-01  0.5559E-01
     -0.774  0.2800E-01  0.5802E-01
     -0.687  0.2826E-01  0.6046E-01
     -0.600  0.2890E-01  0.6296E-01
     -0.514  0.3139E-01  0.6568E-01
     -0.427  0.3444E-01  0.6866E-01
     -0.341  0.3530E-01  0.7172E-01
     -0.254  0.3697E-01  0.7492E-01
     -0.168  0.4133E-01  0.7849E-01
     -0.081  0.4442E-01  0.8234E-01
      0.005  0.4792E-01  0.8648E-01
      0.092  0.4691E-01  0.9054E-01
      0.178  0.3729E-01  0.9377E-01
      0.265  0.3062E-01  0.9642E-01
      0.352  0.2687E-01  0.9875E-01
      0.438  0.2572E-01  0.1010E+00
      0.525  0.2138E-01  0.1028E+00
      0.611  0.1665E-01  0.1043E+00
      0.698  0.1607E-01  0.1057E+00
      0.784  0.1569E-01  0.1070E+00
      0.871  0.1603E-01  0.1084E+00
      0.957  0.1748E-01  0.1099E+00
      1.044  0.1571E-01  0.1113E+00
      1.130  0.1431E-01  0.1125E+00
      1.217  0.1313E-01  0.1136E+00
      1.303  0.1154E-01  0.1146E+00
      1.390  0.1052E-01  0.1156E+00
      1.477  0.1033E-01  0.1164E+00
      1.563  0.1000E-01  0.1173E+00
      1.650  0.9200E-02  0.1181E+00
      1.736  0.8710E-02  0.1189E+00
      1.823  0.7972E-02  0.1196E+00
      1.909  0.4609E-02  0.1200E+00
      1.996  0.5655E-03  0.1200E+00
      2.082  0.2421E-05  0.1200E+00
      2.169  0.7949E-10  0.1200E+00
      2.255  0.8828E-13  0.1200E+00
      2.342  0.1892E-07  0.1200E+00
      2.428  0.2471E-04  0.1200E+00
      2.515  0.7130E-03  0.1201E+00
      2.602  0.2976E-02  0.1203E+00
      2.688  0.4670E-02  0.1207E+00
      2.775  0.5694E-02  0.1212E+00
      2.861  0.7001E-02  0.1218E+00
      2.948  0.9607E-02  0.1227E+00
      3.034  0.1369E-01  0.1238E+00
      3.121  0.2139E-01  0.1257E+00
      3.207  0.2605E-01  0.1279E+00
      3.294  0.2565E-01  0.1302E+00
      3.380  0.3043E-01  0.1328E+00
      3.467  0.3479E-01  0.1358E+00
      3.554  0.3113E-01  0.1385E+00
      3.640  0.3202E-01  0.1413E+00
      3.727  0.3535E-01  0.1443E+00
      3.813  0.3675E-01  0.1475E+00
      3.900  0.3739E-01  0.1507E+00
      3.986  0.3954E-01  0.1542E+00
      4.073  0.4068E-01  0.1577E+00
      4.159  0.3996E-01  0.1612E+00
      4.246  0.3748E-01  0.1644E+00
      4.332  0.3489E-01  0.1674E+00
      4.419  0.3390E-01  0.1703E+00
      4.505  0.3306E-01  0.1732E+00
      4.592  0.3571E-01  0.1763E+00
      4.679  0.3730E-01  0.1795E+00
      4.765  0.3475E-01  0.1825E+00
      4.852  0.3189E-01  0.1853E+00
      4.938  0.3263E-01  0.1881E+00
      5.025  0.3444E-01  0.1911E+00
      5.111  0.3467E-01  0.1941E+00
      5.198  0.3559E-01  0.1972E+00
      5.284  0.3786E-01  0.2005E+00
      5.371  0.3826E-01  0.2038E+00
      5.457  0.3669E-01  0.2069E+00
      5.544  0.3370E-01  0.2099E+00
      5.631  0.3252E-01  0.2127E+00
      5.717  0.3261E-01  0.2155E+00
      5.804  0.3352E-01  0.2184E+00
      5.890  0.3389E-01  0.2213E+00
      5.977  0.3674E-01  0.2245E+00
      6.063  0.3700E-01  0.2277E+00
      6.150  0.3657E-01  0.2309E+00
      6.236  0.3741E-01  0.2341E+00
      6.323  0.3721E-01  0.2373E+00
      6.409  0.3755E-01  0.2406E+00
      6.496  0.4046E-01  0.2441E+00
      6.582  0.4325E-01  0.2478E+00
      6.669  0.4517E-01  0.2517E+00
      6.756  0.4445E-01  0.2556E+00
      6.842  0.4168E-01  0.2592E+00
      6.929  0.4087E-01  0.2627E+00
      7.015  0.3983E-01  0.2662E+00
      7.102  0.4140E-01  0.2698E+00
      7.188  0.4296E-01  0.2735E+00
      7.275  0.4539E-01  0.2774E+00
      7.361  0.4544E-01  0.2813E+00
      7.448  0.4201E-01  0.2850E+00
      7.534  0.4212E-01  0.2886E+00
      7.621  0.4066E-01  0.2921E+00
      7.708  0.3904E-01  0.2955E+00
      7.794  0.3948E-01  0.2989E+00
      7.881  0.4065E-01  0.3024E+00
      7.967  0.4079E-01  0.3060E+00
      8.054  0.4301E-01  0.3097E+00
      8.140  0.4156E-01  0.3133E+00
      8.227  0.3991E-01  0.3168E+00
      8.313  0.4081E-01  0.3203E+00
      8.400  0.4410E-01  0.3241E+00
      8.486  0.4433E-01  0.3279E+00
      8.573  0.4454E-01  0.3318E+00
      8.659  0.4352E-01  0.3356E+00
      8.746  0.4560E-01  0.3395E+00
      8.833  0.4317E-01  0.3432E+00
      8.919  0.4439E-01  0.3471E+00
      9.006  0.4869E-01  0.3513E+00
      9.092  0.4949E-01  0.3556E+00
      9.179  0.4781E-01  0.3597E+00
      9.265  0.4852E-01  0.3639E+00
      9.352  0.4823E-01  0.3681E+00
      9.438  0.4533E-01  0.3720E+00
      9.525  0.4332E-01  0.3758E+00
      9.611  0.4702E-01  0.3798E+00
      9.698  0.5205E-01  0.3843E+00
      9.784  0.5580E-01  0.3892E+00
      9.871  0.5612E-01  0.3940E+00
      9.958  0.5676E-01  0.3989E+00
     10.044  0.5985E-01  0.4041E+00
     10.131  0.6199E-01  0.4095E+00
     10.217  0.6315E-01  0.4149E+00
     10.304  0.6647E-01  0.4207E+00
     10.390  0.6792E-01  0.4266E+00
     10.477  0.6876E-01  0.4325E+00
     10.563  0.6985E-01  0.4386E+00
     10.650  0.6742E-01  0.4444E+00
     10.736  0.5860E-01  0.4495E+00
     10.823  0.5314E-01  0.4541E+00
     10.910  0.4902E-01  0.4583E+00
     10.996  0.4225E-01  0.4620E+00
     11.083  0.3370E-01  0.4649E+00
     11.169  0.2885E-01  0.4674E+00
     11.256  0.2590E-01  0.4696E+00
     11.342  0.2250E-01  0.4716E+00
     11.429  0.2019E-01  0.4733E+00
     11.515  0.1901E-01  0.4750E+00
     11.602  0.1976E-01  0.4767E+00
     11.688  0.1530E-01  0.4780E+00
     11.775  0.9352E-02  0.4788E+00
     11.861  0.6604E-02  0.4794E+00
     11.948  0.4476E-02  0.4798E+00
     12.035  0.2336E-02  0.4800E+00
     12.121  0.3544E-03  0.4800E+00
     12.208  0.2498E-05  0.4800E+00
     12.294  0.1600E-09  0.4800E+00
     12.381  0.4573E-16  0.4800E+00
     12.467  0.0000E+00  0.4800E+00
     12.554  0.0000E+00  0.4800E+00
     12.640  0.2313E-17  0.4800E+00
     12.727  0.2415E-10  0.4800E+00
     12.813  0.1004E-05  0.4800E+00
     12.900  0.3066E-03  0.4800E+00
     12.987  0.2921E-02  0.4803E+00
     13.073  0.5689E-02  0.4808E+00
     13.160  0.8423E-02  0.4815E+00
     13.246  0.1168E-01  0.4825E+00
     13.333  0.1543E-01  0.4838E+00
     13.419  0.2097E-01  0.4857E+00
     13.506  0.1910E-01  0.4873E+00
     13.592  0.1638E-01  0.4887E+00
     13.679  0.1497E-01  0.4900E+00
     13.765  0.1411E-01  0.4912E+00
     13.852  0.1413E-01  0.4925E+00
     13.938  0.1664E-01  0.4939E+00
     14.025  0.2053E-01  0.4957E+00
     14.112  0.2465E-01  0.4978E+00
     14.198  0.2627E-01  0.5001E+00
     14.285  0.2615E-01  0.5024E+00
     14.371  0.2771E-01  0.5048E+00
     14.458  0.3004E-01  0.5074E+00
     14.544  0.3247E-01  0.5102E+00
     14.631  0.3176E-01  0.5129E+00
     14.717  0.3030E-01  0.5155E+00
     14.804  0.2836E-01  0.5180E+00
     14.890  0.2655E-01  0.5203E+00
     14.977  0.2266E-01  0.5222E+00
     15.064  0.1882E-01  0.5239E+00
     15.150  0.1596E-01  0.5253E+00
     15.237  0.1601E-01  0.5266E+00
     15.323  0.1748E-01  0.5282E+00
     15.410  0.2061E-01  0.5299E+00
     15.496  0.2412E-01  0.5320E+00
     15.583  0.2613E-01  0.5343E+00
     15.669  0.3004E-01  0.5369E+00
     15.756  0.3551E-01  0.5400E+00
     15.842  0.4364E-01  0.5437E+00
     15.929  0.4579E-01  0.5477E+00
     16.015  0.4053E-01  0.5512E+00
     16.102  0.3866E-01  0.5546E+00
     16.189  0.3839E-01  0.5579E+00
     16.275  0.3754E-01  0.5611E+00
     16.362  0.3849E-01  0.5645E+00
     16.448  0.3966E-01  0.5679E+00
     16.535  0.4286E-01  0.5716E+00
     16.621  0.4223E-01  0.5753E+00
     16.708  0.4031E-01  0.5787E+00
     16.794  0.4032E-01  0.5822E+00
     16.881  0.3779E-01  0.5855E+00
     16.967  0.3559E-01  0.5886E+00
     17.054  0.3693E-01  0.5918E+00
     17.140  0.3708E-01  0.5950E+00
     17.227  0.3859E-01  0.5983E+00
     17.314  0.3768E-01  0.6016E+00
     17.400  0.3261E-01  0.6044E+00
     17.487  0.3020E-01  0.6070E+00
     17.573  0.2998E-01  0.6096E+00
     17.660  0.2749E-01  0.6120E+00
     17.746  0.2576E-01  0.6142E+00
     17.833  0.2723E-01  0.6166E+00
     17.919  0.2551E-01  0.6188E+00
     18.006  0.2267E-01  0.6208E+00
     18.092  0.2344E-01  0.6228E+00
     18.179  0.2709E-01  0.6251E+00
     18.266  0.2684E-01  0.6274E+00
     18.352  0.2652E-01  0.6297E+00
     18.439  0.2690E-01  0.6321E+00
     18.525  0.2504E-01  0.6342E+00
     18.612  0.2243E-01  0.6362E+00
     18.698  0.2161E-01  0.6380E+00
     18.785  0.1446E-01  0.6393E+00
     18.871  0.6367E-02  0.6399E+00
     18.958  0.1574E-02  0.6400E+00
     19.044  0.1375E-03  0.6400E+00
     19.131  0.1713E-05  0.6400E+00
     19.217  0.4749E-09  0.6400E+00
     19.304  0.7396E-15  0.6400E+00
     19.391  0.0000E+00  0.6400E+00
     19.477  0.0000E+00  0.6400E+00
     19.564  0.0000E+00  0.6400E+00
     19.650  0.0000E+00  0.6400E+00
     19.737  0.0000E+00  0.6400E+00
     19.823  0.0000E+00  0.6400E+00
     19.910  0.0000E+00  0.6400E+00
     19.996  0.0000E+00  0.6400E+00
     20.083  0.0000E+00  0.6400E+00
     20.169  0.0000E+00  0.6400E+00
