       N       E                     dE             d eps       ncg     rms          rms(c)
DAV:   1     0.301149708563E+03    0.30115E+03   -0.45455E+04658944   0.149E+03
DAV:   2    -0.153990023098E+03   -0.45514E+03   -0.43093E+03834040   0.230E+02
DAV:   3    -0.188215962539E+03   -0.34226E+02   -0.33803E+02806704   0.601E+01
DAV:   4    -0.188980332764E+03   -0.76437E+00   -0.76085E+00792240   0.968E+00
DAV:   5    -0.188998924024E+03   -0.18591E-01   -0.18571E-01785568   0.149E+00    0.242E+01
DAV:   6    -0.166655589475E+03    0.22343E+02   -0.79340E+01768832   0.247E+01    0.745E+00
DAV:   7    -0.166408051999E+03    0.24754E+00   -0.51970E+00818616   0.711E+00    0.506E+00
DAV:   8    -0.166294503619E+03    0.11355E+00   -0.35792E-01765624   0.232E+00    0.107E+00
DAV:   9    -0.166281390176E+03    0.13113E-01   -0.65219E-02786832   0.944E-01    0.454E-01
DAV:  10    -0.166280161693E+03    0.12285E-02   -0.22243E-02776856   0.512E-01    0.212E-01
DAV:  11    -0.166280338012E+03   -0.17632E-03   -0.30295E-03776432   0.197E-01    0.164E-01
DAV:  12    -0.166280417183E+03   -0.79171E-04   -0.94854E-04779272   0.939E-02    0.701E-02
DAV:  13    -0.166280263918E+03    0.15327E-03   -0.73627E-04772568   0.899E-02    0.210E-02
DAV:  14    -0.166280270889E+03   -0.69708E-05   -0.94848E-05740208   0.355E-02
   1 F= -.79385749E+02 E0= -.79385749E+02  d E =-.793857E+02
       N       E                     dE             d eps       ncg     rms          rms(c)
DAV:   1    -0.132101376393E+03    0.34179E+02   -0.55126E+02710464   0.113E+02    0.240E+01
DAV:   2    -0.121461593133E+03    0.10640E+02   -0.29106E+01769800   0.193E+01    0.122E+01
DAV:   3    -0.120129635678E+03    0.13320E+01   -0.61977E+00764120   0.811E+00    0.295E+00
DAV:   4    -0.120014601691E+03    0.11503E+00   -0.29626E-01753856   0.188E+00    0.127E+00
DAV:   5    -0.119988494678E+03    0.26107E-01   -0.13226E-02765136   0.476E-01    0.813E-01
DAV:   6    -0.119984535445E+03    0.39592E-02   -0.37974E-03756960   0.234E-01    0.103E-01
DAV:   7    -0.119984461570E+03    0.73875E-04   -0.42339E-04760984   0.893E-02    0.427E-02
DAV:   8    -0.119984457456E+03    0.41139E-05   -0.12680E-04761608   0.447E-02    0.241E-02
DAV:   9    -0.119984455951E+03    0.15051E-05   -0.12073E-05451272   0.177E-02
   2 F= -.63790835E+02 E0= -.63790835E+02  d E =0.155949E+02
       N       E                     dE             d eps       ncg     rms          rms(c)
DAV:   1    -0.166024796033E+03   -0.46040E+02   -0.18474E+02722816   0.547E+01    0.154E+01
DAV:   2    -0.161214231335E+03    0.48106E+01   -0.13118E+01770168   0.118E+01    0.689E+00
DAV:   3    -0.160827171800E+03    0.38706E+00   -0.21834E+00759128   0.444E+00    0.206E+00
DAV:   4    -0.160769709821E+03    0.57462E-01   -0.20662E-01772760   0.140E+00    0.686E-01
DAV:   5    -0.160759403400E+03    0.10306E-01   -0.26599E-02769624   0.528E-01    0.378E-01
DAV:   6    -0.160757747706E+03    0.16557E-02   -0.44205E-03768416   0.222E-01    0.131E-01
DAV:   7    -0.160757514461E+03    0.23324E-03   -0.44256E-04846456   0.897E-02    0.538E-02
DAV:   8    -0.160757483270E+03    0.31191E-04   -0.13671E-04754616   0.443E-02    0.131E-02
DAV:   9    -0.160757485108E+03   -0.18373E-05   -0.16000E-05445696   0.169E-02
   3 F= -.86011147E+02 E0= -.86011147E+02  d E =-.662540E+01
       N       E                     dE             d eps       ncg     rms          rms(c)
DAV:   1    -0.160018369067E+03    0.73911E+00   -0.29999E-01731920   0.231E+00    0.572E-01
DAV:   2    -0.160011277974E+03    0.70911E-02   -0.20061E-02761424   0.459E-01    0.257E-01
DAV:   3    -0.160010765827E+03    0.51215E-03   -0.29299E-03762592   0.166E-01    0.786E-02
DAV:   4    -0.160010699624E+03    0.66203E-04   -0.22725E-04771768   0.469E-02    0.278E-02
DAV:   5    -0.160010695459E+03    0.41649E-05   -0.28862E-05522432   0.181E-02
   4 F= -.86056944E+02 E0= -.86056944E+02  d E =-.667119E+01
       N       E                     dE             d eps       ncg     rms          rms(c)
DAV:   1    -0.159809986575E+03    0.20071E+00   -0.20039E-02737168   0.595E-01    0.146E-01
DAV:   2    -0.159809532677E+03    0.45390E-03   -0.13146E-03763456   0.118E-01    0.635E-02
DAV:   3    -0.159809506442E+03    0.26235E-04   -0.19544E-04764128   0.427E-02    0.185E-02
DAV:   4    -0.159809504995E+03    0.14468E-05   -0.13624E-05438760   0.119E-02
   5 F= -.86058997E+02 E0= -.86058997E+02  d E =-.667325E+01
       N       E                     dE             d eps       ncg     rms          rms(c)
DAV:   1    -0.159731398417E+03    0.78108E-01   -0.23285E+01658944   0.200E+01    0.113E+00
DAV:   2    -0.159722026061E+03    0.93724E-02   -0.47756E-01783288   0.267E+00    0.636E-01
DAV:   3    -0.159710868590E+03    0.11157E-01   -0.30176E-02806384   0.738E-01    0.345E-01
DAV:   4    -0.159710171963E+03    0.69663E-03   -0.11633E-02768464   0.370E-01    0.127E-01
DAV:   5    -0.159710112983E+03    0.58980E-04   -0.14104E-03782792   0.136E-01    0.449E-02
DAV:   6    -0.159710121948E+03   -0.89651E-05   -0.24444E-04754288   0.554E-02    0.260E-02
DAV:   7    -0.159710119673E+03    0.22750E-05   -0.24103E-05537768   0.214E-02
   6 F= -.86351030E+02 E0= -.86351030E+02  d E =-.292033E+00
       N       E                     dE             d eps       ncg     rms          rms(c)
DAV:   1    -0.159573001720E+03    0.13712E+00   -0.44480E+00659344   0.875E+00    0.463E-01
DAV:   2    -0.159571287872E+03    0.17138E-02   -0.88308E-02783736   0.115E+00    0.276E-01
DAV:   3    -0.159569061688E+03    0.22262E-02   -0.60285E-03799976   0.329E-01    0.133E-01
DAV:   4    -0.159568975045E+03    0.86643E-04   -0.22278E-03770456   0.162E-01    0.534E-02
DAV:   5    -0.159568970372E+03    0.46727E-05   -0.25413E-04783392   0.572E-02    0.215E-02
DAV:   6    -0.159568971270E+03   -0.89780E-06   -0.40699E-05570136   0.234E-02
   7 F= -.86380449E+02 E0= -.86380449E+02  d E =-.321452E+00
       N       E                     dE             d eps       ncg     rms          rms(c)
DAV:   1    -0.159706247823E+03   -0.13728E+00   -0.16585E+01658944   0.168E+01    0.793E-01
DAV:   2    -0.159701663947E+03    0.45839E-02   -0.34233E-01767080   0.227E+00    0.504E-01
DAV:   3    -0.159694517944E+03    0.71460E-02   -0.21602E-02784000   0.615E-01    0.252E-01
DAV:   4    -0.159694355063E+03    0.16288E-03   -0.81911E-03781448   0.293E-01    0.101E-01
DAV:   5    -0.159694362181E+03   -0.71185E-05   -0.44888E-04805504   0.818E-02    0.369E-02
DAV:   6    -0.159694363353E+03   -0.11713E-05   -0.79387E-05746016   0.328E-02
   8 F= -.86502628E+02 E0= -.86502628E+02  d E =-.122179E+00
       N       E                     dE             d eps       ncg     rms          rms(c)
DAV:   1    -0.159695741099E+03   -0.13789E-02   -0.15979E-01668608   0.165E+00    0.744E-02
DAV:   2    -0.159695692617E+03    0.48482E-04   -0.32148E-03768784   0.220E-01    0.475E-02
DAV:   3    -0.159695623754E+03    0.68864E-04   -0.20922E-04780376   0.609E-02    0.212E-02
DAV:   4    -0.159695623515E+03    0.23880E-06   -0.78371E-05603832   0.287E-02
   9 F= -.86503572E+02 E0= -.86503572E+02  d E =-.123123E+00
       N       E                     dE             d eps       ncg     rms          rms(c)
DAV:   1    -0.159488291313E+03    0.20733E+00   -0.89722E+00659400   0.128E+01    0.614E-01
DAV:   2    -0.159492966046E+03   -0.46747E-02   -0.21440E-01789560   0.180E+00    0.415E-01
DAV:   3    -0.159489383557E+03    0.35825E-02   -0.11284E-02792200   0.443E-01    0.239E-01
DAV:   4    -0.159488586512E+03    0.79704E-03   -0.75087E-03781968   0.298E-01    0.872E-02
DAV:   5    -0.159488546049E+03    0.40463E-04   -0.61266E-04804952   0.100E-01    0.549E-02
DAV:   6    -0.159488555062E+03   -0.90127E-05   -0.36016E-04784664   0.686E-02    0.217E-02
DAV:   7    -0.159488551089E+03    0.39729E-05   -0.39651E-05680800   0.264E-02
  10 F= -.86550289E+02 E0= -.86550289E+02  d E =-.467166E-01
       N       E                     dE             d eps       ncg     rms          rms(c)
DAV:   1    -0.159544217743E+03   -0.55663E-01   -0.38204E-01662072   0.264E+00    0.122E-01
DAV:   2    -0.159544416182E+03   -0.19844E-03   -0.89725E-03789136   0.369E-01    0.869E-02
DAV:   3    -0.159544258319E+03    0.15786E-03   -0.48419E-04789808   0.912E-02    0.494E-02
DAV:   4    -0.159544222199E+03    0.36120E-04   -0.32050E-04782040   0.616E-02    0.178E-02
DAV:   5    -0.159544220206E+03    0.19931E-05   -0.25599E-05536120   0.209E-02
  11 F= -.86553695E+02 E0= -.86553695E+02  d E =-.501222E-01
       N       E                     dE             d eps       ncg     rms          rms(c)
DAV:   1    -0.159536739582E+03    0.74826E-02   -0.28346E+00659000   0.713E+00    0.291E-01
DAV:   2    -0.159538292544E+03   -0.15530E-02   -0.46487E-02787768   0.833E-01    0.191E-01
DAV:   3    -0.159537440094E+03    0.85245E-03   -0.22329E-03807648   0.205E-01    0.104E-01
DAV:   4    -0.159537336793E+03    0.10330E-03   -0.11775E-03781360   0.124E-01    0.440E-02
DAV:   5    -0.159537340271E+03   -0.34775E-05   -0.12311E-04774976   0.421E-02    0.187E-02
DAV:   6    -0.159537342017E+03   -0.17464E-05   -0.14399E-05452664   0.148E-02
  12 F= -.86588802E+02 E0= -.86588802E+02  d E =-.351077E-01
       N       E                     dE             d eps       ncg     rms          rms(c)
DAV:   1    -0.159514853966E+03    0.22486E-01   -0.13983E+00659176   0.501E+00    0.204E-01
DAV:   2    -0.159515613540E+03   -0.75957E-03   -0.22856E-02787680   0.584E-01    0.134E-01
DAV:   3    -0.159515198277E+03    0.41526E-03   -0.10857E-03806312   0.143E-01    0.729E-02
DAV:   4    -0.159515149011E+03    0.49265E-04   -0.58271E-04781824   0.874E-02    0.305E-02
DAV:   5    -0.159515150874E+03   -0.18624E-05   -0.60686E-05651824   0.301E-02
  13 F= -.86596076E+02 E0= -.86596076E+02  d E =-.423817E-01
       N       E                     dE             d eps       ncg     rms          rms(c)
DAV:   1    -0.159602840840E+03   -0.87692E-01   -0.48559E+00658944   0.921E+00    0.362E-01
DAV:   2    -0.159604100173E+03   -0.12593E-02   -0.63201E-02788824   0.100E+00    0.230E-01
DAV:   3    -0.159602403448E+03    0.16967E-02   -0.46807E-03797624   0.293E-01    0.980E-02
DAV:   4    -0.159602352372E+03    0.51076E-04   -0.16617E-03780096   0.140E-01    0.572E-02
DAV:   5    -0.159602358049E+03   -0.56772E-05   -0.20712E-04775920   0.498E-02    0.237E-02
DAV:   6    -0.159602357505E+03    0.54395E-06   -0.91907E-06450936   0.143E-02
  14 F= -.86625429E+02 E0= -.86625429E+02  d E =-.293532E-01
       N       E                     dE             d eps       ncg     rms          rms(c)
DAV:   1    -0.159651063192E+03   -0.48705E-01   -0.25564E+00659144   0.669E+00    0.259E-01
DAV:   2    -0.159651743227E+03   -0.68004E-03   -0.33033E-02788848   0.724E-01    0.165E-01
DAV:   3    -0.159650845911E+03    0.89732E-03   -0.24040E-03797416   0.211E-01    0.676E-02
DAV:   4    -0.159650826412E+03    0.19498E-04   -0.87932E-04780024   0.101E-01    0.401E-02
DAV:   5    -0.159650829103E+03   -0.26901E-05   -0.99924E-05744888   0.348E-02
  15 F= -.86631903E+02 E0= -.86631903E+02  d E =-.358266E-01
       N       E                     dE             d eps       ncg     rms          rms(c)
DAV:   1    -0.159458144776E+03    0.19268E+00   -0.33156E+00659216   0.768E+00    0.374E-01
DAV:   2    -0.159457839662E+03    0.30511E-03   -0.47218E-02784384   0.860E-01    0.200E-01
DAV:   3    -0.159456506785E+03    0.13329E-02   -0.42590E-03784192   0.265E-01    0.736E-02
DAV:   4    -0.159456534546E+03   -0.27761E-04   -0.11352E-03804056   0.108E-01    0.430E-02
DAV:   5    -0.159456541493E+03   -0.69468E-05   -0.81432E-05750624   0.327E-02
  16 F= -.86654630E+02 E0= -.86654630E+02  d E =-.227270E-01
       N       E                     dE             d eps       ncg     rms          rms(c)
DAV:   1    -0.159355997294E+03    0.10054E+00   -0.76073E-01660608   0.368E+00    0.177E-01
DAV:   2    -0.159355943110E+03    0.54184E-04   -0.10747E-02784616   0.411E-01    0.971E-02
DAV:   3    -0.159355637887E+03    0.30522E-03   -0.99949E-04783512   0.128E-01    0.349E-02
DAV:   4    -0.159355647605E+03   -0.97174E-05   -0.26039E-04768704   0.514E-02    0.211E-02
DAV:   5    -0.159355649615E+03   -0.20106E-05   -0.17558E-05482952   0.159E-02
  17 F= -.86657495E+02 E0= -.86657495E+02  d E =-.255921E-01
       N       E                     dE             d eps       ncg     rms          rms(c)
