Al4C3 Pnma (POSCAR.IV) - relax @ 50 GPa 
           1
     8.789266    0.000000    0.000000
     0.000000    3.032137    0.000000
     0.000000    0.000000   10.447962
   Al   C 
    16    12
Direct configuration=     1
   0.27299392  0.25000000  0.30602917
   0.22700608  0.75000000  0.80602917
   0.72700608  0.75000000  0.69397083
   0.77299392  0.25000000  0.19397083
   0.36043712  0.25000000  0.01797233
   0.13956288  0.75000000  0.51797233
   0.63956288  0.75000000  0.98202767
   0.86043712  0.25000000  0.48202767
   0.51685268  0.25000000  0.79510426
   0.98314732  0.75000000  0.29510426
   0.48314732  0.75000000  0.20489574
   0.01685268  0.25000000  0.70489574
   0.08001881  0.25000000  0.08427740
   0.41998119  0.75000000  0.58427740
   0.91998119  0.75000000  0.91572260
   0.58001881  0.25000000  0.41572260
   0.24612922  0.25000000  0.63902253
   0.25387078  0.75000000  0.13902253
   0.75387078  0.75000000  0.36097747
   0.74612922  0.25000000  0.86097747
   0.58831656  0.25000000  0.61316323
   0.91168344  0.75000000  0.11316323
   0.41168344  0.75000000  0.38683677
   0.08831656  0.25000000  0.88683677
   0.07180615  0.25000000  0.38706353
   0.42819385  0.75000000  0.88706353
   0.92819385  0.75000000  0.61293647
   0.57180615  0.25000000  0.11293647
Al4C3 Pnma (POSCAR.IV) - relax @ 50 GPa 
           1
     7.600651    0.000000    0.000000
     0.000000    2.622087    0.000000
     0.000000    0.000000    9.035034
   Al   C 
    16    12
Direct configuration=     2
   0.27287008  0.25000000  0.30609389
   0.22712992  0.75000000  0.80609389
   0.72712992  0.75000000  0.69390611
   0.77287008  0.25000000  0.19390611
   0.36012029  0.25000000  0.01779734
   0.13987971  0.75000000  0.51779734
   0.63987971  0.75000000  0.98220266
   0.86012029  0.25000000  0.48220266
   0.51655359  0.25000000  0.79486739
   0.98344641  0.75000000  0.29486739
   0.48344641  0.75000000  0.20513261
   0.01655359  0.25000000  0.70513261
   0.08014700  0.25000000  0.08416442
   0.41985300  0.75000000  0.58416442
   0.91985300  0.75000000  0.91583558
   0.58014700  0.25000000  0.41583558
   0.24657617  0.25000000  0.63905218
   0.25342383  0.75000000  0.13905218
   0.75342383  0.75000000  0.36094782
   0.74657617  0.25000000  0.86094782
   0.58865342  0.25000000  0.61308630
   0.91134658  0.75000000  0.11308630
   0.41134658  0.75000000  0.38691370
   0.08865342  0.25000000  0.88691370
   0.07193949  0.25000000  0.38734472
   0.42806051  0.75000000  0.88734472
   0.92806051  0.75000000  0.61265528
   0.57193949  0.25000000  0.11265528
Al4C3 Pnma (POSCAR.IV) - relax @ 50 GPa 
           1
     8.358951    0.000000    0.000000
     0.000000    2.883686    0.000000
     0.000000    0.000000    9.936439
   Al   C 
    16    12
Direct configuration=     3
   0.27296144  0.25000000  0.30604615
   0.22703856  0.75000000  0.80604615
   0.72703856  0.75000000  0.69395385
   0.77296144  0.25000000  0.19395385
   0.36035403  0.25000000  0.01792644
   0.13964597  0.75000000  0.51792644
   0.63964597  0.75000000  0.98207356
   0.86035403  0.25000000  0.48207356
   0.51677424  0.25000000  0.79504214
   0.98322576  0.75000000  0.29504214
   0.48322576  0.75000000  0.20495786
   0.01677424  0.25000000  0.70495786
   0.08005243  0.25000000  0.08424777
   0.41994757  0.75000000  0.58424777
   0.91994757  0.75000000  0.91575223
   0.58005243  0.25000000  0.41575223
   0.24624644  0.25000000  0.63903031
   0.25375356  0.75000000  0.13903031
   0.75375356  0.75000000  0.36096969
   0.74624644  0.25000000  0.86096969
   0.58840491  0.25000000  0.61314306
   0.91159509  0.75000000  0.11314306
   0.41159509  0.75000000  0.38685694
   0.08840491  0.25000000  0.88685694
   0.07184112  0.25000000  0.38713728
   0.42815888  0.75000000  0.88713728
   0.92815888  0.75000000  0.61286272
   0.57184112  0.25000000  0.11286272
Al4C3 Pnma (POSCAR.IV) - relax @ 50 GPa 
           1
     8.329300    0.000000    0.000000
     0.000000    2.873457    0.000000
     0.000000    0.000000    9.901193
   Al   C 
    16    12
Direct configuration=     4
   0.27295820  0.25000000  0.30604784
   0.22704180  0.75000000  0.80604784
   0.72704180  0.75000000  0.69395216
   0.77295820  0.25000000  0.19395216
   0.36034572  0.25000000  0.01792185
   0.13965428  0.75000000  0.51792185
   0.63965428  0.75000000  0.98207815
   0.86034572  0.25000000  0.48207815
   0.51676639  0.25000000  0.79503593
   0.98323361  0.75000000  0.29503593
   0.48323361  0.75000000  0.20496407
   0.01676639  0.25000000  0.70496407
   0.08005579  0.25000000  0.08424480
   0.41994421  0.75000000  0.58424480
   0.91994421  0.75000000  0.91575520
   0.58005579  0.25000000  0.41575520
   0.24625816  0.25000000  0.63903108
   0.25374184  0.75000000  0.13903108
   0.75374184  0.75000000  0.36096892
   0.74625816  0.25000000  0.86096892
   0.58841374  0.25000000  0.61314104
   0.91158626  0.75000000  0.11314104
   0.41158626  0.75000000  0.38685896
   0.08841374  0.25000000  0.88685896
   0.07184462  0.25000000  0.38714465
   0.42815538  0.75000000  0.88714465
   0.92815538  0.75000000  0.61285535
   0.57184462  0.25000000  0.11285535
Al4C3 Pnma (POSCAR.IV) - relax @ 50 GPa 
           1
     8.321663    0.000000    0.000000
     0.000000    2.870823    0.000000
     0.000000    0.000000    9.892114
   Al   C 
    16    12
Direct configuration=     5
   0.27295736  0.25000000  0.30604828
   0.22704264  0.75000000  0.80604828
   0.72704264  0.75000000  0.69395172
   0.77295736  0.25000000  0.19395172
   0.36034357  0.25000000  0.01792066
   0.13965643  0.75000000  0.51792066
   0.63965643  0.75000000  0.98207934
   0.86034357  0.25000000  0.48207934
   0.51676437  0.25000000  0.79503432
   0.98323563  0.75000000  0.29503432
   0.48323563  0.75000000  0.20496568
   0.01676437  0.25000000  0.70496568
   0.08005666  0.25000000  0.08424404
   0.41994334  0.75000000  0.58424404
   0.91994334  0.75000000  0.91575596
   0.58005666  0.25000000  0.41575596
   0.24626119  0.25000000  0.63903128
   0.25373881  0.75000000  0.13903128
   0.75373881  0.75000000  0.36096872
   0.74626119  0.25000000  0.86096872
   0.58841603  0.25000000  0.61314052
   0.91158397  0.75000000  0.11314052
   0.41158397  0.75000000  0.38685948
   0.08841603  0.25000000  0.88685948
   0.07184553  0.25000000  0.38714656
   0.42815447  0.75000000  0.88714656
   0.92815447  0.75000000  0.61285344
   0.57184553  0.25000000  0.11285344
Al4C3 Pnma (POSCAR.IV) - relax @ 50 GPa 
           1
     8.306915    0.000000    0.000000
     0.000000    2.865735    0.000000
     0.000000    0.000000    9.874583
   Al   C 
    16    12
Direct configuration=     6
   0.27389172  0.25000000  0.30402999
   0.22610828  0.75000000  0.80402999
   0.72610828  0.75000000  0.69597001
   0.77389172  0.25000000  0.19597001
   0.35707048  0.25000000  0.01653791
   0.14292952  0.75000000  0.51653791
   0.64292952  0.75000000  0.98346209
   0.85707048  0.25000000  0.48346209
   0.51474420  0.25000000  0.79304337
   0.98525580  0.75000000  0.29304337
   0.48525580  0.75000000  0.20695663
   0.01474420  0.25000000  0.70695663
   0.08039979  0.25000000  0.08641702
   0.41960021  0.75000000  0.58641702
   0.91960021  0.75000000  0.91358298
   0.58039979  0.25000000  0.41358298
   0.24940714  0.25000000  0.63992564
   0.25059286  0.75000000  0.13992564
   0.75059286  0.75000000  0.36007436
   0.74940714  0.25000000  0.86007436
   0.59113522  0.25000000  0.61070106
   0.90886478  0.75000000  0.11070106
   0.40886478  0.75000000  0.38929894
   0.09113522  0.25000000  0.88929894
   0.07202185  0.25000000  0.38916251
   0.42797815  0.75000000  0.88916251
   0.92797815  0.75000000  0.61083749
   0.57202185  0.25000000  0.11083749
Al4C3 Pnma (POSCAR.IV) - relax @ 50 GPa 
           1
     8.300472    0.000000    0.000000
     0.000000    2.863512    0.000000
     0.000000    0.000000    9.866924
   Al   C 
    16    12
Direct configuration=     7
   0.27430065  0.25000000  0.30314668
   0.22569935  0.75000000  0.80314668
   0.72569935  0.75000000  0.69685332
   0.77430065  0.25000000  0.19685332
   0.35563800  0.25000000  0.01593274
   0.14436200  0.75000000  0.51593274
   0.64436200  0.75000000  0.98406726
   0.85563800  0.25000000  0.48406726
   0.51386006  0.25000000  0.79217202
   0.98613994  0.75000000  0.29217202
   0.48613994  0.75000000  0.20782798
   0.01386006  0.25000000  0.70782798
   0.08054997  0.25000000  0.08736803
   0.41945003  0.75000000  0.58736803
   0.91945003  0.75000000  0.91263197
   0.58054997  0.25000000  0.41263197
   0.25078398  0.25000000  0.64031706
   0.24921602  0.75000000  0.14031706
   0.74921602  0.75000000  0.35968294
   0.75078398  0.25000000  0.85968294
   0.59232530  0.25000000  0.60963342
   0.90767470  0.75000000  0.10963342
   0.40767470  0.75000000  0.39036658
   0.09232530  0.25000000  0.89036658
   0.07209903  0.25000000  0.39004480
   0.42790097  0.75000000  0.89004480
   0.92790097  0.75000000  0.60995520
   0.57209903  0.25000000  0.10995520
Al4C3 Pnma (POSCAR.IV) - relax @ 50 GPa 
           1
     8.300593    0.000000    0.000000
     0.000000    2.863554    0.000000
     0.000000    0.000000    9.867068
   Al   C 
    16    12
Direct configuration=     8
   0.27241095  0.25000000  0.30203487
   0.22758905  0.75000000  0.80203487
   0.72758905  0.75000000  0.69796513
   0.77241095  0.25000000  0.19796513
   0.35352129  0.25000000  0.01470014
   0.14647871  0.75000000  0.51470014
   0.64647871  0.75000000  0.98529986
   0.85352129  0.25000000  0.48529986
   0.51092099  0.25000000  0.79232965
   0.98907901  0.75000000  0.29232965
   0.48907901  0.75000000  0.20767035
   0.01092099  0.25000000  0.70767035
   0.07729128  0.25000000  0.08808311
   0.42270872  0.75000000  0.58808311
   0.92270872  0.75000000  0.91191689
   0.57729128  0.25000000  0.41191689
   0.25235782  0.25000000  0.64260962
   0.24764218  0.75000000  0.14260962
   0.74764218  0.75000000  0.35739038
   0.75235782  0.25000000  0.85739038
   0.59551787  0.25000000  0.60864602
   0.90448213  0.75000000  0.10864602
   0.40448213  0.75000000  0.39135398
   0.09551787  0.25000000  0.89135398
   0.07140085  0.25000000  0.38919323
   0.42859915  0.75000000  0.88919323
   0.92859915  0.75000000  0.61080677
   0.57140085  0.25000000  0.11080677
Al4C3 Pnma (POSCAR.IV) - relax @ 50 GPa 
           1
     8.300605    0.000000    0.000000
     0.000000    2.863558    0.000000
     0.000000    0.000000    9.867082
   Al   C 
    16    12
Direct configuration=     9
   0.27222537  0.25000000  0.30192569
   0.22777463  0.75000000  0.80192569
   0.72777463  0.75000000  0.69807431
   0.77222537  0.25000000  0.19807431
   0.35331342  0.25000000  0.01457909
   0.14668658  0.75000000  0.51457909
   0.64668658  0.75000000  0.98542091
   0.85331342  0.25000000  0.48542091
   0.51063236  0.25000000  0.79234513
   0.98936764  0.75000000  0.29234513
   0.48936764  0.75000000  0.20765487
   0.01063236  0.25000000  0.70765487
   0.07697127  0.25000000  0.08815333
   0.42302873  0.75000000  0.58815333
   0.92302873  0.75000000  0.91184667
   0.57697127  0.25000000  0.41184667
   0.25251237  0.25000000  0.64283476
   0.24748763  0.75000000  0.14283476
   0.74748763  0.75000000  0.35716524
   0.75251237  0.25000000  0.85716524
   0.59583139  0.25000000  0.60854905
   0.90416861  0.75000000  0.10854905
   0.40416861  0.75000000  0.39145095
   0.09583139  0.25000000  0.89145095
   0.07133229  0.25000000  0.38910961
   0.42866771  0.75000000  0.88910961
   0.92866771  0.75000000  0.61089039
   0.57133229  0.25000000  0.11089039
Al4C3 Pnma (POSCAR.IV) - relax @ 50 GPa 
           1
     8.291000    0.000000    0.000000
     0.000000    2.860244    0.000000
     0.000000    0.000000    9.855665
   Al   C 
    16    12
Direct configuration=    10
   0.27139785  0.25000000  0.30034591
   0.22860215  0.75000000  0.80034591
   0.72860215  0.75000000  0.69965409
   0.77139785  0.25000000  0.19965409
   0.35117564  0.25000000  0.01490989
   0.14882436  0.75000000  0.51490989
   0.64882436  0.75000000  0.98509011
   0.85117564  0.25000000  0.48509011
   0.51131315  0.25000000  0.79110449
   0.98868685  0.75000000  0.29110449
   0.48868685  0.75000000  0.20889551
   0.01131315  0.25000000  0.70889551
   0.07320097  0.25000000  0.08775819
   0.42679903  0.75000000  0.58775819
   0.92679903  0.75000000  0.91224181
   0.57320097  0.25000000  0.41224181
   0.25350524  0.25000000  0.64435016
   0.24649476  0.75000000  0.14435016
   0.74649476  0.75000000  0.35564984
   0.75350524  0.25000000  0.85564984
   0.59825017  0.25000000  0.60908766
   0.90174983  0.75000000  0.10908766
   0.40174983  0.75000000  0.39091234
   0.09825017  0.25000000  0.89091234
   0.06977093  0.25000000  0.38957785
   0.43022907  0.75000000  0.88957785
   0.93022907  0.75000000  0.61042215
   0.56977093  0.25000000  0.11042215
Al4C3 Pnma (POSCAR.IV) - relax @ 50 GPa 
           1
     8.292980    0.000000    0.000000
     0.000000    2.860927    0.000000
     0.000000    0.000000    9.858018
   Al   C 
    16    12
Direct configuration=    11
   0.27156862  0.25000000  0.30067191
   0.22843138  0.75000000  0.80067191
   0.72843138  0.75000000  0.69932809
   0.77156862  0.25000000  0.19932809
   0.35161680  0.25000000  0.01484163
   0.14838320  0.75000000  0.51484163
   0.64838320  0.75000000  0.98515837
   0.85161680  0.25000000  0.48515837
   0.51117266  0.25000000  0.79136051
   0.98882734  0.75000000  0.29136051
   0.48882734  0.75000000  0.20863949
   0.01117266  0.25000000  0.70863949
   0.07397901  0.25000000  0.08783973
   0.42602099  0.75000000  0.58783973
   0.92602099  0.75000000  0.91216027
   0.57397901  0.25000000  0.41216027
   0.25330035  0.25000000  0.64403744
   0.24669965  0.75000000  0.14403744
   0.74669965  0.75000000  0.35596256
   0.75330035  0.25000000  0.85596256
   0.59775102  0.25000000  0.60897651
   0.90224898  0.75000000  0.10897651
   0.40224898  0.75000000  0.39102349
   0.09775102  0.25000000  0.89102349
   0.07009313  0.25000000  0.38948122
   0.42990687  0.75000000  0.88948122
   0.92990687  0.75000000  0.61051878
   0.57009313  0.25000000  0.11051878
Al4C3 Pnma (POSCAR.IV) - relax @ 50 GPa 
           1
     8.291390    0.000000    0.000000
     0.000000    2.860379    0.000000
     0.000000    0.000000    9.856127
   Al   C 
    16    12
Direct configuration=    12
   0.26949979  0.25000000  0.29958646
   0.23050021  0.75000000  0.79958646
   0.73050021  0.75000000  0.70041354
   0.76949979  0.25000000  0.20041354
   0.35092085  0.25000000  0.01533865
   0.14907915  0.75000000  0.51533865
   0.64907915  0.75000000  0.98466135
   0.85092085  0.25000000  0.48466135
   0.51237095  0.25000000  0.79162524
   0.98762905  0.75000000  0.29162524
   0.48762905  0.75000000  0.20837476
   0.01237095  0.25000000  0.70837476
   0.07283909  0.25000000  0.08765558
   0.42716091  0.75000000  0.58765558
   0.92716091  0.75000000  0.91234442
   0.57283909  0.25000000  0.41234442
   0.25474543  0.25000000  0.64380054
   0.24525457  0.75000000  0.14380054
   0.74525457  0.75000000  0.35619946
   0.75474543  0.25000000  0.85619946
   0.59869168  0.25000000  0.60854475
   0.90130832  0.75000000  0.10854475
   0.40130832  0.75000000  0.39145525
   0.09869168  0.25000000  0.89145525
   0.06924904  0.25000000  0.38984638
   0.43075096  0.75000000  0.88984638
   0.93075096  0.75000000  0.61015362
   0.56924904  0.25000000  0.11015362
Al4C3 Pnma (POSCAR.IV) - relax @ 50 GPa 
           1
     8.290273    0.000000    0.000000
     0.000000    2.859994    0.000000
     0.000000    0.000000    9.854800
   Al   C 
    16    12
Direct configuration=    13
   0.26804717  0.25000000  0.29882431
   0.23195283  0.75000000  0.79882431
   0.73195283  0.75000000  0.70117569
   0.76804717  0.25000000  0.20117569
   0.35043220  0.25000000  0.01568763
   0.14956780  0.75000000  0.51568763
   0.64956780  0.75000000  0.98431237
   0.85043220  0.25000000  0.48431237
   0.51321232  0.25000000  0.79181112
   0.98678768  0.75000000  0.29181112
   0.48678768  0.75000000  0.20818888
   0.01321232  0.25000000  0.70818888
   0.07203870  0.25000000  0.08752627
   0.42796130  0.75000000  0.58752627
   0.92796130  0.75000000  0.91247373
   0.57203870  0.25000000  0.41247373
   0.25576009  0.25000000  0.64363419
   0.24423991  0.75000000  0.14363419
   0.74423991  0.75000000  0.35636581
   0.75576009  0.25000000  0.85636581
   0.59935216  0.25000000  0.60824158
   0.90064784  0.75000000  0.10824158
   0.40064784  0.75000000  0.39175842
   0.09935216  0.25000000  0.89175842
   0.06865636  0.25000000  0.39010278
   0.43134364  0.75000000  0.89010278
   0.93134364  0.75000000  0.60989722
   0.56865636  0.25000000  0.10989722
Al4C3 Pnma (POSCAR.IV) - relax @ 50 GPa 
           1
     8.292465    0.000000    0.000000
     0.000000    2.860750    0.000000
     0.000000    0.000000    9.857406
   Al   C 
    16    12
Direct configuration=    14
   0.26625351  0.25000000  0.29878226
   0.23374649  0.75000000  0.79878226
   0.73374649  0.75000000  0.70121774
   0.76625351  0.25000000  0.20121774
   0.34992184  0.25000000  0.01483977
   0.15007816  0.75000000  0.51483977
   0.65007816  0.75000000  0.98516023
   0.84992184  0.25000000  0.48516023
   0.51510572  0.25000000  0.79233345
   0.98489428  0.75000000  0.29233345
   0.48489428  0.75000000  0.20766655
   0.01510572  0.25000000  0.70766655
   0.07116432  0.25000000  0.08804934
   0.42883568  0.75000000  0.58804934
   0.92883568  0.75000000  0.91195066
   0.57116432  0.25000000  0.41195066
   0.25727784  0.25000000  0.64303132
   0.24272216  0.75000000  0.14303132
   0.74272216  0.75000000  0.35696868
   0.75727784  0.25000000  0.85696868
   0.60100261  0.25000000  0.60891693
   0.89899739  0.75000000  0.10891693
   0.39899739  0.75000000  0.39108307
   0.10100261  0.25000000  0.89108307
   0.06763157  0.25000000  0.39020976
   0.43236843  0.75000000  0.89020976
   0.93236843  0.75000000  0.60979024
   0.56763157  0.25000000  0.10979024
Al4C3 Pnma (POSCAR.IV) - relax @ 50 GPa 
           1
     8.294056    0.000000    0.000000
     0.000000    2.861298    0.000000
     0.000000    0.000000    9.859296
   Al   C 
    16    12
Direct configuration=    15
   0.26495235  0.25000000  0.29875175
   0.23504765  0.75000000  0.79875175
   0.73504765  0.75000000  0.70124825
   0.76495235  0.25000000  0.20124825
   0.34955162  0.25000000  0.01422472
   0.15044838  0.75000000  0.51422472
   0.65044838  0.75000000  0.98577528
   0.84955162  0.25000000  0.48577528
   0.51647923  0.25000000  0.79271235
   0.98352077  0.75000000  0.29271235
   0.48352077  0.75000000  0.20728765
   0.01647923  0.25000000  0.70728765
   0.07053003  0.25000000  0.08842878
   0.42946997  0.75000000  0.58842878
   0.92946997  0.75000000  0.91157122
   0.57053003  0.25000000  0.41157122
   0.25837885  0.25000000  0.64259398
   0.24162115  0.75000000  0.14259398
   0.74162115  0.75000000  0.35740602
   0.75837885  0.25000000  0.85740602
   0.60219988  0.25000000  0.60940684
   0.89780012  0.75000000  0.10940684
   0.39780012  0.75000000  0.39059316
   0.10219988  0.25000000  0.89059316
   0.06688817  0.25000000  0.39028737
   0.43311183  0.75000000  0.89028737
   0.93311183  0.75000000  0.60971263
   0.56688817  0.25000000  0.10971263
Al4C3 Pnma (POSCAR.IV) - relax @ 50 GPa 
           1
     8.285831    0.000000    0.000000
     0.000000    2.858461    0.000000
     0.000000    0.000000    9.849519
   Al   C 
    16    12
Direct configuration=    16
   0.26432776  0.25000000  0.29867415
   0.23567224  0.75000000  0.79867415
   0.73567224  0.75000000  0.70132585
   0.76432776  0.25000000  0.20132585
   0.34845567  0.25000000  0.01300358
   0.15154433  0.75000000  0.51300358
   0.65154433  0.75000000  0.98699642
   0.84845567  0.25000000  0.48699642
   0.51895359  0.25000000  0.79346737
   0.98104641  0.75000000  0.29346737
   0.48104641  0.75000000  0.20653263
   0.01895359  0.25000000  0.70653263
   0.06984222  0.25000000  0.08848940
   0.43015778  0.75000000  0.58848940
   0.93015778  0.75000000  0.91151060
   0.56984222  0.25000000  0.41151060
   0.25914057  0.25000000  0.64214349
   0.24085943  0.75000000  0.14214349
   0.74085943  0.75000000  0.35785651
   0.75914057  0.25000000  0.85785651
   0.60330061  0.25000000  0.60911488
   0.89669939  0.75000000  0.10911488
   0.39669939  0.75000000  0.39088512
   0.10330061  0.25000000  0.89088512
   0.06535012  0.25000000  0.39000807
   0.43464988  0.75000000  0.89000807
   0.93464988  0.75000000  0.60999193
   0.56535012  0.25000000  0.10999193
Al4C3 Pnma (POSCAR.IV) - relax @ 50 GPa 
           1
     8.281892    0.000000    0.000000
     0.000000    2.857102    0.000000
     0.000000    0.000000    9.844838
   Al   C 
    16    12
Direct configuration=    17
   0.26402840  0.25000000  0.29863696
   0.23597160  0.75000000  0.79863696
   0.73597160  0.75000000  0.70136304
   0.76402840  0.25000000  0.20136304
   0.34793039  0.25000000  0.01241830
   0.15206961  0.75000000  0.51241830
   0.65206961  0.75000000  0.98758170
   0.84793039  0.25000000  0.48758170
   0.52013952  0.25000000  0.79382924
   0.97986048  0.75000000  0.29382924
   0.47986048  0.75000000  0.20617076
   0.02013952  0.25000000  0.70617076
   0.06951257  0.25000000  0.08851845
   0.43048743  0.75000000  0.58851845
   0.93048743  0.75000000  0.91148155
   0.56951257  0.25000000  0.41148155
   0.25950566  0.25000000  0.64192758
   0.24049434  0.75000000  0.14192758
   0.74049434  0.75000000  0.35807242
   0.75950566  0.25000000  0.85807242
   0.60382818  0.25000000  0.60897495
   0.89617182  0.75000000  0.10897495
   0.39617182  0.75000000  0.39102505
   0.10382818  0.25000000  0.89102505
   0.06461296  0.25000000  0.38987420
   0.43538704  0.75000000  0.88987420
   0.93538704  0.75000000  0.61012580
   0.56461296  0.25000000  0.11012580
Al4C3 Pnma (POSCAR.IV) - relax @ 50 GPa 
           1
     8.293807    0.000000    0.000000
     0.000000    2.861213    0.000000
     0.000000    0.000000    9.859001
   Al   C 
    16    12
Direct configuration=    18
   0.26294591  0.25000000  0.29833885
   0.23705409  0.75000000  0.79833885
   0.73705409  0.75000000  0.70166115
   0.76294591  0.25000000  0.20166115
   0.34668769  0.25000000  0.01118962
   0.15331231  0.75000000  0.51118962
   0.65331231  0.75000000  0.98881038
   0.84668769  0.25000000  0.48881038
   0.52249150  0.25000000  0.79433803
   0.97750850  0.75000000  0.29433803
   0.47750850  0.75000000  0.20566197
   0.02249150  0.25000000  0.70566197
   0.06913776  0.25000000  0.08917834
   0.43086224  0.75000000  0.58917834
   0.93086224  0.75000000  0.91082166
   0.56913776  0.25000000  0.41082166
   0.25959909  0.25000000  0.64179189
   0.24040091  0.75000000  0.14179189
   0.74040091  0.75000000  0.35820811
   0.75959909  0.25000000  0.85820811
   0.60436676  0.25000000  0.60809063
   0.89563324  0.75000000  0.10809063
   0.39563324  0.75000000  0.39190937
   0.10436676  0.25000000  0.89190937
   0.06399488  0.25000000  0.38917422
   0.43600512  0.75000000  0.88917422
   0.93600512  0.75000000  0.61082578
   0.56399488  0.25000000  0.11082578
Al4C3 Pnma (POSCAR.IV) - relax @ 50 GPa 
           1
     8.291690    0.000000    0.000000
     0.000000    2.860483    0.000000
     0.000000    0.000000    9.856485
   Al   C 
    16    12
Direct configuration=    19
   0.26313790  0.25000000  0.29839173
   0.23686210  0.75000000  0.79839173
   0.73686210  0.75000000  0.70160827
   0.76313790  0.25000000  0.20160827
   0.34690810  0.25000000  0.01140754
   0.15309190  0.75000000  0.51140754
   0.65309190  0.75000000  0.98859246
   0.84690810  0.25000000  0.48859246
   0.52207435  0.25000000  0.79424779
   0.97792565  0.75000000  0.29424779
   0.47792565  0.75000000  0.20575221
   0.02207435  0.25000000  0.70575221
   0.06920424  0.25000000  0.08906130
   0.43079576  0.75000000  0.58906130
   0.93079576  0.75000000  0.91093870
   0.56920424  0.25000000  0.41093870
   0.25958252  0.25000000  0.64181596
   0.24041748  0.75000000  0.14181596
   0.74041748  0.75000000  0.35818404
   0.75958252  0.25000000  0.85818404
   0.60427124  0.25000000  0.60824747
   0.89572876  0.75000000  0.10824747
   0.39572876  0.75000000  0.39175253
   0.10427124  0.25000000  0.89175253
   0.06410451  0.25000000  0.38929837
   0.43589549  0.75000000  0.88929837
   0.93589549  0.75000000  0.61070163
   0.56410451  0.25000000  0.11070163
Al4C3 Pnma (POSCAR.IV) - relax @ 50 GPa 
           1
     8.285217    0.000000    0.000000
     0.000000    2.858249    0.000000
     0.000000    0.000000    9.848790
   Al   C 
    16    12
Direct configuration=    20
   0.26275423  0.25000000  0.29819935
   0.23724577  0.75000000  0.79819935
   0.73724577  0.75000000  0.70180065
   0.76275423  0.25000000  0.20180065
   0.34679133  0.25000000  0.01109747
   0.15320867  0.75000000  0.51109747
   0.65320867  0.75000000  0.98890253
   0.84679133  0.25000000  0.48890253
   0.52274848  0.25000000  0.79418352
   0.97725152  0.75000000  0.29418352
   0.47725152  0.75000000  0.20581648
   0.02274848  0.25000000  0.70581648
   0.06897262  0.25000000  0.08962355
   0.43102738  0.75000000  0.58962355
   0.93102738  0.75000000  0.91037645
   0.56897262  0.25000000  0.41037645
   0.25923740  0.25000000  0.64195437
   0.24076260  0.75000000  0.14195437
   0.74076260  0.75000000  0.35804563
   0.75923740  0.25000000  0.85804563
   0.60434190  0.25000000  0.60819998
   0.89565810  0.75000000  0.10819998
   0.39565810  0.75000000  0.39180002
   0.10434190  0.25000000  0.89180002
   0.06422611  0.25000000  0.38907553
   0.43577389  0.75000000  0.88907553
   0.93577389  0.75000000  0.61092447
   0.56422611  0.25000000  0.11092447
Al4C3 Pnma (POSCAR.IV) - relax @ 50 GPa 
           1
     8.287414    0.000000    0.000000
     0.000000    2.859007    0.000000
     0.000000    0.000000    9.851401
   Al   C 
    16    12
Direct configuration=    21
   0.26288454  0.25000000  0.29826469
   0.23711546  0.75000000  0.79826469
   0.73711546  0.75000000  0.70173531
   0.76288454  0.25000000  0.20173531
   0.34683099  0.25000000  0.01120278
   0.15316901  0.75000000  0.51120278
   0.65316901  0.75000000  0.98879722
   0.84683099  0.25000000  0.48879722
   0.52251952  0.25000000  0.79420535
   0.97748048  0.75000000  0.29420535
   0.47748048  0.75000000  0.20579465
   0.02251952  0.25000000  0.70579465
   0.06905129  0.25000000  0.08943259
   0.43094871  0.75000000  0.58943259
   0.93094871  0.75000000  0.91056741
   0.56905129  0.25000000  0.41056741
   0.25935462  0.25000000  0.64190736
   0.24064538  0.75000000  0.14190736
   0.74064538  0.75000000  0.35809264
   0.75935462  0.25000000  0.85809264
   0.60431790  0.25000000  0.60821611
   0.89568210  0.75000000  0.10821611
   0.39568210  0.75000000  0.39178389
   0.10431790  0.25000000  0.89178389
   0.06418481  0.25000000  0.38915121
   0.43581519  0.75000000  0.88915121
   0.93581519  0.75000000  0.61084879
   0.56418481  0.25000000  0.11084879
Al4C3 Pnma (POSCAR.IV) - relax @ 50 GPa 
           1
     8.288640    0.000000    0.000000
     0.000000    2.859430    0.000000
     0.000000    0.000000    9.852859
   Al   C 
    16    12
Direct configuration=    22
   0.26295558  0.25000000  0.29817726
   0.23704442  0.75000000  0.79817726
   0.73704442  0.75000000  0.70182274
   0.76295558  0.25000000  0.20182274
   0.34691439  0.25000000  0.01120056
   0.15308561  0.75000000  0.51120056
   0.65308561  0.75000000  0.98879944
   0.84691439  0.25000000  0.48879944
   0.52255875  0.25000000  0.79422957
   0.97744125  0.75000000  0.29422957
   0.47744125  0.75000000  0.20577043
   0.02255875  0.25000000  0.70577043
   0.06893864  0.25000000  0.08952054
   0.43106136  0.75000000  0.58952054
   0.93106136  0.75000000  0.91047946
   0.56893864  0.25000000  0.41047946
   0.25921458  0.25000000  0.64194107
   0.24078542  0.75000000  0.14194107
   0.74078542  0.75000000  0.35805893
   0.75921458  0.25000000  0.85805893
   0.60435611  0.25000000  0.60820518
   0.89564389  0.75000000  0.10820518
   0.39564389  0.75000000  0.39179482
   0.10435611  0.25000000  0.89179482
   0.06412488  0.25000000  0.38915099
   0.43587512  0.75000000  0.88915099
   0.93587512  0.75000000  0.61084901
   0.56412488  0.25000000  0.11084901
Al4C3 Pnma (POSCAR.IV) - relax @ 50 GPa 
           1
     8.288293    0.000000    0.000000
     0.000000    2.859310    0.000000
     0.000000    0.000000    9.852446
   Al   C 
    16    12
Direct configuration=    23
   0.26293545  0.25000000  0.29820204
   0.23706455  0.75000000  0.79820204
   0.73706455  0.75000000  0.70179796
   0.76293545  0.25000000  0.20179796
   0.34689075  0.25000000  0.01120119
   0.15310925  0.75000000  0.51120119
   0.65310925  0.75000000  0.98879881
   0.84689075  0.25000000  0.48879881
   0.52254763  0.25000000  0.79422271
   0.97745237  0.75000000  0.29422271
   0.47745237  0.75000000  0.20577729
   0.02254763  0.25000000  0.70577729
   0.06897056  0.25000000  0.08949562
   0.43102944  0.75000000  0.58949562
   0.93102944  0.75000000  0.91050438
   0.56897056  0.25000000  0.41050438
   0.25925427  0.25000000  0.64193151
   0.24074573  0.75000000  0.14193151
   0.74074573  0.75000000  0.35806849
   0.75925427  0.25000000  0.85806849
   0.60434528  0.25000000  0.60820828
   0.89565472  0.75000000  0.10820828
   0.39565472  0.75000000  0.39179172
   0.10434528  0.25000000  0.89179172
   0.06414186  0.25000000  0.38915105
   0.43585814  0.75000000  0.88915105
   0.93585814  0.75000000  0.61084895
   0.56414186  0.25000000  0.11084895
