Al4C3 Pnma (POSCAR.IV, symmetrized via s
   1.00000000000000     
     8.0612941869732939    0.0000000000000000    0.0000000000000000
     0.0000000000000000    2.7809999976863513    0.0000000000000000
     0.0000000000000000    0.0000000000000000    9.5826087529444361
   Al   C 
    16    12
Direct
  0.2625217618185673  0.2500000000000000  0.2971656523753671
  0.2374782381814327  0.7500000000000000  0.7971656523753672
  0.7374782381814327  0.7500000000000000  0.7028343476246328
  0.7625217618185673  0.2500000000000000  0.2028343476246328
  0.3446211432230460  0.2500000000000000  0.0109471706940070
  0.1553788567769539  0.7500000000000000  0.5109471706940071
  0.6553788567769538  0.7500000000000000  0.9890528293059929
  0.8446211432230462  0.2500000000000000  0.4890528293059931
  0.5221532788460908  0.2500000000000000  0.7934736470897952
  0.9778467211539092  0.7500000000000000  0.2934736470897952
  0.4778467211539092  0.7500000000000000  0.2065263529102047
  0.0221532788460908  0.2500000000000000  0.7065263529102048
  0.0671281225513696  0.2500000000000000  0.0908160702304948
  0.4328718774486375  0.7500000000000000  0.5908160702304949
  0.9328718774486301  0.7500000000000000  0.9091839297695051
  0.5671281225513699  0.2500000000000000  0.4091839297695052
  0.2608367822596956  0.2500000000000000  0.6426225611428640
  0.2391632177403043  0.7500000000000000  0.1426225611428641
  0.7391632177403045  0.7500000000000000  0.3573774388571360
  0.7608367822596955  0.2500000000000000  0.8573774388571360
  0.6066128081964960  0.2500000000000000  0.6068657289870415
  0.8933871918035040  0.7500000000000000  0.1068657289870413
  0.3933871918035038  0.7500000000000000  0.3931342710129587
  0.1066128081964961  0.2500000000000000  0.8931342710129585
  0.0633634729998338  0.2500000000000000  0.3895530759127925
  0.4366365270001662  0.7500000000000000  0.8895530759127925
  0.9366365270001662  0.7500000000000000  0.6104469240872075
  0.5633634729998338  0.2500000000000000  0.1104469240872074
 
  0.00000000E+00  0.00000000E+00  0.00000000E+00
  0.00000000E+00  0.00000000E+00  0.00000000E+00
  0.00000000E+00  0.00000000E+00  0.00000000E+00
  0.00000000E+00  0.00000000E+00  0.00000000E+00
  0.00000000E+00  0.00000000E+00  0.00000000E+00
  0.00000000E+00  0.00000000E+00  0.00000000E+00
  0.00000000E+00  0.00000000E+00  0.00000000E+00
  0.00000000E+00  0.00000000E+00  0.00000000E+00
  0.00000000E+00  0.00000000E+00  0.00000000E+00
  0.00000000E+00  0.00000000E+00  0.00000000E+00
  0.00000000E+00  0.00000000E+00  0.00000000E+00
  0.00000000E+00  0.00000000E+00  0.00000000E+00
  0.00000000E+00  0.00000000E+00  0.00000000E+00
  0.00000000E+00  0.00000000E+00  0.00000000E+00
  0.00000000E+00  0.00000000E+00  0.00000000E+00
  0.00000000E+00  0.00000000E+00  0.00000000E+00
  0.00000000E+00  0.00000000E+00  0.00000000E+00
  0.00000000E+00  0.00000000E+00  0.00000000E+00
  0.00000000E+00  0.00000000E+00  0.00000000E+00
  0.00000000E+00  0.00000000E+00  0.00000000E+00
  0.00000000E+00  0.00000000E+00  0.00000000E+00
  0.00000000E+00  0.00000000E+00  0.00000000E+00
  0.00000000E+00  0.00000000E+00  0.00000000E+00
  0.00000000E+00  0.00000000E+00  0.00000000E+00
  0.00000000E+00  0.00000000E+00  0.00000000E+00
  0.00000000E+00  0.00000000E+00  0.00000000E+00
  0.00000000E+00  0.00000000E+00  0.00000000E+00
  0.00000000E+00  0.00000000E+00  0.00000000E+00
