  28  28   0   0
  0.7737201E+01  0.8083924E-09  0.2788807E-09  0.9609510E-09  0.5000000E-15
  1.000000000000000E-004
  CAR 
 Al4C3 Pnma - r2SCAN H(P) scan @ 80 GPa (
     22.95097285     -6.46473262  301     13.25604659      1.00000000
     -6.465  0.0000E+00  0.0000E+00
     -6.367  0.0000E+00  0.0000E+00
     -6.269  0.0000E+00  0.0000E+00
     -6.171  0.0000E+00  0.0000E+00
     -6.073  0.0000E+00  0.0000E+00
     -5.974  0.0000E+00  0.0000E+00
     -5.876  0.0000E+00  0.0000E+00
     -5.778  0.0000E+00  0.0000E+00
     -5.680  0.0000E+00  0.0000E+00
     -5.582  0.0000E+00  0.0000E+00
     -5.484  0.0000E+00  0.0000E+00
     -5.386  0.7015E-16  0.6878E-17
     -5.288  0.1507E-08  0.1478E-09
     -5.190  0.2061E-04  0.2021E-05
     -5.092  0.5037E-03  0.5141E-04
     -4.994  0.2273E-02  0.2743E-03
     -4.896  0.4484E-02  0.7139E-03
     -4.798  0.4682E-02  0.1173E-02
     -4.700  0.3708E-02  0.1537E-02
     -4.602  0.5505E-02  0.2076E-02
     -4.504  0.9721E-02  0.3030E-02
     -4.406  0.9376E-02  0.3949E-02
     -4.308  0.5005E-02  0.4440E-02
     -4.210  0.6157E-02  0.5043E-02
     -4.111  0.1080E-01  0.6102E-02
     -4.013  0.1040E-01  0.7122E-02
     -3.915  0.5900E-02  0.7701E-02
     -3.817  0.1214E-01  0.8891E-02
     -3.719  0.1269E-01  0.1013E-01
     -3.621  0.1172E-01  0.1128E-01
     -3.523  0.1266E-01  0.1253E-01
     -3.425  0.9875E-02  0.1349E-01
     -3.327  0.8521E-02  0.1433E-01
     -3.229  0.1148E-01  0.1545E-01
     -3.131  0.1895E-01  0.1731E-01
     -3.033  0.1276E-01  0.1856E-01
     -2.935  0.9329E-02  0.1948E-01
     -2.837  0.1240E-01  0.2069E-01
     -2.739  0.2414E-01  0.2306E-01
     -2.641  0.1631E-01  0.2466E-01
     -2.543  0.1181E-01  0.2582E-01
     -2.445  0.1354E-01  0.2715E-01
     -2.347  0.1778E-01  0.2889E-01
     -2.248  0.1223E-01  0.3009E-01
     -2.150  0.1338E-01  0.3140E-01
     -2.052  0.1865E-01  0.3323E-01
     -1.954  0.2160E-01  0.3535E-01
     -1.856  0.2589E-01  0.3789E-01
     -1.758  0.2121E-01  0.3997E-01
     -1.660  0.1361E-01  0.4130E-01
     -1.562  0.2562E-01  0.4381E-01
     -1.464  0.2508E-01  0.4627E-01
     -1.366  0.1160E-01  0.4741E-01
     -1.268  0.1293E-01  0.4868E-01
     -1.170  0.2140E-01  0.5078E-01
     -1.072  0.2749E-01  0.5347E-01
     -0.974  0.3306E-01  0.5671E-01
     -0.876  0.3271E-01  0.5992E-01
     -0.778  0.1797E-01  0.6168E-01
     -0.680  0.2609E-01  0.6424E-01
     -0.582  0.2893E-01  0.6708E-01
     -0.484  0.2928E-01  0.6995E-01
     -0.385  0.3768E-01  0.7364E-01
     -0.287  0.3738E-01  0.7731E-01
     -0.189  0.4137E-01  0.8136E-01
     -0.091  0.3637E-01  0.8493E-01
      0.007  0.4229E-01  0.8907E-01
      0.105  0.3318E-01  0.9233E-01
      0.203  0.3898E-01  0.9615E-01
      0.301  0.2945E-01  0.9904E-01
      0.399  0.1989E-01  0.1010E+00
      0.497  0.2046E-01  0.1030E+00
      0.595  0.1137E-01  0.1041E+00
      0.693  0.2290E-01  0.1064E+00
      0.791  0.1766E-01  0.1081E+00
      0.889  0.1106E-01  0.1092E+00
      0.987  0.1283E-01  0.1104E+00
      1.085  0.1614E-01  0.1120E+00
      1.183  0.1440E-01  0.1134E+00
      1.281  0.6310E-02  0.1140E+00
      1.379  0.9888E-02  0.1150E+00
      1.478  0.1377E-01  0.1164E+00
      1.576  0.7009E-02  0.1170E+00
      1.674  0.8082E-02  0.1178E+00
      1.772  0.7488E-02  0.1186E+00
      1.870  0.9383E-02  0.1195E+00
      1.968  0.3345E-02  0.1198E+00
      2.066  0.1767E-02  0.1200E+00
      2.164  0.3308E-04  0.1200E+00
      2.262  0.1477E-08  0.1200E+00
      2.360  0.4553E-16  0.1200E+00
      2.458  0.9217E-15  0.1200E+00
      2.556  0.7626E-08  0.1200E+00
      2.654  0.4527E-04  0.1200E+00
      2.752  0.1277E-02  0.1201E+00
      2.850  0.3004E-02  0.1204E+00
      2.948  0.4082E-02  0.1208E+00
      3.046  0.2498E-02  0.1211E+00
      3.144  0.6438E-02  0.1217E+00
      3.242  0.1169E-01  0.1228E+00
      3.341  0.1393E-01  0.1242E+00
      3.439  0.1923E-01  0.1261E+00
      3.537  0.2837E-01  0.1289E+00
      3.635  0.3035E-01  0.1319E+00
      3.733  0.2711E-01  0.1345E+00
      3.831  0.3061E-01  0.1375E+00
      3.929  0.2257E-01  0.1397E+00
      4.027  0.2552E-01  0.1422E+00
      4.125  0.3387E-01  0.1456E+00
      4.223  0.4337E-01  0.1498E+00
      4.321  0.3356E-01  0.1531E+00
      4.419  0.2844E-01  0.1559E+00
      4.517  0.4366E-01  0.1602E+00
      4.615  0.4061E-01  0.1641E+00
      4.713  0.3518E-01  0.1676E+00
      4.811  0.3217E-01  0.1708E+00
      4.909  0.2870E-01  0.1736E+00
      5.007  0.3391E-01  0.1769E+00
      5.105  0.3091E-01  0.1799E+00
      5.203  0.3192E-01  0.1831E+00
      5.302  0.3247E-01  0.1862E+00
      5.400  0.2952E-01  0.1891E+00
      5.498  0.2508E-01  0.1916E+00
      5.596  0.2898E-01  0.1944E+00
      5.694  0.3099E-01  0.1975E+00
      5.792  0.3989E-01  0.2014E+00
      5.890  0.3077E-01  0.2044E+00
      5.988  0.2861E-01  0.2072E+00
      6.086  0.3392E-01  0.2105E+00
      6.184  0.3095E-01  0.2136E+00
      6.282  0.4171E-01  0.2176E+00
      6.380  0.4032E-01  0.2216E+00
      6.478  0.3303E-01  0.2248E+00
      6.576  0.3325E-01  0.2281E+00
      6.674  0.3323E-01  0.2314E+00
      6.772  0.2857E-01  0.2342E+00
      6.870  0.2477E-01  0.2366E+00
      6.968  0.3062E-01  0.2396E+00
      7.066  0.3079E-01  0.2426E+00
      7.165  0.4922E-01  0.2474E+00
      7.263  0.4517E-01  0.2519E+00
      7.361  0.3452E-01  0.2553E+00
      7.459  0.4119E-01  0.2593E+00
      7.557  0.4879E-01  0.2641E+00
      7.655  0.3301E-01  0.2673E+00
      7.753  0.3699E-01  0.2709E+00
      7.851  0.4686E-01  0.2755E+00
      7.949  0.3598E-01  0.2791E+00
      8.047  0.3751E-01  0.2827E+00
      8.145  0.5331E-01  0.2880E+00
      8.243  0.2605E-01  0.2905E+00
      8.341  0.3664E-01  0.2941E+00
      8.439  0.2620E-01  0.2967E+00
      8.537  0.3812E-01  0.3004E+00
      8.635  0.3234E-01  0.3036E+00
      8.733  0.4412E-01  0.3079E+00
      8.831  0.2817E-01  0.3107E+00
      8.929  0.3895E-01  0.3145E+00
      9.028  0.5194E-01  0.3196E+00
      9.126  0.3346E-01  0.3229E+00
      9.224  0.5214E-01  0.3280E+00
      9.322  0.3750E-01  0.3317E+00
      9.420  0.4034E-01  0.3356E+00
      9.518  0.4380E-01  0.3399E+00
      9.616  0.4005E-01  0.3438E+00
      9.714  0.4482E-01  0.3482E+00
      9.812  0.4437E-01  0.3526E+00
      9.910  0.4745E-01  0.3572E+00
     10.008  0.3710E-01  0.3609E+00
     10.106  0.2557E-01  0.3634E+00
     10.204  0.3724E-01  0.3670E+00
     10.302  0.3680E-01  0.3706E+00
     10.400  0.4866E-01  0.3754E+00
     10.498  0.5709E-01  0.3810E+00
     10.596  0.5796E-01  0.3867E+00
     10.694  0.5190E-01  0.3918E+00
     10.792  0.6914E-01  0.3986E+00
     10.891  0.5354E-01  0.4038E+00
     10.989  0.5124E-01  0.4088E+00
     11.087  0.4713E-01  0.4135E+00
     11.185  0.5558E-01  0.4189E+00
     11.283  0.6316E-01  0.4251E+00
     11.381  0.6788E-01  0.4318E+00
     11.479  0.7152E-01  0.4388E+00
     11.577  0.5146E-01  0.4438E+00
     11.675  0.4870E-01  0.4486E+00
     11.773  0.4472E-01  0.4530E+00
     11.871  0.4389E-01  0.4573E+00
     11.969  0.2718E-01  0.4599E+00
     12.067  0.4144E-01  0.4640E+00
     12.165  0.3497E-01  0.4674E+00
     12.263  0.2661E-01  0.4700E+00
     12.361  0.2406E-01  0.4724E+00
     12.459  0.1968E-01  0.4743E+00
     12.557  0.1495E-01  0.4758E+00
     12.655  0.1168E-01  0.4769E+00
     12.754  0.1184E-01  0.4781E+00
     12.852  0.8864E-02  0.4790E+00
     12.950  0.5944E-02  0.4796E+00
     13.048  0.3984E-02  0.4799E+00
     13.146  0.5911E-03  0.4800E+00
     13.244  0.1644E-05  0.4800E+00
     13.342  0.8314E-11  0.4800E+00
     13.440  0.0000E+00  0.4800E+00
     13.538  0.0000E+00  0.4800E+00
     13.636  0.0000E+00  0.4800E+00
     13.734  0.0000E+00  0.4800E+00
     13.832  0.0000E+00  0.4800E+00
     13.930  0.0000E+00  0.4800E+00
     14.028  0.0000E+00  0.4800E+00
     14.126  0.0000E+00  0.4800E+00
     14.224  0.7442E-12  0.4800E+00
     14.322  0.9480E-06  0.4800E+00
     14.420  0.1077E-02  0.4801E+00
     14.518  0.6117E-02  0.4807E+00
     14.617  0.1326E-01  0.4820E+00
     14.715  0.9938E-02  0.4830E+00
     14.813  0.1061E-01  0.4840E+00
     14.911  0.1910E-01  0.4859E+00
     15.009  0.1796E-01  0.4877E+00
     15.107  0.1805E-01  0.4894E+00
     15.205  0.2017E-01  0.4914E+00
     15.303  0.1713E-01  0.4931E+00
     15.401  0.9141E-02  0.4940E+00
     15.499  0.1106E-01  0.4951E+00
     15.597  0.1979E-01  0.4970E+00
     15.695  0.2417E-01  0.4994E+00
     15.793  0.2538E-01  0.5019E+00
     15.891  0.3023E-01  0.5048E+00
     15.989  0.3407E-01  0.5082E+00
     16.087  0.2366E-01  0.5105E+00
     16.185  0.2754E-01  0.5132E+00
     16.283  0.2230E-01  0.5154E+00
     16.381  0.1822E-01  0.5172E+00
     16.480  0.2777E-01  0.5199E+00
     16.578  0.2343E-01  0.5222E+00
     16.676  0.1439E-01  0.5236E+00
     16.774  0.1422E-01  0.5250E+00
     16.872  0.1491E-01  0.5264E+00
     16.970  0.1127E-01  0.5276E+00
     17.068  0.2358E-01  0.5299E+00
     17.166  0.2405E-01  0.5322E+00
     17.264  0.2727E-01  0.5349E+00
     17.362  0.2333E-01  0.5372E+00
     17.460  0.2249E-01  0.5394E+00
     17.558  0.1906E-01  0.5413E+00
     17.656  0.1708E-01  0.5429E+00
     17.754  0.2752E-01  0.5456E+00
     17.852  0.3512E-01  0.5491E+00
     17.950  0.5443E-01  0.5544E+00
     18.048  0.4621E-01  0.5589E+00
     18.146  0.3190E-01  0.5621E+00
     18.244  0.2412E-01  0.5644E+00
     18.343  0.3178E-01  0.5676E+00
     18.441  0.4439E-01  0.5719E+00
     18.539  0.4242E-01  0.5761E+00
     18.637  0.3224E-01  0.5792E+00
     18.735  0.3682E-01  0.5828E+00
     18.833  0.3029E-01  0.5858E+00
     18.931  0.2681E-01  0.5884E+00
     19.029  0.3710E-01  0.5921E+00
     19.127  0.3860E-01  0.5959E+00
     19.225  0.2897E-01  0.5987E+00
     19.323  0.2173E-01  0.6008E+00
     19.421  0.3654E-01  0.6044E+00
     19.519  0.3400E-01  0.6077E+00
     19.617  0.3320E-01  0.6110E+00
     19.715  0.3362E-01  0.6143E+00
     19.813  0.2168E-01  0.6164E+00
     19.911  0.2833E-01  0.6192E+00
     20.009  0.2482E-01  0.6216E+00
     20.107  0.2690E-01  0.6243E+00
     20.206  0.3212E-01  0.6274E+00
     20.304  0.3184E-01  0.6305E+00
     20.402  0.3315E-01  0.6338E+00
     20.500  0.3990E-01  0.6377E+00
     20.598  0.3096E-01  0.6407E+00
     20.696  0.3209E-01  0.6439E+00
     20.794  0.2203E-01  0.6460E+00
     20.892  0.2222E-01  0.6482E+00
     20.990  0.1917E-01  0.6501E+00
     21.088  0.1787E-01  0.6519E+00
     21.186  0.3097E-01  0.6549E+00
     21.284  0.2478E-01  0.6573E+00
     21.382  0.1594E-01  0.6589E+00
     21.480  0.8384E-02  0.6597E+00
     21.578  0.1990E-02  0.6599E+00
     21.676  0.9332E-03  0.6600E+00
     21.774  0.4122E-04  0.6600E+00
     21.872  0.3014E-08  0.6600E+00
     21.970  0.1404E-15  0.6600E+00
     22.069  0.0000E+00  0.6600E+00
     22.167  0.0000E+00  0.6600E+00
     22.265  0.0000E+00  0.6600E+00
     22.363  0.0000E+00  0.6600E+00
     22.461  0.0000E+00  0.6600E+00
     22.559  0.0000E+00  0.6600E+00
     22.657  0.0000E+00  0.6600E+00
     22.755  0.0000E+00  0.6600E+00
     22.853  0.0000E+00  0.6600E+00
     22.951  0.0000E+00  0.6600E+00
