       N       E                     dE             d eps       ncg     rms          rms(c)
DAV:   1    -0.228212222021E+03   -0.22821E+03   -0.47498E+00  8316   0.104E+01    0.882E+00
DAV:   2    -0.213377457140E+03    0.14835E+02   -0.13046E+00  9246   0.625E+00    0.637E+00
DAV:   3    -0.213737180508E+03   -0.35972E+00   -0.18844E-01  9630   0.201E+00    0.508E+00
DAV:   4    -0.213769285513E+03   -0.32105E-01   -0.93084E-02  9624   0.110E+00    0.942E-01
DAV:   5    -0.213770293243E+03   -0.10077E-02   -0.53276E-03  9708   0.257E-01    0.407E-01
DAV:   6    -0.213770526742E+03   -0.23350E-03   -0.80085E-04  9672   0.108E-01    0.162E-01
DAV:   7    -0.213770549984E+03   -0.23242E-04   -0.39794E-05  8286   0.294E-02    0.968E-02
DAV:   8    -0.213770521281E+03    0.28703E-04   -0.13783E-04  9504   0.477E-02    0.348E-02
DAV:   9    -0.213770507028E+03    0.14253E-04   -0.44503E-06  5052   0.880E-03    0.699E-03
DAV:  10    -0.213770507841E+03   -0.81308E-06   -0.79584E-07  4914   0.371E-03
   1 F= -.10559690E+03 E0= -.10559690E+03  d E =-.105597E+03
       N       E                     dE             d eps       ncg     rms          rms(c)
DAV:   1    -0.210587462370E+03    0.31830E+01   -0.29806E+00  8784   0.743E+00    0.153E+00
DAV:   2    -0.210568318471E+03    0.19144E-01   -0.12265E-01 10104   0.128E+00    0.873E-01
DAV:   3    -0.210567755934E+03    0.56254E-03   -0.18729E-02  9450   0.434E-01    0.346E-01
DAV:   4    -0.210568196121E+03   -0.44019E-03   -0.73307E-04 10212   0.108E-01    0.186E-01
DAV:   5    -0.210568241885E+03   -0.45765E-04   -0.20172E-04  9576   0.518E-02    0.133E-01
DAV:   6    -0.210568339136E+03   -0.97251E-04   -0.74237E-05  9246   0.470E-02    0.232E-02
DAV:   7    -0.210568342438E+03   -0.33024E-05   -0.56284E-06  5052   0.962E-03
   2 F= -.10548554E+03 E0= -.10548554E+03  d E =0.111362E+00
       N       E                     dE             d eps       ncg     rms          rms(c)
DAV:   1    -0.212854115546E+03   -0.22858E+01   -0.14153E+00  8772   0.506E+00    0.106E+00
DAV:   2    -0.212846472691E+03    0.76429E-02   -0.59994E-02 10098   0.892E-01    0.609E-01
DAV:   3    -0.212846137871E+03    0.33482E-03   -0.90945E-03  9444   0.301E-01    0.247E-01
DAV:   4    -0.212846248190E+03   -0.11032E-03   -0.35435E-04 10188   0.753E-02    0.129E-01
DAV:   5    -0.212846220430E+03    0.27761E-04   -0.10178E-04  9312   0.368E-02    0.911E-02
DAV:   6    -0.212846181601E+03    0.38828E-04   -0.33489E-05  7608   0.319E-02    0.131E-02
DAV:   7    -0.212846178654E+03    0.29474E-05   -0.39882E-06  4986   0.818E-03
   3 F= -.10562335E+03 E0= -.10562335E+03  d E =-.264495E-01
       N       E                     dE             d eps       ncg     rms          rms(c)
DAV:   1    -0.212841632783E+03    0.45488E-02   -0.55212E-06  4878   0.106E-02    0.855E-03
DAV:   2    -0.212841632241E+03    0.54192E-06   -0.45544E-07  4752   0.328E-03
   4 F= -.10562335E+03 E0= -.10562335E+03  d E =-.264493E-01
       N       E                     dE             d eps       ncg     rms          rms(c)
DAV:   1    -0.212865233857E+03   -0.23601E-01   -0.16292E-01  8316   0.165E+00    0.874E-02
DAV:   2    -0.212865208348E+03    0.25509E-04   -0.33839E-03  9846   0.236E-01    0.592E-02
DAV:   3    -0.212865170260E+03    0.38088E-04   -0.19169E-04  9912   0.585E-02    0.373E-02
DAV:   4    -0.212865154527E+03    0.15732E-04   -0.80099E-05  9456   0.360E-02    0.141E-02
DAV:   5    -0.212865152365E+03    0.21623E-05   -0.15660E-05  5850   0.151E-02
   5 F= -.10562487E+03 E0= -.10562487E+03  d E =-.151791E-02
       N       E                     dE             d eps       ncg     rms          rms(c)
DAV:   1    -0.212867320510E+03   -0.21660E-02   -0.15308E-03  8598   0.160E-01    0.920E-03
DAV:   2    -0.212867324231E+03   -0.37203E-05   -0.30022E-05  8058   0.227E-02
   6 F= -.10562489E+03 E0= -.10562489E+03  d E =-.153815E-02
       N       E                     dE             d eps       ncg     rms          rms(c)
DAV:   1    -0.212897575515E+03   -0.30255E-01   -0.13097E-01  8322   0.150E+00    0.692E-02
DAV:   2    -0.212897608249E+03   -0.32735E-04   -0.18364E-03 10236   0.174E-01    0.452E-02
DAV:   3    -0.212897572215E+03    0.36035E-04   -0.89992E-05  9846   0.393E-02    0.300E-02
DAV:   4    -0.212897555604E+03    0.16611E-04   -0.10428E-04  9702   0.404E-02    0.777E-03
DAV:   5    -0.212897558025E+03   -0.24210E-05   -0.21011E-05  5832   0.158E-02
   7 F= -.10562548E+03 E0= -.10562548E+03  d E =-.597169E-03
       N       E                     dE             d eps       ncg     rms          rms(c)
DAV:   1    -0.212893289373E+03    0.42662E-02   -0.27287E-03  8352   0.216E-01    0.101E-02
DAV:   2    -0.212893285828E+03    0.35452E-05   -0.34922E-05  8586   0.245E-02
   8 F= -.10562550E+03 E0= -.10562550E+03  d E =-.616641E-03
       N       E                     dE             d eps       ncg     rms          rms(c)
DAV:   1    -0.212886678873E+03    0.66105E-02   -0.69474E-02  8316   0.107E+00    0.491E-02
DAV:   2    -0.212886669682E+03    0.91911E-05   -0.11048E-03  9732   0.133E-01    0.338E-02
DAV:   3    -0.212886650997E+03    0.18684E-04   -0.47275E-05  9744   0.290E-02    0.214E-02
DAV:   4    -0.212886639649E+03    0.11348E-04   -0.29008E-05  6930   0.224E-02    0.662E-03
DAV:   5    -0.212886640331E+03   -0.68144E-06   -0.86402E-06  4890   0.105E-02
   9 F= -.10562584E+03 E0= -.10562584E+03  d E =-.337557E-03
       N       E                     dE             d eps       ncg     rms          rms(c)
DAV:   1    -0.212887023668E+03   -0.38402E-03   -0.21032E-04  8040   0.588E-02    0.310E-03
DAV:   2    -0.212887024201E+03   -0.53225E-06   -0.34053E-06  4410   0.754E-03
  10 F= -.10562584E+03 E0= -.10562584E+03  d E =-.339160E-03
       N       E                     dE             d eps       ncg     rms          rms(c)
DAV:   1    -0.212892926723E+03   -0.59031E-02   -0.12838E-02  8340   0.468E-01    0.222E-02
DAV:   2    -0.212892934076E+03   -0.73526E-05   -0.21289E-04 10236   0.567E-02    0.143E-02
DAV:   3    -0.212892932004E+03    0.20716E-05   -0.68880E-06  5610   0.120E-02
  11 F= -.10562603E+03 E0= -.10562603E+03  d E =-.188217E-03
       N       E                     dE             d eps       ncg     rms          rms(c)
DAV:   1    -0.212896219153E+03   -0.32851E-02   -0.40589E-03  8394   0.264E-01    0.143E-02
DAV:   2    -0.212896219926E+03   -0.77342E-06   -0.58025E-05 10290   0.301E-02
  12 F= -.10562606E+03 E0= -.10562606E+03  d E =-.214144E-03
       N       E                     dE             d eps       ncg     rms          rms(c)
DAV:   1    -0.212898956188E+03   -0.27370E-02   -0.17314E-02  8340   0.540E-01    0.298E-02
DAV:   2    -0.212898952409E+03    0.37793E-05   -0.28930E-04 10032   0.697E-02    0.192E-02
DAV:   3    -0.212898946092E+03    0.63164E-05   -0.15770E-05  6258   0.175E-02
  13 F= -.10562618E+03 E0= -.10562618E+03  d E =-.125287E-03
       N       E                     dE             d eps       ncg     rms          rms(c)
DAV:   1    -0.212899901246E+03   -0.94884E-03   -0.21631E-03  8478   0.191E-01    0.117E-02
DAV:   2    -0.212899900732E+03    0.51397E-06   -0.25839E-05  8526   0.217E-02
  14 F= -.10562619E+03 E0= -.10562619E+03  d E =-.129659E-03
       N       E                     dE             d eps       ncg     rms          rms(c)
DAV:   1    -0.212902877267E+03   -0.29760E-02   -0.10310E-02  8340   0.419E-01    0.232E-02
DAV:   2    -0.212902876869E+03    0.39834E-06   -0.18955E-04 10272   0.553E-02    0.160E-02
DAV:   3    -0.212902870249E+03    0.66201E-05   -0.71228E-06  5346   0.125E-02
  15 F= -.10562621E+03 E0= -.10562621E+03  d E =-.276726E-04
       N       E                     dE             d eps       ncg     rms          rms(c)
DAV:   1    -0.212901985184E+03    0.89168E-03   -0.10443E-03  8328   0.133E-01    0.631E-03
DAV:   2    -0.212901989043E+03   -0.38596E-05   -0.28059E-05  7452   0.214E-02
  16 F= -.10562622E+03 E0= -.10562622E+03  d E =-.342244E-04
       N       E                     dE             d eps       ncg     rms          rms(c)
DAV:   1    -0.212893938201E+03    0.80470E-02   -0.44389E-03  8334   0.275E-01    0.125E-02
DAV:   2    -0.212893939848E+03   -0.16466E-05   -0.59937E-05  9924   0.306E-02
  17 F= -.10562625E+03 E0= -.10562625E+03  d E =-.310512E-04
