Al4C3 Pnma - r2SCAN H(P) scan @ 80 GPa (
           1
     8.083924    0.000000    0.000000
     0.000000    2.788807    0.000000
     0.000000    0.000000    9.609510
   Al   C 
    16    12
Direct configuration=     1
   0.26152421  0.25000000  0.29713536
   0.23847579  0.75000000  0.79713536
   0.73847579  0.75000000  0.70286464
   0.76152421  0.25000000  0.20286464
   0.34406990  0.25000000  0.01086877
   0.15593010  0.75000000  0.51086877
   0.65593010  0.75000000  0.98913123
   0.84406990  0.25000000  0.48913123
   0.52261808  0.25000000  0.79356359
   0.97738192  0.75000000  0.29356359
   0.47738192  0.75000000  0.20643641
   0.02261808  0.25000000  0.70643641
   0.06642565  0.25000000  0.09077706
   0.43357435  0.75000000  0.59077706
   0.93357435  0.75000000  0.90922294
   0.56642565  0.25000000  0.40922294
   0.26188826  0.25000000  0.64261830
   0.23811174  0.75000000  0.14261830
   0.73811174  0.75000000  0.35738170
   0.76188826  0.25000000  0.85738170
   0.60755258  0.25000000  0.60675912
   0.89244742  0.75000000  0.10675912
   0.39244742  0.75000000  0.39324088
   0.10755258  0.25000000  0.89324088
   0.06274909  0.25000000  0.39021471
   0.43725091  0.75000000  0.89021471
   0.93725091  0.75000000  0.60978529
   0.56274909  0.25000000  0.10978529
Al4C3 Pnma - r2SCAN H(P) scan @ 80 GPa (
           1
     8.006186    0.000000    0.000000
     0.000000    2.761989    0.000000
     0.000000    0.000000    9.517101
   Al   C 
    16    12
Direct configuration=     2
   0.26163482  0.25000000  0.29709422
   0.23836518  0.75000000  0.79709422
   0.73836518  0.75000000  0.70290578
   0.76163482  0.25000000  0.20290578
   0.34427099  0.25000000  0.01091677
   0.15572901  0.75000000  0.51091677
   0.65572901  0.75000000  0.98908323
   0.84427099  0.25000000  0.48908323
   0.52273350  0.25000000  0.79381001
   0.97726650  0.75000000  0.29381001
   0.47726650  0.75000000  0.20618999
   0.02273350  0.25000000  0.70618999
   0.06649630  0.25000000  0.09086517
   0.43350370  0.75000000  0.59086517
   0.93350370  0.75000000  0.90913483
   0.56649630  0.25000000  0.40913483
   0.26140459  0.25000000  0.64283060
   0.23859541  0.75000000  0.14283060
   0.73859541  0.75000000  0.35716940
   0.76140459  0.25000000  0.85716940
   0.60701135  0.25000000  0.60698770
   0.89298865  0.75000000  0.10698770
   0.39298865  0.75000000  0.39301230
   0.10701135  0.25000000  0.89301230
   0.06280811  0.25000000  0.38930172
   0.43719189  0.75000000  0.88930172
   0.93719189  0.75000000  0.61069828
   0.56280811  0.25000000  0.11069828
Al4C3 Pnma - r2SCAN H(P) scan @ 80 GPa (
           1
     8.060170    0.000000    0.000000
     0.000000    2.780612    0.000000
     0.000000    0.000000    9.581273
   Al   C 
    16    12
Direct configuration=     3
   0.26155726  0.25000000  0.29712307
   0.23844274  0.75000000  0.79712307
   0.73844274  0.75000000  0.70287693
   0.76155726  0.25000000  0.20287693
   0.34412999  0.25000000  0.01088312
   0.15587001  0.75000000  0.51088312
   0.65587001  0.75000000  0.98911688
   0.84412999  0.25000000  0.48911688
   0.52265257  0.25000000  0.79363722
   0.97734743  0.75000000  0.29363722
   0.47734743  0.75000000  0.20636278
   0.02265257  0.25000000  0.70636278
   0.06644676  0.25000000  0.09080339
   0.43355324  0.75000000  0.59080339
   0.93355324  0.75000000  0.90919661
   0.56644676  0.25000000  0.40919661
   0.26174373  0.25000000  0.64268174
   0.23825627  0.75000000  0.14268174
   0.73825627  0.75000000  0.35731826
   0.76174373  0.25000000  0.85731826
   0.60739085  0.25000000  0.60682742
   0.89260915  0.75000000  0.10682742
   0.39260915  0.75000000  0.39317258
   0.10739085  0.25000000  0.89317258
   0.06276672  0.25000000  0.38994189
   0.43723328  0.75000000  0.88994189
   0.93723328  0.75000000  0.61005811
   0.56276672  0.25000000  0.11005811
Al4C3 Pnma - r2SCAN H(P) scan @ 80 GPa (
           1
     8.060056    0.000000    0.000000
     0.000000    2.780573    0.000000
     0.000000    0.000000    9.581137
   Al   C 
    16    12
Direct configuration=     4
   0.26155742  0.25000000  0.29712301
   0.23844258  0.75000000  0.79712301
   0.73844258  0.75000000  0.70287699
   0.76155742  0.25000000  0.20287699
   0.34413028  0.25000000  0.01088319
   0.15586972  0.75000000  0.51088319
   0.65586972  0.75000000  0.98911681
   0.84413028  0.25000000  0.48911681
   0.52265273  0.25000000  0.79363759
   0.97734727  0.75000000  0.29363759
   0.47734727  0.75000000  0.20636241
   0.02265273  0.25000000  0.70636241
   0.06644687  0.25000000  0.09080352
   0.43355313  0.75000000  0.59080352
   0.93355313  0.75000000  0.90919648
   0.56644687  0.25000000  0.40919648
   0.26174302  0.25000000  0.64268205
   0.23825698  0.75000000  0.14268205
   0.73825698  0.75000000  0.35731795
   0.76174302  0.25000000  0.85731795
   0.60739006  0.25000000  0.60682776
   0.89260994  0.75000000  0.10682776
   0.39260994  0.75000000  0.39317224
   0.10739006  0.25000000  0.89317224
   0.06276681  0.25000000  0.38994055
   0.43723319  0.75000000  0.88994055
   0.93723319  0.75000000  0.61005945
   0.56276681  0.25000000  0.11005945
Al4C3 Pnma - r2SCAN H(P) scan @ 80 GPa (
           1
     8.060608    0.000000    0.000000
     0.000000    2.780763    0.000000
     0.000000    0.000000    9.581793
   Al   C 
    16    12
Direct configuration=     5
   0.26186991  0.25000000  0.29702517
   0.23813009  0.75000000  0.79702517
   0.73813009  0.75000000  0.70297483
   0.76186991  0.25000000  0.20297483
   0.34415142  0.25000000  0.01088811
   0.15584858  0.75000000  0.51088811
   0.65584858  0.75000000  0.98911189
   0.84415142  0.25000000  0.48911189
   0.52279964  0.25000000  0.79355671
   0.97720036  0.75000000  0.29355671
   0.47720036  0.75000000  0.20644329
   0.02279964  0.25000000  0.70644329
   0.06653038  0.25000000  0.09096319
   0.43346962  0.75000000  0.59096319
   0.93346962  0.75000000  0.90903681
   0.56653038  0.25000000  0.40903681
   0.26147473  0.25000000  0.64272238
   0.23852527  0.75000000  0.14272238
   0.73852527  0.75000000  0.35727762
   0.76147473  0.25000000  0.85727762
   0.60716683  0.25000000  0.60685180
   0.89283317  0.75000000  0.10685180
   0.39283317  0.75000000  0.39314820
   0.10716683  0.25000000  0.89314820
   0.06282797  0.25000000  0.38965472
   0.43717203  0.75000000  0.88965472
   0.93717203  0.75000000  0.61034528
   0.56282797  0.25000000  0.11034528
Al4C3 Pnma - r2SCAN H(P) scan @ 80 GPa (
           1
     8.060662    0.000000    0.000000
     0.000000    2.780782    0.000000
     0.000000    0.000000    9.581857
   Al   C 
    16    12
Direct configuration=     6
   0.26190046  0.25000000  0.29701560
   0.23809954  0.75000000  0.79701560
   0.73809954  0.75000000  0.70298440
   0.76190046  0.25000000  0.20298440
   0.34415348  0.25000000  0.01088860
   0.15584652  0.75000000  0.51088860
   0.65584652  0.75000000  0.98911140
   0.84415348  0.25000000  0.48911140
   0.52281400  0.25000000  0.79354880
   0.97718600  0.75000000  0.29354880
   0.47718600  0.75000000  0.20645120
   0.02281400  0.25000000  0.70645120
   0.06653854  0.25000000  0.09097880
   0.43346146  0.75000000  0.59097880
   0.93346146  0.75000000  0.90902120
   0.56653854  0.25000000  0.40902120
   0.26144850  0.25000000  0.64272632
   0.23855150  0.75000000  0.14272632
   0.73855150  0.75000000  0.35727368
   0.76144850  0.25000000  0.85727368
   0.60714500  0.25000000  0.60685415
   0.89285500  0.75000000  0.10685415
   0.39285500  0.75000000  0.39314585
   0.10714500  0.25000000  0.89314585
   0.06283395  0.25000000  0.38962677
   0.43716605  0.75000000  0.88962677
   0.93716605  0.75000000  0.61037323
   0.56283395  0.25000000  0.11037323
Al4C3 Pnma - r2SCAN H(P) scan @ 80 GPa (
           1
     8.061404    0.000000    0.000000
     0.000000    2.781038    0.000000
     0.000000    0.000000    9.582739
   Al   C 
    16    12
Direct configuration=     7
   0.26201271  0.25000000  0.29707104
   0.23798729  0.75000000  0.79707104
   0.73798729  0.75000000  0.70292896
   0.76201271  0.25000000  0.20292896
   0.34431191  0.25000000  0.01075839
   0.15568809  0.75000000  0.51075839
   0.65568809  0.75000000  0.98924161
   0.84431191  0.25000000  0.48924161
   0.52273914  0.25000000  0.79363389
   0.97726086  0.75000000  0.29363389
   0.47726086  0.75000000  0.20636611
   0.02273914  0.25000000  0.70636611
   0.06670647  0.25000000  0.09100087
   0.43329353  0.75000000  0.59100087
   0.93329353  0.75000000  0.90899913
   0.56670647  0.25000000  0.40899913
   0.26120560  0.25000000  0.64264439
   0.23879440  0.75000000  0.14264439
   0.73879440  0.75000000  0.35735561
   0.76120560  0.25000000  0.85735561
   0.60697184  0.25000000  0.60672561
   0.89302816  0.75000000  0.10672561
   0.39302816  0.75000000  0.39327439
   0.10697184  0.25000000  0.89327439
   0.06302097  0.25000000  0.38942994
   0.43697903  0.75000000  0.88942994
   0.93697903  0.75000000  0.61057006
   0.56302097  0.25000000  0.11057006
Al4C3 Pnma - r2SCAN H(P) scan @ 80 GPa (
           1
     8.061297    0.000000    0.000000
     0.000000    2.781001    0.000000
     0.000000    0.000000    9.582612
   Al   C 
    16    12
Direct configuration=     8
   0.26199646  0.25000000  0.29706301
   0.23800354  0.75000000  0.79706301
   0.73800354  0.75000000  0.70293699
   0.76199646  0.25000000  0.20293699
   0.34428897  0.25000000  0.01077725
   0.15571103  0.75000000  0.51077725
   0.65571103  0.75000000  0.98922275
   0.84428897  0.25000000  0.48922275
   0.52274998  0.25000000  0.79362157
   0.97725002  0.75000000  0.29362157
   0.47725002  0.75000000  0.20637843
   0.02274998  0.25000000  0.70637843
   0.06668215  0.25000000  0.09099768
   0.43331785  0.75000000  0.59099768
   0.93331785  0.75000000  0.90900232
   0.56668215  0.25000000  0.40900232
   0.26124077  0.25000000  0.64265625
   0.23875923  0.75000000  0.14265625
   0.73875923  0.75000000  0.35734375
   0.76124077  0.25000000  0.85734375
   0.60699691  0.25000000  0.60674422
   0.89300309  0.75000000  0.10674422
   0.39300309  0.75000000  0.39325578
   0.10699691  0.25000000  0.89325578
   0.06299389  0.25000000  0.38945844
   0.43700611  0.75000000  0.88945844
   0.93700611  0.75000000  0.61054156
   0.56299389  0.25000000  0.11054156
Al4C3 Pnma - r2SCAN H(P) scan @ 80 GPa (
           1
     8.061122    0.000000    0.000000
     0.000000    2.780940    0.000000
     0.000000    0.000000    9.582404
   Al   C 
    16    12
Direct configuration=     9
   0.26224133  0.25000000  0.29713056
   0.23775867  0.75000000  0.79713056
   0.73775867  0.75000000  0.70286944
   0.76224133  0.25000000  0.20286944
   0.34442574  0.25000000  0.01068660
   0.15557426  0.75000000  0.51068660
   0.65557426  0.75000000  0.98931340
   0.84442574  0.25000000  0.48931340
   0.52272573  0.25000000  0.79357965
   0.97727427  0.75000000  0.29357965
   0.47727427  0.75000000  0.20642035
   0.02272573  0.25000000  0.70642035
   0.06687557  0.25000000  0.09093967
   0.43312443  0.75000000  0.59093967
   0.93312443  0.75000000  0.90906033
   0.56687557  0.25000000  0.40906033
   0.26099850  0.25000000  0.64255137
   0.23900150  0.75000000  0.14255137
   0.73900150  0.75000000  0.35744863
   0.76099850  0.25000000  0.85744863
   0.60689045  0.25000000  0.60675377
   0.89310955  0.75000000  0.10675377
   0.39310955  0.75000000  0.39324623
   0.10689045  0.25000000  0.89324623
   0.06313362  0.25000000  0.38949277
   0.43686638  0.75000000  0.88949277
   0.93686638  0.75000000  0.61050723
   0.56313362  0.25000000  0.11050723
Al4C3 Pnma - r2SCAN H(P) scan @ 80 GPa (
           1
     8.061131    0.000000    0.000000
     0.000000    2.780944    0.000000
     0.000000    0.000000    9.582415
   Al   C 
    16    12
Direct configuration=    10
   0.26222792  0.25000000  0.29712686
   0.23777208  0.75000000  0.79712686
   0.73777208  0.75000000  0.70287314
   0.76222792  0.25000000  0.20287314
   0.34441825  0.25000000  0.01069156
   0.15558175  0.75000000  0.51069156
   0.65558175  0.75000000  0.98930844
   0.84441825  0.25000000  0.48930844
   0.52272706  0.25000000  0.79358195
   0.97727294  0.75000000  0.29358195
   0.47727294  0.75000000  0.20641805
   0.02272706  0.25000000  0.70641805
   0.06686498  0.25000000  0.09094284
   0.43313502  0.75000000  0.59094284
   0.93313502  0.75000000  0.90905716
   0.56686498  0.25000000  0.40905716
   0.26101176  0.25000000  0.64255712
   0.23898824  0.75000000  0.14255712
   0.73898824  0.75000000  0.35744288
   0.76101176  0.25000000  0.85744288
   0.60689628  0.25000000  0.60675325
   0.89310372  0.75000000  0.10675325
   0.39310372  0.75000000  0.39324675
   0.10689628  0.25000000  0.89324675
   0.06312597  0.25000000  0.38949089
   0.43687403  0.75000000  0.88949089
   0.93687403  0.75000000  0.61050911
   0.56312597  0.25000000  0.11050911
Al4C3 Pnma - r2SCAN H(P) scan @ 80 GPa (
           1
     8.061274    0.000000    0.000000
     0.000000    2.780993    0.000000
     0.000000    0.000000    9.582585
   Al   C 
    16    12
Direct configuration=    11
   0.26228817  0.25000000  0.29713094
   0.23771183  0.75000000  0.79713094
   0.73771183  0.75000000  0.70286906
   0.76228817  0.25000000  0.20286906
   0.34446213  0.25000000  0.01075460
   0.15553787  0.75000000  0.51075460
   0.65553787  0.75000000  0.98924540
   0.84446213  0.25000000  0.48924540
   0.52260834  0.25000000  0.79357045
   0.97739166  0.75000000  0.29357045
   0.47739166  0.75000000  0.20642955
   0.02260834  0.25000000  0.70642955
   0.06699822  0.25000000  0.09091535
   0.43300178  0.75000000  0.59091535
   0.93300178  0.75000000  0.90908465
   0.56699822  0.25000000  0.40908465
   0.26095638  0.25000000  0.64254357
   0.23904362  0.75000000  0.14254357
   0.73904362  0.75000000  0.35745643
   0.76095638  0.25000000  0.85745643
   0.60682083  0.25000000  0.60683850
   0.89317917  0.75000000  0.10683850
   0.39317917  0.75000000  0.39316150
   0.10682083  0.25000000  0.89316150
   0.06314271  0.25000000  0.38949903
   0.43685729  0.75000000  0.88949903
   0.93685729  0.75000000  0.61050097
   0.56314271  0.25000000  0.11050097
Al4C3 Pnma - r2SCAN H(P) scan @ 80 GPa (
           1
     8.061356    0.000000    0.000000
     0.000000    2.781021    0.000000
     0.000000    0.000000    9.582682
   Al   C 
    16    12
Direct configuration=    12
   0.26232254  0.25000000  0.29713326
   0.23767746  0.75000000  0.79713326
   0.73767746  0.75000000  0.70286674
   0.76232254  0.25000000  0.20286674
   0.34448716  0.25000000  0.01079054
   0.15551284  0.75000000  0.51079054
   0.65551284  0.75000000  0.98920946
   0.84448716  0.25000000  0.48920946
   0.52254064  0.25000000  0.79356389
   0.97745936  0.75000000  0.29356389
   0.47745936  0.75000000  0.20643611
   0.02254064  0.25000000  0.70643611
   0.06707421  0.25000000  0.09089966
   0.43292579  0.75000000  0.59089966
   0.93292579  0.75000000  0.90910034
   0.56707421  0.25000000  0.40910034
   0.26092480  0.25000000  0.64253585
   0.23907520  0.75000000  0.14253585
   0.73907520  0.75000000  0.35746415
   0.76092480  0.25000000  0.85746415
   0.60677780  0.25000000  0.60688712
   0.89322220  0.75000000  0.10688712
   0.39322220  0.75000000  0.39311288
   0.10677780  0.25000000  0.89311288
   0.06315226  0.25000000  0.38950367
   0.43684774  0.75000000  0.88950367
   0.93684774  0.75000000  0.61049633
   0.56315226  0.25000000  0.11049633
Al4C3 Pnma - r2SCAN H(P) scan @ 80 GPa (
           1
     8.061421    0.000000    0.000000
     0.000000    2.781044    0.000000
     0.000000    0.000000    9.582760
   Al   C 
    16    12
Direct configuration=    13
   0.26235658  0.25000000  0.29715437
   0.23764342  0.75000000  0.79715437
   0.73764342  0.75000000  0.70284563
   0.76235658  0.25000000  0.20284563
   0.34456579  0.25000000  0.01085022
   0.15543421  0.75000000  0.51085022
   0.65543421  0.75000000  0.98914978
   0.84456579  0.25000000  0.48914978
   0.52237834  0.25000000  0.79353614
   0.97762166  0.75000000  0.29353614
   0.47762166  0.75000000  0.20646386
   0.02237834  0.25000000  0.70646386
   0.06709693  0.25000000  0.09083500
   0.43290307  0.75000000  0.59083500
   0.93290307  0.75000000  0.90916500
   0.56709693  0.25000000  0.40916500
   0.26090261  0.25000000  0.64254585
   0.23909739  0.75000000  0.14254585
   0.73909739  0.75000000  0.35745415
   0.76090261  0.25000000  0.85745415
   0.60665649  0.25000000  0.60690166
   0.89334351  0.75000000  0.10690166
   0.39334351  0.75000000  0.39309834
   0.10665649  0.25000000  0.89309834
   0.06324691  0.25000000  0.38952070
   0.43675309  0.75000000  0.88952070
   0.93675309  0.75000000  0.61047930
   0.56324691  0.25000000  0.11047930
Al4C3 Pnma - r2SCAN H(P) scan @ 80 GPa (
           1
     8.061445    0.000000    0.000000
     0.000000    2.781052    0.000000
     0.000000    0.000000    9.582788
   Al   C 
    16    12
Direct configuration=    14
   0.26236901  0.25000000  0.29716208
   0.23763099  0.75000000  0.79716208
   0.73763099  0.75000000  0.70283792
   0.76236901  0.25000000  0.20283792
   0.34459452  0.25000000  0.01087203
   0.15540548  0.75000000  0.51087203
   0.65540548  0.75000000  0.98912797
   0.84459452  0.25000000  0.48912797
   0.52231905  0.25000000  0.79352600
   0.97768095  0.75000000  0.29352600
   0.47768095  0.75000000  0.20647400
   0.02231905  0.25000000  0.70647400
   0.06710523  0.25000000  0.09081138
   0.43289477  0.75000000  0.59081138
   0.93289477  0.75000000  0.90918862
   0.56710523  0.25000000  0.40918862
   0.26089450  0.25000000  0.64254951
   0.23910550  0.75000000  0.14254951
   0.73910550  0.75000000  0.35745049
   0.76089450  0.25000000  0.85745049
   0.60661216  0.25000000  0.60690697
   0.89338784  0.75000000  0.10690697
   0.39338784  0.75000000  0.39309303
   0.10661216  0.25000000  0.89309303
   0.06328148  0.25000000  0.38952692
   0.43671852  0.75000000  0.88952692
   0.93671852  0.75000000  0.61047308
   0.56328148  0.25000000  0.11047308
Al4C3 Pnma - r2SCAN H(P) scan @ 80 GPa (
           1
     8.061519    0.000000    0.000000
     0.000000    2.781077    0.000000
     0.000000    0.000000    9.582876
   Al   C 
    16    12
Direct configuration=    15
   0.26249708  0.25000000  0.29716093
   0.23750292  0.75000000  0.79716093
   0.73750292  0.75000000  0.70283907
   0.76249708  0.25000000  0.20283907
   0.34463049  0.25000000  0.01093170
   0.15536951  0.75000000  0.51093170
   0.65536951  0.75000000  0.98906830
   0.84463049  0.25000000  0.48906830
   0.52221624  0.25000000  0.79345969
   0.97778376  0.75000000  0.29345969
   0.47778376  0.75000000  0.20654031
   0.02221624  0.25000000  0.70654031
   0.06709741  0.25000000  0.09078312
   0.43290259  0.75000000  0.59078312
   0.93290259  0.75000000  0.90921688
   0.56709741  0.25000000  0.40921688
   0.26085477  0.25000000  0.64259421
   0.23914523  0.75000000  0.14259421
   0.73914523  0.75000000  0.35740579
   0.76085477  0.25000000  0.85740579
   0.60657684  0.25000000  0.60689666
   0.89342316  0.75000000  0.10689666
   0.39342316  0.75000000  0.39310334
   0.10657684  0.25000000  0.89310334
   0.06335432  0.25000000  0.38957620
   0.43664568  0.75000000  0.88957620
   0.93664568  0.75000000  0.61042380
   0.56335432  0.25000000  0.11042380
Al4C3 Pnma - r2SCAN H(P) scan @ 80 GPa (
           1
     8.061497    0.000000    0.000000
     0.000000    2.781070    0.000000
     0.000000    0.000000    9.582849
   Al   C 
    16    12
Direct configuration=    16
   0.26245843  0.25000000  0.29716128
   0.23754157  0.75000000  0.79716128
   0.73754157  0.75000000  0.70283872
   0.76245843  0.25000000  0.20283872
   0.34461964  0.25000000  0.01091369
   0.15538036  0.75000000  0.51091369
   0.65538036  0.75000000  0.98908631
   0.84461964  0.25000000  0.48908631
   0.52224726  0.25000000  0.79347970
   0.97775274  0.75000000  0.29347970
   0.47775274  0.75000000  0.20652030
   0.02224726  0.25000000  0.70652030
   0.06709977  0.25000000  0.09079165
   0.43290023  0.75000000  0.59079165
   0.93290023  0.75000000  0.90920835
   0.56709977  0.25000000  0.40920835
   0.26086676  0.25000000  0.64258072
   0.23913324  0.75000000  0.14258072
   0.73913324  0.75000000  0.35741928
   0.76086676  0.25000000  0.85741928
   0.60658750  0.25000000  0.60689977
   0.89341250  0.75000000  0.10689977
   0.39341250  0.75000000  0.39310023
   0.10658750  0.25000000  0.89310023
   0.06333234  0.25000000  0.38956133
   0.43666766  0.75000000  0.88956133
   0.93666766  0.75000000  0.61043867
   0.56333234  0.25000000  0.11043867
Al4C3 Pnma - r2SCAN H(P) scan @ 80 GPa (
           1
     8.061294    0.000000    0.000000
     0.000000    2.781000    0.000000
     0.000000    0.000000    9.582609
   Al   C 
    16    12
Direct configuration=    17
   0.26252176  0.25000000  0.29716565
   0.23747824  0.75000000  0.79716565
   0.73747824  0.75000000  0.70283435
   0.76252176  0.25000000  0.20283435
   0.34462114  0.25000000  0.01094717
   0.15537886  0.75000000  0.51094717
   0.65537886  0.75000000  0.98905283
   0.84462114  0.25000000  0.48905283
   0.52215328  0.25000000  0.79347365
   0.97784672  0.75000000  0.29347365
   0.47784672  0.75000000  0.20652635
   0.02215328  0.25000000  0.70652635
   0.06712812  0.25000000  0.09081607
   0.43287188  0.75000000  0.59081607
   0.93287188  0.75000000  0.90918393
   0.56712812  0.25000000  0.40918393
   0.26083678  0.25000000  0.64262256
   0.23916322  0.75000000  0.14262256
   0.73916322  0.75000000  0.35737744
   0.76083678  0.25000000  0.85737744
   0.60661281  0.25000000  0.60686573
   0.89338719  0.75000000  0.10686573
   0.39338719  0.75000000  0.39313427
   0.10661281  0.25000000  0.89313427
   0.06336347  0.25000000  0.38955308
   0.43663653  0.75000000  0.88955308
   0.93663653  0.75000000  0.61044692
   0.56336347  0.25000000  0.11044692
