  14  14   0   0
  0.8609561E+01  0.8482350E-09  0.4897782E-09  0.2901305E-09  0.5000000E-15
  1.000000000000000E-004
  CAR 
 Al4C3 Pbam - H(P) scan @ 60 GPa (ISIF=8)
     21.67488159     -5.96758185  301     11.73358685      1.00000000
     -5.968  0.0000E+00  0.0000E+00
     -5.875  0.0000E+00  0.0000E+00
     -5.783  0.0000E+00  0.0000E+00
     -5.691  0.0000E+00  0.0000E+00
     -5.599  0.0000E+00  0.0000E+00
     -5.507  0.0000E+00  0.0000E+00
     -5.415  0.0000E+00  0.0000E+00
     -5.323  0.0000E+00  0.0000E+00
     -5.230  0.0000E+00  0.0000E+00
     -5.138  0.0000E+00  0.0000E+00
     -5.046  0.0000E+00  0.0000E+00
     -4.954  0.1125E-14  0.1037E-15
     -4.862  0.3528E-08  0.3251E-09
     -4.770  0.1713E-04  0.1578E-05
     -4.678  0.2998E-03  0.2921E-04
     -4.585  0.1332E-02  0.1519E-03
     -4.493  0.2342E-02  0.3677E-03
     -4.401  0.3092E-02  0.6527E-03
     -4.309  0.2544E-02  0.8871E-03
     -4.217  0.1855E-02  0.1058E-02
     -4.125  0.5486E-02  0.1564E-02
     -4.033  0.6920E-02  0.2201E-02
     -3.940  0.4414E-02  0.2608E-02
     -3.848  0.1225E-02  0.2721E-02
     -3.756  0.3991E-02  0.3088E-02
     -3.664  0.8532E-02  0.3875E-02
     -3.572  0.7390E-02  0.4555E-02
     -3.480  0.5967E-02  0.5105E-02
     -3.388  0.5268E-02  0.5591E-02
     -3.295  0.7389E-02  0.6272E-02
     -3.203  0.7711E-02  0.6982E-02
     -3.111  0.9445E-02  0.7852E-02
     -3.019  0.9555E-02  0.8733E-02
     -2.927  0.4913E-02  0.9185E-02
     -2.835  0.4809E-02  0.9628E-02
     -2.743  0.5142E-02  0.1010E-01
     -2.650  0.8973E-02  0.1093E-01
     -2.558  0.9839E-02  0.1184E-01
     -2.466  0.5797E-02  0.1237E-01
     -2.374  0.5865E-02  0.1291E-01
     -2.282  0.1321E-01  0.1413E-01
     -2.190  0.7568E-02  0.1482E-01
     -2.098  0.4715E-02  0.1526E-01
     -2.005  0.8858E-02  0.1608E-01
     -1.913  0.1696E-01  0.1764E-01
     -1.821  0.9862E-02  0.1855E-01
     -1.729  0.6842E-02  0.1918E-01
     -1.637  0.8635E-02  0.1997E-01
     -1.545  0.1715E-01  0.2155E-01
     -1.453  0.8609E-02  0.2235E-01
     -1.361  0.1363E-01  0.2360E-01
     -1.268  0.1224E-01  0.2473E-01
     -1.176  0.6539E-02  0.2533E-01
     -1.084  0.1330E-01  0.2656E-01
     -0.992  0.1902E-01  0.2831E-01
     -0.900  0.1114E-01  0.2934E-01
     -0.808  0.9352E-02  0.3020E-01
     -0.716  0.1990E-01  0.3203E-01
     -0.623  0.1682E-01  0.3358E-01
     -0.531  0.1855E-01  0.3529E-01
     -0.439  0.2357E-01  0.3746E-01
     -0.347  0.2071E-01  0.3937E-01
     -0.255  0.2594E-01  0.4176E-01
     -0.163  0.2454E-01  0.4402E-01
     -0.071  0.1691E-01  0.4558E-01
      0.022  0.1412E-01  0.4688E-01
      0.114  0.1432E-01  0.4820E-01
      0.206  0.1641E-01  0.4971E-01
      0.298  0.1056E-01  0.5069E-01
      0.390  0.5878E-02  0.5123E-01
      0.482  0.9894E-02  0.5214E-01
      0.574  0.1243E-01  0.5328E-01
      0.667  0.1089E-01  0.5429E-01
      0.759  0.8981E-02  0.5511E-01
      0.851  0.6013E-02  0.5567E-01
      0.943  0.4624E-02  0.5609E-01
      1.035  0.6883E-02  0.5673E-01
      1.127  0.9365E-02  0.5759E-01
      1.219  0.3018E-02  0.5787E-01
      1.312  0.1494E-02  0.5801E-01
      1.404  0.2584E-02  0.5825E-01
      1.496  0.3282E-02  0.5855E-01
      1.588  0.4359E-02  0.5895E-01
      1.680  0.2152E-02  0.5915E-01
      1.772  0.2159E-02  0.5935E-01
      1.864  0.3954E-03  0.5938E-01
      1.957  0.2743E-02  0.5964E-01
      2.049  0.8725E-03  0.5972E-01
      2.141  0.1297E-02  0.5984E-01
      2.233  0.1036E-02  0.5993E-01
      2.325  0.1995E-03  0.5995E-01
      2.417  0.5260E-03  0.6000E-01
      2.509  0.7239E-03  0.6007E-01
      2.602  0.2110E-02  0.6026E-01
      2.694  0.3783E-02  0.6061E-01
      2.786  0.1827E-02  0.6078E-01
      2.878  0.5064E-02  0.6124E-01
      2.970  0.9828E-02  0.6215E-01
      3.062  0.1098E-01  0.6316E-01
      3.154  0.1203E-01  0.6427E-01
      3.247  0.1243E-01  0.6541E-01
      3.339  0.1585E-01  0.6688E-01
      3.431  0.1943E-01  0.6867E-01
      3.523  0.2561E-01  0.7103E-01
      3.615  0.1730E-01  0.7262E-01
      3.707  0.2033E-01  0.7449E-01
      3.799  0.2090E-01  0.7642E-01
      3.892  0.1939E-01  0.7821E-01
      3.984  0.1911E-01  0.7997E-01
      4.076  0.1640E-01  0.8148E-01
      4.168  0.1460E-01  0.8282E-01
      4.260  0.1238E-01  0.8396E-01
      4.352  0.1905E-01  0.8572E-01
      4.444  0.1509E-01  0.8711E-01
      4.537  0.1533E-01  0.8852E-01
      4.629  0.2153E-01  0.9051E-01
      4.721  0.1779E-01  0.9214E-01
      4.813  0.2103E-01  0.9408E-01
      4.905  0.1918E-01  0.9585E-01
      4.997  0.1598E-01  0.9732E-01
      5.089  0.1708E-01  0.9890E-01
      5.182  0.2183E-01  0.1009E+00
      5.274  0.1775E-01  0.1025E+00
      5.366  0.1750E-01  0.1042E+00
      5.458  0.1456E-01  0.1055E+00
      5.550  0.1716E-01  0.1071E+00
      5.642  0.1427E-01  0.1084E+00
      5.734  0.1458E-01  0.1097E+00
      5.827  0.2350E-01  0.1119E+00
      5.919  0.1795E-01  0.1136E+00
      6.011  0.2293E-01  0.1157E+00
      6.103  0.2427E-01  0.1179E+00
      6.195  0.2470E-01  0.1202E+00
      6.287  0.2007E-01  0.1220E+00
      6.379  0.1124E-01  0.1231E+00
      6.472  0.1244E-01  0.1242E+00
      6.564  0.1418E-01  0.1255E+00
      6.656  0.3215E-01  0.1285E+00
      6.748  0.2913E-01  0.1312E+00
      6.840  0.2808E-01  0.1338E+00
      6.932  0.1626E-01  0.1352E+00
      7.024  0.1627E-01  0.1367E+00
      7.117  0.1623E-01  0.1382E+00
      7.209  0.1952E-01  0.1400E+00
      7.301  0.2460E-01  0.1423E+00
      7.393  0.2662E-01  0.1448E+00
      7.485  0.3172E-01  0.1477E+00
      7.577  0.2153E-01  0.1497E+00
      7.669  0.1878E-01  0.1514E+00
      7.762  0.1275E-01  0.1526E+00
      7.854  0.1745E-01  0.1542E+00
      7.946  0.2009E-01  0.1560E+00
      8.038  0.2257E-01  0.1581E+00
      8.130  0.2562E-01  0.1605E+00
      8.222  0.2270E-01  0.1626E+00
      8.314  0.3121E-01  0.1654E+00
      8.406  0.2476E-01  0.1677E+00
      8.499  0.2120E-01  0.1697E+00
      8.591  0.2099E-01  0.1716E+00
      8.683  0.1997E-01  0.1734E+00
      8.775  0.1864E-01  0.1752E+00
      8.867  0.2419E-01  0.1774E+00
      8.959  0.2543E-01  0.1797E+00
      9.051  0.2275E-01  0.1818E+00
      9.144  0.1627E-01  0.1833E+00
      9.236  0.3228E-01  0.1863E+00
      9.328  0.2279E-01  0.1884E+00
      9.420  0.3130E-01  0.1913E+00
      9.512  0.2873E-01  0.1939E+00
      9.604  0.3122E-01  0.1968E+00
      9.696  0.2832E-01  0.1994E+00
      9.789  0.2102E-01  0.2014E+00
      9.881  0.2266E-01  0.2034E+00
      9.973  0.3081E-01  0.2063E+00
     10.065  0.2650E-01  0.2087E+00
     10.157  0.2217E-01  0.2108E+00
     10.249  0.2329E-01  0.2129E+00
     10.341  0.1932E-01  0.2147E+00
     10.434  0.2367E-01  0.2169E+00
     10.526  0.3665E-01  0.2203E+00
     10.618  0.3482E-01  0.2235E+00
     10.710  0.2191E-01  0.2255E+00
     10.802  0.3193E-01  0.2284E+00
     10.894  0.2715E-01  0.2309E+00
     10.986  0.2285E-01  0.2330E+00
     11.079  0.2140E-01  0.2350E+00
     11.171  0.1394E-01  0.2363E+00
     11.263  0.1106E-01  0.2373E+00
     11.355  0.6242E-02  0.2379E+00
     11.447  0.8333E-02  0.2386E+00
     11.539  0.6817E-02  0.2393E+00
     11.631  0.4229E-02  0.2397E+00
     11.724  0.3436E-02  0.2400E+00
     11.816  0.1751E-02  0.2401E+00
     11.908  0.4066E-02  0.2405E+00
     12.000  0.1301E-02  0.2406E+00
     12.092  0.1111E-02  0.2407E+00
     12.184  0.3971E-03  0.2408E+00
     12.276  0.6165E-05  0.2408E+00
     12.369  0.9294E-03  0.2409E+00
     12.461  0.5323E-02  0.2414E+00
     12.553  0.1485E-02  0.2415E+00
     12.645  0.1629E-02  0.2416E+00
     12.737  0.4778E-02  0.2421E+00
     12.829  0.2313E-02  0.2423E+00
     12.921  0.1551E-02  0.2424E+00
     13.014  0.1201E-02  0.2425E+00
     13.106  0.4009E-02  0.2429E+00
     13.198  0.8603E-02  0.2437E+00
     13.290  0.2720E-02  0.2440E+00
     13.382  0.6481E-03  0.2440E+00
     13.474  0.1669E-02  0.2442E+00
     13.566  0.3223E-02  0.2445E+00
     13.659  0.5200E-02  0.2450E+00
     13.751  0.1034E-01  0.2459E+00
     13.843  0.7920E-02  0.2466E+00
     13.935  0.4877E-02  0.2471E+00
     14.027  0.4920E-02  0.2475E+00
     14.119  0.8643E-02  0.2483E+00
     14.211  0.1102E-01  0.2493E+00
     14.304  0.1111E-01  0.2504E+00
     14.396  0.1230E-01  0.2515E+00
     14.488  0.1129E-01  0.2525E+00
     14.580  0.1503E-01  0.2539E+00
     14.672  0.1701E-01  0.2555E+00
     14.764  0.1741E-01  0.2571E+00
     14.856  0.1211E-01  0.2582E+00
     14.949  0.1508E-01  0.2596E+00
     15.041  0.1982E-01  0.2614E+00
     15.133  0.1277E-01  0.2626E+00
     15.225  0.1437E-01  0.2639E+00
     15.317  0.1170E-01  0.2650E+00
     15.409  0.2426E-01  0.2672E+00
     15.501  0.2231E-01  0.2693E+00
     15.594  0.2291E-01  0.2714E+00
     15.686  0.1655E-01  0.2729E+00
     15.778  0.1708E-01  0.2745E+00
     15.870  0.1386E-01  0.2758E+00
     15.962  0.1725E-01  0.2774E+00
     16.054  0.1501E-01  0.2788E+00
     16.146  0.7179E-02  0.2794E+00
     16.239  0.1355E-01  0.2807E+00
     16.331  0.1473E-01  0.2820E+00
     16.423  0.1595E-01  0.2835E+00
     16.515  0.1623E-01  0.2850E+00
     16.607  0.1713E-01  0.2866E+00
     16.699  0.1455E-01  0.2879E+00
     16.791  0.1143E-01  0.2890E+00
     16.884  0.1938E-01  0.2908E+00
     16.976  0.1769E-01  0.2924E+00
     17.068  0.2276E-01  0.2945E+00
     17.160  0.1914E-01  0.2962E+00
     17.252  0.2920E-01  0.2989E+00
     17.344  0.2779E-01  0.3015E+00
     17.436  0.2273E-01  0.3036E+00
     17.529  0.2088E-01  0.3055E+00
     17.621  0.2462E-01  0.3078E+00
     17.713  0.2800E-01  0.3104E+00
     17.805  0.2003E-01  0.3122E+00
     17.897  0.1889E-01  0.3139E+00
     17.989  0.2476E-01  0.3162E+00
     18.081  0.2336E-01  0.3184E+00
     18.174  0.2851E-01  0.3210E+00
     18.266  0.2565E-01  0.3234E+00
     18.358  0.2419E-01  0.3256E+00
     18.450  0.2176E-01  0.3276E+00
     18.542  0.2840E-01  0.3302E+00
     18.634  0.2187E-01  0.3322E+00
     18.726  0.2547E-01  0.3346E+00
     18.818  0.2270E-01  0.3367E+00
     18.911  0.2493E-01  0.3390E+00
     19.003  0.2764E-01  0.3415E+00
     19.095  0.2103E-01  0.3435E+00
     19.187  0.1780E-01  0.3451E+00
     19.279  0.1789E-01  0.3467E+00
     19.371  0.1880E-01  0.3485E+00
     19.463  0.2451E-01  0.3507E+00
     19.556  0.2356E-01  0.3529E+00
     19.648  0.2086E-01  0.3548E+00
     19.740  0.1793E-01  0.3565E+00
     19.832  0.7454E-02  0.3572E+00
     19.924  0.5618E-02  0.3577E+00
     20.016  0.1306E-01  0.3589E+00
     20.108  0.6165E-02  0.3595E+00
     20.201  0.2920E-02  0.3597E+00
     20.293  0.8261E-03  0.3598E+00
     20.385  0.3985E-03  0.3598E+00
     20.477  0.1635E-02  0.3600E+00
     20.569  0.9486E-04  0.3600E+00
     20.661  0.1791E-07  0.3600E+00
     20.753  0.5235E-14  0.3600E+00
     20.846  0.0000E+00  0.3600E+00
     20.938  0.0000E+00  0.3600E+00
     21.030  0.0000E+00  0.3600E+00
     21.122  0.0000E+00  0.3600E+00
     21.214  0.0000E+00  0.3600E+00
     21.306  0.0000E+00  0.3600E+00
     21.398  0.0000E+00  0.3600E+00
     21.491  0.0000E+00  0.3600E+00
     21.583  0.0000E+00  0.3600E+00
     21.675  0.0000E+00  0.3600E+00
