Al4C3 Pbam polymorph (findsym-output) - 
   1.00000000000000     
     8.4823493958000000    0.0000000000000000    0.0000000000000000
     0.0000000000000000    4.8977818489000002    0.0000000000000000
     0.0000000000000000    0.0000000000000000    2.9013054371000000
   Al   C 
     8     6
Direct
  0.7858800289999976  0.1601099969999993  0.0000000000000000
  0.2141199710000024  0.8398900030000007  0.0000000000000000
  0.7141199710000024  0.6601099969999993  0.0000000000000000
  0.2858800289999976  0.3398900030000007  0.0000000000000000
  0.0310999989999985  0.2530300020000027  0.5000000000000000
  0.9689000250000035  0.7469699979999973  0.5000000000000000
  0.4688999950000010  0.7530300020000027  0.5000000000000000
  0.5310999749999965  0.2469699979999973  0.5000000000000000
  0.0000000000000000  0.0000000000000000  0.0000000000000000
  0.5000000000000000  0.5000000000000000  0.0000000000000000
  0.8245900269999993  0.4467200039999994  0.5000000000000000
  0.1754099730000007  0.5532799960000006  0.5000000000000000
  0.6754099730000007  0.9467200039999994  0.5000000000000000
  0.3245900269999993  0.0532799960000006  0.5000000000000000
 
  0.00000000E+00  0.00000000E+00  0.00000000E+00
  0.00000000E+00  0.00000000E+00  0.00000000E+00
  0.00000000E+00  0.00000000E+00  0.00000000E+00
  0.00000000E+00  0.00000000E+00  0.00000000E+00
  0.00000000E+00  0.00000000E+00  0.00000000E+00
  0.00000000E+00  0.00000000E+00  0.00000000E+00
  0.00000000E+00  0.00000000E+00  0.00000000E+00
  0.00000000E+00  0.00000000E+00  0.00000000E+00
  0.00000000E+00  0.00000000E+00  0.00000000E+00
  0.00000000E+00  0.00000000E+00  0.00000000E+00
  0.00000000E+00  0.00000000E+00  0.00000000E+00
  0.00000000E+00  0.00000000E+00  0.00000000E+00
  0.00000000E+00  0.00000000E+00  0.00000000E+00
  0.00000000E+00  0.00000000E+00  0.00000000E+00
