Al4C3 Pbam - H(P) scan @ 60 GPa (ISIF=8)
           1
     8.482349    0.000000    0.000000
     0.000000    4.897782    0.000000
     0.000000    0.000000    2.901305
   Al   C 
     8     6
Direct configuration=     1
   0.78588003  0.16011000  0.00000000
   0.21411997  0.83989000  0.00000000
   0.71411997  0.66011000  0.00000000
   0.28588003  0.33989000  0.00000000
   0.03110000  0.25303000  0.50000000
   0.96890003  0.74697000  0.50000000
   0.46890000  0.75303000  0.50000000
   0.53109997  0.24697000  0.50000000
   0.00000000  0.00000000  0.00000000
   0.50000000  0.50000000  0.00000000
   0.82459003  0.44672000  0.50000000
   0.17540997  0.55328000  0.50000000
   0.67540997  0.94672000  0.50000000
   0.32459003  0.05328000  0.50000000
Al4C3 Pbam - H(P) scan @ 60 GPa (ISIF=8)
           1
     8.262494    0.000000    0.000000
     0.000000    4.770835    0.000000
     0.000000    0.000000    2.826106
   Al   C 
     8     6
Direct configuration=     2
   0.78587902  0.16010040  0.00000000
   0.21412098  0.83989960  0.00000000
   0.71412098  0.66010040  0.00000000
   0.28587902  0.33989960  0.00000000
   0.03110373  0.25301457  0.50000000
   0.96889629  0.74698543  0.50000000
   0.46889626  0.75301457  0.50000000
   0.53110371  0.24698543  0.50000000
   0.00000000  0.00000000  0.00000000
   0.50000000  0.50000000  0.00000000
   0.82459047  0.44673245  0.50000000
   0.17540953  0.55326755  0.50000000
   0.67540953  0.94673245  0.50000000
   0.32459047  0.05326755  0.50000000
Al4C3 Pbam - H(P) scan @ 60 GPa (ISIF=8)
           1
     8.408617    0.000000    0.000000
     0.000000    4.855208    0.000000
     0.000000    0.000000    2.876086
   Al   C 
     8     6
Direct configuration=     3
   0.78587971  0.16010695  0.00000000
   0.21412029  0.83989305  0.00000000
   0.71412029  0.66010695  0.00000000
   0.28587971  0.33989305  0.00000000
   0.03110119  0.25302510  0.50000000
   0.96889884  0.74697490  0.50000000
   0.46889881  0.75302510  0.50000000
   0.53110116  0.24697490  0.50000000
   0.00000000  0.00000000  0.00000000
   0.50000000  0.50000000  0.00000000
   0.82459017  0.44672396  0.50000000
   0.17540983  0.55327604  0.50000000
   0.67540983  0.94672396  0.50000000
   0.32459017  0.05327604  0.50000000
Al4C3 Pbam - H(P) scan @ 60 GPa (ISIF=8)
           1
     8.407472    0.000000    0.000000
     0.000000    4.854547    0.000000
     0.000000    0.000000    2.875694
   Al   C 
     8     6
Direct configuration=     4
   0.78587970  0.16010690  0.00000000
   0.21412030  0.83989310  0.00000000
   0.71412030  0.66010690  0.00000000
   0.28587970  0.33989310  0.00000000
   0.03110121  0.25302502  0.50000000
   0.96889882  0.74697498  0.50000000
   0.46889879  0.75302502  0.50000000
   0.53110118  0.24697498  0.50000000
   0.00000000  0.00000000  0.00000000
   0.50000000  0.50000000  0.00000000
   0.82459017  0.44672402  0.50000000
   0.17540983  0.55327598  0.50000000
   0.67540983  0.94672402  0.50000000
   0.32459017  0.05327598  0.50000000
Al4C3 Pbam - H(P) scan @ 60 GPa (ISIF=8)
           1
     8.407296    0.000000    0.000000
     0.000000    4.854445    0.000000
     0.000000    0.000000    2.875634
   Al   C 
     8     6
Direct configuration=     5
   0.78587970  0.16010689  0.00000000
   0.21412030  0.83989311  0.00000000
   0.71412030  0.66010689  0.00000000
   0.28587970  0.33989311  0.00000000
   0.03110121  0.25302501  0.50000000
   0.96889882  0.74697499  0.50000000
   0.46889879  0.75302501  0.50000000
   0.53110118  0.24697499  0.50000000
   0.00000000  0.00000000  0.00000000
   0.50000000  0.50000000  0.00000000
   0.82459017  0.44672403  0.50000000
   0.17540983  0.55327597  0.50000000
   0.67540983  0.94672403  0.50000000
   0.32459017  0.05327597  0.50000000
Al4C3 Pbam - H(P) scan @ 60 GPa (ISIF=8)
           1
     8.407373    0.000000    0.000000
     0.000000    4.854490    0.000000
     0.000000    0.000000    2.875661
   Al   C 
     8     6
Direct configuration=     6
   0.78587970  0.16010689  0.00000000
   0.21412030  0.83989311  0.00000000
   0.71412030  0.66010689  0.00000000
   0.28587970  0.33989311  0.00000000
   0.03110121  0.25302501  0.50000000
   0.96889882  0.74697499  0.50000000
   0.46889879  0.75302501  0.50000000
   0.53110118  0.24697499  0.50000000
   0.00000000  0.00000000  0.00000000
   0.50000000  0.50000000  0.00000000
   0.82459017  0.44672403  0.50000000
   0.17540983  0.55327597  0.50000000
   0.67540983  0.94672403  0.50000000
   0.32459017  0.05327597  0.50000000
Al4C3 Pbam - H(P) scan @ 60 GPa (ISIF=8)
           1
     8.406331    0.000000    0.000000
     0.000000    4.853888    0.000000
     0.000000    0.000000    2.875304
   Al   C 
     8     6
Direct configuration=     7
   0.78564165  0.16042762  0.00000000
   0.21435835  0.83957238  0.00000000
   0.71435835  0.66042762  0.00000000
   0.28564165  0.33957238 -0.00000000
   0.03145888  0.25301369  0.50000000
   0.96854114  0.74698631  0.50000000
   0.46854111  0.75301369  0.50000000
   0.53145886  0.24698631  0.50000000
   0.00000000 -0.00000000  0.00000000
   0.50000000  0.50000000  0.00000000
   0.82426878  0.44620315  0.50000000
   0.17573122  0.55379685  0.50000000
   0.67573122  0.94620315  0.50000000
   0.32426878  0.05379685  0.50000000
Al4C3 Pbam - H(P) scan @ 60 GPa (ISIF=8)
           1
     8.406311    0.000000    0.000000
     0.000000    4.853877    0.000000
     0.000000    0.000000    2.875297
   Al   C 
     8     6
Direct configuration=     8
   0.78563703  0.16043384  0.00000000
   0.21436297  0.83956616  0.00000000
   0.71436297  0.66043384  0.00000000
   0.28563703  0.33956616 -0.00000000
   0.03146582  0.25301347  0.50000000
   0.96853420  0.74698653  0.50000000
   0.46853417  0.75301347  0.50000000
   0.53146580  0.24698653  0.50000000
   0.00000000 -0.00000000  0.00000000
   0.50000000  0.50000000  0.00000000
   0.82426254  0.44619305  0.50000000
   0.17573746  0.55380695  0.50000000
   0.67573746  0.94619305  0.50000000
   0.32426254  0.05380695  0.50000000
Al4C3 Pbam - H(P) scan @ 60 GPa (ISIF=8)
           1
     8.406376    0.000000    0.000000
     0.000000    4.853914    0.000000
     0.000000    0.000000    2.875319
   Al   C 
     8     6
Direct configuration=     9
   0.78576056  0.16048316  0.00000000
   0.21423944  0.83951684  0.00000000
   0.71423944  0.66048316  0.00000000
   0.28576056  0.33951684 -0.00000000
   0.03157267  0.25292813  0.50000000
   0.96842735  0.74707187  0.50000000
   0.46842732  0.75292813  0.50000000
   0.53157265  0.24707187  0.50000000
   0.00000000 -0.00000000  0.00000000
   0.50000000  0.50000000  0.00000000
   0.82428842  0.44600716  0.50000000
   0.17571158  0.55399284  0.50000000
   0.67571158  0.94600716  0.50000000
   0.32428842  0.05399284  0.50000000
Al4C3 Pbam - H(P) scan @ 60 GPa (ISIF=8)
           1
     8.406401    0.000000    0.000000
     0.000000    4.853928    0.000000
     0.000000    0.000000    2.875328
   Al   C 
     8     6
Direct configuration=    10
   0.78580759  0.16050194  0.00000000
   0.21419241  0.83949806  0.00000000
   0.71419241  0.66050194  0.00000000
   0.28580759  0.33949806 -0.00000000
   0.03161335  0.25289564  0.50000000
   0.96838667  0.74710436  0.50000000
   0.46838664  0.75289564  0.50000000
   0.53161333  0.24710436  0.50000000
   0.00000000 -0.00000000  0.00000000
   0.50000000  0.50000000  0.00000000
   0.82429827  0.44593639  0.50000000
   0.17570173  0.55406361  0.50000000
   0.67570173  0.94593639  0.50000000
   0.32429827  0.05406361  0.50000000
Al4C3 Pbam - H(P) scan @ 60 GPa (ISIF=8)
           1
     8.406040    0.000000    0.000000
     0.000000    4.853720    0.000000
     0.000000    0.000000    2.875204
   Al   C 
     8     6
Direct configuration=    11
   0.78589679  0.16040594 -0.00000000
   0.21410321  0.83959406 -0.00000000
   0.71410321  0.66040594 -0.00000000
   0.28589679  0.33959406  0.00000000
   0.03176717  0.25297909  0.50000000
   0.96823285  0.74702091  0.50000000
   0.46823282  0.75297909  0.50000000
   0.53176715  0.24702091  0.50000000
   0.00000000 -0.00000000  0.00000000
   0.50000000  0.50000000  0.00000000
   0.82431463  0.44593390  0.50000000
   0.17568537  0.55406610  0.50000000
   0.67568537  0.94593390  0.50000000
   0.32431463  0.05406610  0.50000000
