Al4C3 Pnma (POSCAR.III, symmetrized via 
   1.00000000000000     
     8.6753086049196657    0.0000000000000000    0.0000000000000000
     0.0000000000000000    2.9254845913412129    0.0000000000000000
     0.0000000000000000    0.0000000000000000    9.4587436891531702
   Al   C 
    16    12
Direct
  0.7375431934621077  0.2500000000000000  0.7142061356972828
  0.7624568065378923  0.7500000000000000  0.2142061356972827
  0.2624568065378923  0.7500000000000000  0.2857938643027173
  0.2375431934621077  0.2500000000000000  0.7857938643027172
  0.6063597052386505  0.2500000000000000  0.4714989677490406
  0.8936402947613495  0.7500000000000000  0.9714989677490408
  0.3936402947613493  0.7500000000000000  0.5285010322509592
  0.1063597052386508  0.2500000000000000  0.0285010322509594
  0.1374261440960698  0.2500000000000000  0.5177278565123467
  0.3625738559039302  0.7500000000000000  0.0177278565123468
  0.8625738559039301  0.7500000000000000  0.4822721434876532
  0.6374261440960699  0.2500000000000000  0.9822721434876533
  0.9925768233074359  0.2500000000000000  0.2799780393535326
  0.5074231766925641  0.7500000000000000  0.7799780393535327
  0.0074231766925641  0.7500000000000000  0.7200219606464673
  0.4925768233074359  0.2500000000000000  0.2200219606464674
  0.9287145394262718  0.2500000000000000  0.6192087777232611
  0.5712854605737282  0.7500000000000000  0.1192087777232609
  0.0712854605737283  0.7500000000000000  0.3807912222767391
  0.4287145394262718  0.2500000000000000  0.8807912222767389
  0.3917520754249275  0.2500000000000000  0.4017851131871909
  0.1082479245750725  0.7500000000000000  0.9017851131871838
  0.6082479245750724  0.7500000000000000  0.5982148868128162
  0.8917520754249276  0.2500000000000000  0.0982148868128162
  0.7740500769369729  0.2500000000000000  0.3543312261267485
  0.7259499230630271  0.7500000000000000  0.8543312261267485
  0.2259499230630271  0.7500000000000000  0.6456687738732515
  0.2740500769369729  0.2500000000000000  0.1456687738732516
 
  0.00000000E+00  0.00000000E+00  0.00000000E+00
  0.00000000E+00  0.00000000E+00  0.00000000E+00
  0.00000000E+00  0.00000000E+00  0.00000000E+00
  0.00000000E+00  0.00000000E+00  0.00000000E+00
  0.00000000E+00  0.00000000E+00  0.00000000E+00
  0.00000000E+00  0.00000000E+00  0.00000000E+00
  0.00000000E+00  0.00000000E+00  0.00000000E+00
  0.00000000E+00  0.00000000E+00  0.00000000E+00
  0.00000000E+00  0.00000000E+00  0.00000000E+00
  0.00000000E+00  0.00000000E+00  0.00000000E+00
  0.00000000E+00  0.00000000E+00  0.00000000E+00
  0.00000000E+00  0.00000000E+00  0.00000000E+00
  0.00000000E+00  0.00000000E+00  0.00000000E+00
  0.00000000E+00  0.00000000E+00  0.00000000E+00
  0.00000000E+00  0.00000000E+00  0.00000000E+00
  0.00000000E+00  0.00000000E+00  0.00000000E+00
  0.00000000E+00  0.00000000E+00  0.00000000E+00
  0.00000000E+00  0.00000000E+00  0.00000000E+00
  0.00000000E+00  0.00000000E+00  0.00000000E+00
  0.00000000E+00  0.00000000E+00  0.00000000E+00
  0.00000000E+00  0.00000000E+00  0.00000000E+00
  0.00000000E+00  0.00000000E+00  0.00000000E+00
  0.00000000E+00  0.00000000E+00  0.00000000E+00
  0.00000000E+00  0.00000000E+00  0.00000000E+00
  0.00000000E+00  0.00000000E+00  0.00000000E+00
  0.00000000E+00  0.00000000E+00  0.00000000E+00
  0.00000000E+00  0.00000000E+00  0.00000000E+00
  0.00000000E+00  0.00000000E+00  0.00000000E+00
