  28  28   0   0
  0.8656588E+01  0.8703244E-09  0.2934905E-09  0.9489201E-09  0.5000000E-15
  1.000000000000000E-004
  CAR 
 Al4C3 Pnma-III - r2SCAN H(P) scan @ 50 G
     20.68686499     -6.96688908  301     11.29034981      1.00000000
     -6.967  0.0000E+00  0.0000E+00
     -6.875  0.0000E+00  0.0000E+00
     -6.783  0.0000E+00  0.0000E+00
     -6.690  0.0000E+00  0.0000E+00
     -6.598  0.0000E+00  0.0000E+00
     -6.506  0.0000E+00  0.0000E+00
     -6.414  0.0000E+00  0.0000E+00
     -6.322  0.0000E+00  0.0000E+00
     -6.229  0.0000E+00  0.0000E+00
     -6.137  0.0000E+00  0.0000E+00
     -6.045  0.0000E+00  0.0000E+00
     -5.953  0.1930E-14  0.1779E-15
     -5.861  0.6123E-08  0.5645E-09
     -5.769  0.2993E-04  0.2760E-05
     -5.676  0.5737E-03  0.5565E-04
     -5.584  0.2572E-02  0.2927E-03
     -5.492  0.4951E-02  0.7491E-03
     -5.400  0.5350E-02  0.1242E-02
     -5.308  0.4643E-02  0.1670E-02
     -5.215  0.5802E-02  0.2205E-02
     -5.123  0.1013E-01  0.3138E-02
     -5.031  0.1177E-01  0.4224E-02
     -4.939  0.5490E-02  0.4730E-02
     -4.847  0.5960E-02  0.5279E-02
     -4.755  0.1247E-01  0.6428E-02
     -4.662  0.1559E-01  0.7865E-02
     -4.570  0.5900E-02  0.8409E-02
     -4.478  0.1119E-01  0.9441E-02
     -4.386  0.1450E-01  0.1078E-01
     -4.294  0.1705E-01  0.1235E-01
     -4.202  0.9270E-02  0.1320E-01
     -4.109  0.1435E-01  0.1453E-01
     -4.017  0.1383E-01  0.1580E-01
     -3.925  0.1975E-01  0.1762E-01
     -3.833  0.1527E-01  0.1903E-01
     -3.741  0.1065E-01  0.2001E-01
     -3.648  0.1283E-01  0.2119E-01
     -3.556  0.2246E-01  0.2326E-01
     -3.464  0.1511E-01  0.2466E-01
     -3.372  0.2072E-01  0.2657E-01
     -3.280  0.2115E-01  0.2852E-01
     -3.188  0.9056E-02  0.2935E-01
     -3.095  0.1302E-01  0.3055E-01
     -3.003  0.3027E-01  0.3334E-01
     -2.911  0.2510E-01  0.3566E-01
     -2.819  0.1042E-01  0.3662E-01
     -2.727  0.1631E-01  0.3812E-01
     -2.634  0.2713E-01  0.4062E-01
     -2.542  0.2381E-01  0.4281E-01
     -2.450  0.2492E-01  0.4511E-01
     -2.358  0.2759E-01  0.4765E-01
     -2.266  0.2549E-01  0.5000E-01
     -2.174  0.3429E-01  0.5316E-01
     -2.081  0.2258E-01  0.5525E-01
     -1.989  0.2020E-01  0.5711E-01
     -1.897  0.2863E-01  0.5975E-01
     -1.805  0.1892E-01  0.6149E-01
     -1.713  0.3287E-01  0.6452E-01
     -1.620  0.4082E-01  0.6828E-01
     -1.528  0.3471E-01  0.7148E-01
     -1.436  0.2590E-01  0.7387E-01
     -1.344  0.3293E-01  0.7691E-01
     -1.252  0.4432E-01  0.8099E-01
     -1.160  0.4212E-01  0.8488E-01
     -1.067  0.5044E-01  0.8952E-01
     -0.975  0.4865E-01  0.9401E-01
     -0.883  0.3646E-01  0.9737E-01
     -0.791  0.2998E-01  0.1001E+00
     -0.699  0.3014E-01  0.1029E+00
     -0.607  0.1890E-01  0.1047E+00
     -0.514  0.2431E-01  0.1069E+00
     -0.422  0.2479E-01  0.1092E+00
     -0.330  0.2000E-01  0.1110E+00
     -0.238  0.2298E-01  0.1131E+00
     -0.146  0.1590E-01  0.1146E+00
     -0.053  0.2063E-01  0.1165E+00
      0.039  0.1202E-01  0.1176E+00
      0.131  0.1899E-01  0.1194E+00
      0.223  0.6034E-02  0.1199E+00
      0.315  0.8163E-03  0.1200E+00
      0.407  0.3092E-05  0.1200E+00
      0.500  0.3427E-10  0.1200E+00
      0.592  0.5475E-18  0.1200E+00
      0.684  0.0000E+00  0.1200E+00
      0.776  0.0000E+00  0.1200E+00
      0.868  0.0000E+00  0.1200E+00
      0.961  0.0000E+00  0.1200E+00
      1.053  0.0000E+00  0.1200E+00
      1.145  0.0000E+00  0.1200E+00
      1.237  0.0000E+00  0.1200E+00
      1.329  0.0000E+00  0.1200E+00
      1.421  0.0000E+00  0.1200E+00
      1.514  0.0000E+00  0.1200E+00
      1.606  0.0000E+00  0.1200E+00
      1.698  0.1391E-14  0.1200E+00
      1.790  0.6359E-08  0.1200E+00
      1.882  0.4397E-04  0.1200E+00
      1.974  0.9390E-03  0.1201E+00
      2.067  0.1934E-02  0.1203E+00
      2.159  0.5547E-02  0.1208E+00
      2.251  0.1043E-01  0.1217E+00
      2.343  0.1637E-01  0.1233E+00
      2.435  0.1791E-01  0.1249E+00
      2.528  0.9089E-02  0.1257E+00
      2.620  0.2303E-01  0.1279E+00
      2.712  0.2436E-01  0.1301E+00
      2.804  0.3066E-01  0.1329E+00
      2.896  0.3774E-01  0.1364E+00
      2.988  0.2796E-01  0.1390E+00
      3.081  0.3268E-01  0.1420E+00
      3.173  0.4414E-01  0.1461E+00
      3.265  0.4667E-01  0.1504E+00
      3.357  0.3811E-01  0.1539E+00
      3.449  0.3651E-01  0.1573E+00
      3.542  0.3542E-01  0.1605E+00
      3.634  0.3781E-01  0.1640E+00
      3.726  0.3949E-01  0.1676E+00
      3.818  0.3674E-01  0.1710E+00
      3.910  0.3248E-01  0.1740E+00
      4.002  0.3370E-01  0.1771E+00
      4.095  0.4335E-01  0.1811E+00
      4.187  0.4799E-01  0.1855E+00
      4.279  0.4511E-01  0.1897E+00
      4.371  0.3745E-01  0.1932E+00
      4.463  0.3408E-01  0.1963E+00
      4.556  0.4029E-01  0.2000E+00
      4.648  0.3086E-01  0.2029E+00
      4.740  0.2118E-01  0.2048E+00
      4.832  0.3211E-01  0.2078E+00
      4.924  0.2131E-01  0.2097E+00
      5.016  0.3827E-01  0.2133E+00
      5.109  0.5324E-01  0.2182E+00
      5.201  0.3984E-01  0.2218E+00
      5.293  0.3083E-01  0.2247E+00
      5.385  0.3669E-01  0.2281E+00
      5.477  0.2742E-01  0.2306E+00
      5.569  0.3883E-01  0.2342E+00
      5.662  0.3231E-01  0.2372E+00
      5.754  0.2910E-01  0.2398E+00
      5.846  0.4170E-01  0.2437E+00
      5.938  0.3388E-01  0.2468E+00
      6.030  0.5155E-01  0.2516E+00
      6.123  0.4808E-01  0.2560E+00
      6.215  0.4431E-01  0.2601E+00
      6.307  0.3667E-01  0.2634E+00
      6.399  0.4833E-01  0.2679E+00
      6.491  0.5378E-01  0.2729E+00
      6.583  0.1936E-01  0.2746E+00
      6.676  0.3489E-01  0.2779E+00
      6.768  0.3464E-01  0.2811E+00
      6.860  0.4791E-01  0.2855E+00
      6.952  0.3137E-01  0.2884E+00
      7.044  0.4399E-01  0.2924E+00
      7.137  0.4917E-01  0.2970E+00
      7.229  0.4083E-01  0.3007E+00
      7.321  0.3207E-01  0.3037E+00
      7.413  0.4237E-01  0.3076E+00
      7.505  0.3723E-01  0.3110E+00
      7.597  0.5033E-01  0.3156E+00
      7.690  0.5205E-01  0.3204E+00
      7.782  0.4992E-01  0.3250E+00
      7.874  0.3003E-01  0.3278E+00
      7.966  0.3524E-01  0.3311E+00
      8.058  0.4147E-01  0.3349E+00
      8.150  0.4715E-01  0.3392E+00
      8.243  0.5412E-01  0.3442E+00
      8.335  0.4149E-01  0.3480E+00
      8.427  0.5280E-01  0.3529E+00
      8.519  0.5233E-01  0.3577E+00
      8.611  0.5822E-01  0.3631E+00
      8.704  0.6175E-01  0.3688E+00
      8.796  0.6655E-01  0.3749E+00
      8.888  0.6292E-01  0.3807E+00
      8.980  0.5537E-01  0.3858E+00
      9.072  0.4833E-01  0.3903E+00
      9.164  0.5951E-01  0.3958E+00
      9.257  0.6211E-01  0.4015E+00
      9.349  0.6297E-01  0.4073E+00
      9.441  0.5339E-01  0.4122E+00
      9.533  0.4522E-01  0.4164E+00
      9.625  0.5619E-01  0.4216E+00
      9.718  0.5445E-01  0.4266E+00
      9.810  0.5840E-01  0.4320E+00
      9.902  0.6055E-01  0.4376E+00
      9.994  0.5526E-01  0.4427E+00
     10.086  0.5582E-01  0.4478E+00
     10.178  0.5825E-01  0.4532E+00
     10.271  0.5105E-01  0.4579E+00
     10.363  0.4006E-01  0.4616E+00
     10.455  0.4322E-01  0.4656E+00
     10.547  0.4297E-01  0.4695E+00
     10.639  0.2733E-01  0.4720E+00
     10.732  0.2567E-01  0.4744E+00
     10.824  0.2067E-01  0.4763E+00
     10.916  0.2382E-01  0.4785E+00
     11.008  0.1246E-01  0.4796E+00
     11.100  0.3726E-02  0.4800E+00
     11.192  0.1141E-03  0.4800E+00
     11.285  0.4704E-07  0.4800E+00
     11.377  0.4645E-13  0.4800E+00
     11.469  0.0000E+00  0.4800E+00
     11.561  0.0000E+00  0.4800E+00
     11.653  0.0000E+00  0.4800E+00
     11.745  0.0000E+00  0.4800E+00
     11.838  0.0000E+00  0.4800E+00
     11.930  0.0000E+00  0.4800E+00
     12.022  0.0000E+00  0.4800E+00
     12.114  0.0000E+00  0.4800E+00
     12.206  0.0000E+00  0.4800E+00
     12.299  0.0000E+00  0.4800E+00
     12.391  0.0000E+00  0.4800E+00
     12.483  0.0000E+00  0.4800E+00
     12.575  0.0000E+00  0.4800E+00
     12.667  0.0000E+00  0.4800E+00
     12.759  0.0000E+00  0.4800E+00
     12.852  0.0000E+00  0.4800E+00
     12.944  0.2378E-11  0.4800E+00
     13.036  0.8416E-06  0.4800E+00
     13.128  0.5306E-03  0.4800E+00
     13.220  0.2477E-02  0.4803E+00
     13.313  0.2251E-02  0.4805E+00
     13.405  0.1027E-01  0.4814E+00
     13.497  0.9633E-02  0.4823E+00
     13.589  0.9593E-02  0.4832E+00
     13.681  0.7942E-02  0.4839E+00
     13.773  0.1830E-01  0.4856E+00
     13.866  0.1900E-01  0.4874E+00
     13.958  0.2351E-01  0.4895E+00
     14.050  0.1220E-01  0.4907E+00
     14.142  0.3602E-01  0.4940E+00
     14.234  0.2449E-01  0.4962E+00
     14.327  0.1643E-01  0.4978E+00
     14.419  0.2851E-01  0.5004E+00
     14.511  0.3256E-01  0.5034E+00
     14.603  0.2916E-01  0.5061E+00
     14.695  0.4468E-01  0.5102E+00
     14.787  0.4335E-01  0.5142E+00
     14.880  0.3894E-01  0.5178E+00
     14.972  0.1975E-01  0.5196E+00
     15.064  0.2587E-01  0.5220E+00
     15.156  0.2029E-01  0.5239E+00
     15.248  0.2898E-01  0.5265E+00
     15.340  0.3792E-01  0.5300E+00
     15.433  0.5214E-01  0.5348E+00
     15.525  0.4460E-01  0.5389E+00
     15.617  0.2373E-01  0.5411E+00
     15.709  0.2209E-01  0.5432E+00
     15.801  0.2810E-01  0.5458E+00
     15.894  0.3871E-01  0.5493E+00
     15.986  0.4164E-01  0.5532E+00
     16.078  0.4568E-01  0.5574E+00
     16.170  0.3883E-01  0.5610E+00
     16.262  0.2474E-01  0.5632E+00
     16.354  0.2588E-01  0.5656E+00
     16.447  0.3360E-01  0.5687E+00
     16.539  0.3112E-01  0.5716E+00
     16.631  0.3702E-01  0.5750E+00
     16.723  0.4997E-01  0.5796E+00
     16.815  0.4046E-01  0.5833E+00
     16.908  0.4482E-01  0.5875E+00
     17.000  0.4431E-01  0.5915E+00
     17.092  0.4016E-01  0.5952E+00
     17.184  0.4145E-01  0.5991E+00
     17.276  0.3711E-01  0.6025E+00
     17.368  0.3443E-01  0.6057E+00
     17.461  0.3096E-01  0.6085E+00
     17.553  0.3837E-01  0.6121E+00
     17.645  0.3619E-01  0.6154E+00
     17.737  0.3722E-01  0.6188E+00
     17.829  0.3660E-01  0.6222E+00
     17.921  0.3547E-01  0.6255E+00
     18.014  0.3630E-01  0.6288E+00
     18.106  0.3270E-01  0.6318E+00
     18.198  0.2282E-01  0.6339E+00
     18.290  0.2755E-01  0.6365E+00
     18.382  0.3615E-01  0.6398E+00
     18.475  0.2835E-01  0.6424E+00
     18.567  0.2359E-01  0.6446E+00
     18.659  0.3501E-01  0.6478E+00
     18.751  0.4295E-01  0.6518E+00
     18.843  0.2610E-01  0.6542E+00
     18.935  0.1345E-01  0.6554E+00
     19.028  0.1987E-01  0.6573E+00
     19.120  0.1180E-01  0.6583E+00
     19.212  0.8555E-02  0.6591E+00
     19.304  0.6483E-02  0.6597E+00
     19.396  0.2415E-02  0.6599E+00
     19.489  0.5374E-03  0.6600E+00
     19.581  0.2992E-04  0.6600E+00
     19.673  0.6123E-08  0.6600E+00
     19.765  0.1930E-14  0.6600E+00
     19.857  0.0000E+00  0.6600E+00
     19.949  0.0000E+00  0.6600E+00
     20.042  0.0000E+00  0.6600E+00
     20.134  0.0000E+00  0.6600E+00
     20.226  0.0000E+00  0.6600E+00
     20.318  0.0000E+00  0.6600E+00
     20.410  0.0000E+00  0.6600E+00
     20.503  0.0000E+00  0.6600E+00
     20.595  0.0000E+00  0.6600E+00
     20.687  0.0000E+00  0.6600E+00
