       N       E                     dE             d eps       ncg     rms          rms(c)
DAV:   1    -0.238006441204E+03   -0.23801E+03   -0.47501E+00  7128   0.103E+01    0.834E+00
DAV:   2    -0.222650658172E+03    0.15356E+02   -0.12478E+00  7722   0.604E+00    0.613E+00
DAV:   3    -0.223031635357E+03   -0.38098E+00   -0.21732E-01  8304   0.210E+00    0.480E+00
DAV:   4    -0.223070376391E+03   -0.38741E-01   -0.12298E-01  8364   0.123E+00    0.898E-01
DAV:   5    -0.223071154123E+03   -0.77773E-03   -0.93677E-03  8190   0.350E-01    0.417E-01
DAV:   6    -0.223071594259E+03   -0.44014E-03   -0.21951E-03  8334   0.170E-01    0.137E-01
DAV:   7    -0.223071618622E+03   -0.24363E-04   -0.98736E-05  8496   0.392E-02    0.962E-02
DAV:   8    -0.223071615337E+03    0.32851E-05   -0.18893E-04  8460   0.570E-02    0.345E-02
DAV:   9    -0.223071600113E+03    0.15224E-04   -0.35618E-05  6774   0.252E-02    0.942E-03
DAV:  10    -0.223071602352E+03   -0.22391E-05   -0.16019E-06  4248   0.645E-03
   1 F= -.14742939E+03 E0= -.14742939E+03  d E =-.147429E+03
       N       E                     dE             d eps       ncg     rms          rms(c)
DAV:   1    -0.220802908731E+03    0.22687E+01   -0.33673E+00  7488   0.784E+00    0.155E+00
DAV:   2    -0.220776701173E+03    0.26208E-01   -0.15056E-01  8580   0.137E+00    0.874E-01
DAV:   3    -0.220776292720E+03    0.40845E-03   -0.24900E-02  8286   0.490E-01    0.319E-01
DAV:   4    -0.220776702798E+03   -0.41008E-03   -0.87615E-04  8604   0.122E-01    0.185E-01
DAV:   5    -0.220776760649E+03   -0.57851E-04   -0.20552E-04  8352   0.558E-02    0.138E-01
DAV:   6    -0.220776812037E+03   -0.51389E-04   -0.75149E-05  8280   0.450E-02    0.252E-02
DAV:   7    -0.220776806700E+03    0.53369E-05   -0.17819E-05  4410   0.165E-02
   2 F= -.14734458E+03 E0= -.14734458E+03  d E =0.848052E-01
       N       E                     dE             d eps       ncg     rms          rms(c)
DAV:   1    -0.222339538096E+03   -0.15627E+01   -0.14087E+00  7488   0.500E+00    0.101E+00
DAV:   2    -0.222329757799E+03    0.97803E-02   -0.64398E-02  8586   0.893E-01    0.570E-01
DAV:   3    -0.222329568318E+03    0.18948E-03   -0.10597E-02  8292   0.318E-01    0.210E-01
DAV:   4    -0.222329708265E+03   -0.13995E-03   -0.36304E-04  8598   0.792E-02    0.119E-01
DAV:   5    -0.222329710769E+03   -0.25038E-05   -0.95418E-05  7998   0.377E-02
   3 F= -.14746273E+03 E0= -.14746273E+03  d E =-.333371E-01
       N       E                     dE             d eps       ncg     rms          rms(c)
DAV:   1    -0.222324468744E+03    0.52395E-02   -0.59808E-05  7818   0.333E-02    0.196E-02
DAV:   2    -0.222324464450E+03    0.42942E-05   -0.95699E-06  4308   0.122E-02
   4 F= -.14746271E+03 E0= -.14746271E+03  d E =-.333247E-01
       N       E                     dE             d eps       ncg     rms          rms(c)
DAV:   1    -0.222356028357E+03   -0.31560E-01   -0.86883E-02  7140   0.122E+00    0.610E-02
DAV:   2    -0.222356068172E+03   -0.39815E-04   -0.18717E-03  8718   0.166E-01    0.474E-02
DAV:   3    -0.222356030662E+03    0.37510E-04   -0.10829E-04  8760   0.470E-02    0.276E-02
DAV:   4    -0.222356029296E+03    0.13661E-05   -0.69518E-05  8064   0.310E-02
   5 F= -.14746397E+03 E0= -.14746397E+03  d E =-.125949E-02
       N       E                     dE             d eps       ncg     rms          rms(c)
DAV:   1    -0.222360598080E+03   -0.45674E-02   -0.20202E-03  7344   0.186E-01    0.134E-02
DAV:   2    -0.222360601509E+03   -0.34296E-05   -0.51059E-05  8706   0.271E-02
   6 F= -.14746401E+03 E0= -.14746401E+03  d E =-.129146E-02
       N       E                     dE             d eps       ncg     rms          rms(c)
DAV:   1    -0.222388223163E+03   -0.27625E-01   -0.51017E-02  7140   0.931E-01    0.504E-02
DAV:   2    -0.222388235887E+03   -0.12724E-04   -0.83921E-04  8670   0.115E-01    0.316E-02
DAV:   3    -0.222388219924E+03    0.15963E-04   -0.56122E-05  8532   0.300E-02    0.172E-02
DAV:   4    -0.222388218762E+03    0.11621E-05   -0.27640E-05  5166   0.194E-02
   7 F= -.14746441E+03 E0= -.14746441E+03  d E =-.405163E-03
       N       E                     dE             d eps       ncg     rms          rms(c)
DAV:   1    -0.222386588894E+03    0.16310E-02   -0.18775E-04  6660   0.564E-02    0.437E-03
DAV:   2    -0.222386588196E+03    0.69797E-06   -0.31446E-06  3828   0.694E-03
   8 F= -.14746441E+03 E0= -.14746441E+03  d E =-.406276E-03
       N       E                     dE             d eps       ncg     rms          rms(c)
DAV:   1    -0.222377757898E+03    0.88310E-02   -0.31047E-02  7140   0.724E-01    0.336E-02
DAV:   2    -0.222377757804E+03    0.93361E-07   -0.50940E-04  8682   0.861E-02    0.235E-02
DAV:   3    -0.222377746028E+03    0.11777E-04   -0.21906E-05  6186   0.210E-02    0.148E-02
DAV:   4    -0.222377741860E+03    0.41674E-05   -0.13176E-05  4308   0.138E-02
   9 F= -.14746465E+03 E0= -.14746465E+03  d E =-.238302E-03
       N       E                     dE             d eps       ncg     rms          rms(c)
DAV:   1    -0.222377370573E+03    0.37545E-03   -0.56459E-05  6738   0.310E-02    0.364E-03
DAV:   2    -0.222377369784E+03    0.78951E-06   -0.12082E-06  3816   0.458E-03
  10 F= -.14746465E+03 E0= -.14746465E+03  d E =-.237152E-03
       N       E                     dE             d eps       ncg     rms          rms(c)
DAV:   1    -0.222385159626E+03   -0.77891E-02   -0.11129E-02  7152   0.429E-01    0.203E-02
DAV:   2    -0.222385171055E+03   -0.11429E-04   -0.24880E-04  8718   0.608E-02    0.164E-02
DAV:   3    -0.222385167981E+03    0.30736E-05   -0.10931E-05  5124   0.160E-02
  11 F= -.14746475E+03 E0= -.14746475E+03  d E =-.961679E-04
       N       E                     dE             d eps       ncg     rms          rms(c)
DAV:   1    -0.222385238120E+03   -0.67065E-04   -0.10576E-05  4242   0.124E-02    0.351E-03
DAV:   2    -0.222385237706E+03    0.41409E-06   -0.14272E-06  3852   0.535E-03
  12 F= -.14746475E+03 E0= -.14746475E+03  d E =-.962923E-04
       N       E                     dE             d eps       ncg     rms          rms(c)
DAV:   1    -0.222380959910E+03    0.42782E-02   -0.37303E-03  7152   0.247E-01    0.124E-02
DAV:   2    -0.222380963448E+03   -0.35380E-05   -0.73452E-05  8790   0.330E-02
  13 F= -.14746478E+03 E0= -.14746478E+03  d E =-.372438E-04
