Al4C3 Pnma-III - r2SCAN H(P) scan @ 50 G
           1
     8.703243    0.000000    0.000000
     0.000000    2.934905    0.000000
     0.000000    0.000000    9.489201
   Al   C 
    16    12
Direct configuration=     1
   0.73720936  0.25000000  0.71363065
   0.76279064  0.75000000  0.21363065
   0.26279064  0.75000000  0.28636935
   0.23720936  0.25000000  0.78636935
   0.60630432  0.25000000  0.47070040
   0.89369568  0.75000000  0.97070040
   0.39369568  0.75000000  0.52929960
   0.10630432  0.25000000  0.02929960
   0.13749578  0.25000000  0.51778904
   0.36250422  0.75000000  0.01778904
   0.86250422  0.75000000  0.48221096
   0.63749578  0.25000000  0.98221096
   0.99328092  0.25000000  0.27951796
   0.50671908  0.75000000  0.77951796
   0.00671908  0.75000000  0.72048204
   0.49328092  0.25000000  0.22048204
   0.92854708  0.25000000  0.61872200
   0.57145292  0.75000000  0.11872200
   0.07145292  0.75000000  0.38127800
   0.42854708  0.25000000  0.88127800
   0.39115655  0.25000000  0.40189455
   0.10884345  0.75000000  0.90189455
   0.60884345  0.75000000  0.59810545
   0.89115655  0.25000000  0.09810545
   0.77440484  0.25000000  0.35392634
   0.72559516  0.75000000  0.85392634
   0.22559516  0.75000000  0.64607366
   0.27440484  0.25000000  0.14607366
Al4C3 Pnma-III - r2SCAN H(P) scan @ 50 G
           1
     8.617645    0.000000    0.000000
     0.000000    2.906039    0.000000
     0.000000    0.000000    9.395873
   Al   C 
    16    12
Direct configuration=     2
   0.73734061  0.25000000  0.71381672
   0.76265939  0.75000000  0.21381672
   0.26265939  0.75000000  0.28618328
   0.23734061  0.25000000  0.78618328
   0.60638540  0.25000000  0.47135438
   0.89361460  0.75000000  0.97135438
   0.39361460  0.75000000  0.52864562
   0.10638540  0.25000000  0.02864562
   0.13719300  0.25000000  0.51805559
   0.36280700  0.75000000  0.01805559
   0.86280700  0.75000000  0.48194441
   0.63719300  0.25000000  0.98194441
   0.99294565  0.25000000  0.28030915
   0.50705435  0.75000000  0.78030915
   0.00705435  0.75000000  0.71969085
   0.49294565  0.25000000  0.21969085
   0.92868113  0.25000000  0.61947742
   0.57131887  0.75000000  0.11947742
   0.07131887  0.75000000  0.38052258
   0.42868113  0.25000000  0.88052258
   0.39193614  0.25000000  0.40248416
   0.10806386  0.75000000  0.90248416
   0.60806386  0.75000000  0.59751584
   0.89193614  0.25000000  0.09751584
   0.77408217  0.25000000  0.35408617
   0.72591783  0.75000000  0.85408617
   0.22591783  0.75000000  0.64591383
   0.27408217  0.25000000  0.14591383
Al4C3 Pnma-III - r2SCAN H(P) scan @ 50 G
           1
     8.673409    0.000000    0.000000
     0.000000    2.924844    0.000000
     0.000000    0.000000    9.456673
   Al   C 
    16    12
Direct configuration=     3
   0.73725426  0.25000000  0.71369430
   0.76274574  0.75000000  0.21369430
   0.26274574  0.75000000  0.28630570
   0.23725426  0.25000000  0.78630570
   0.60633205  0.25000000  0.47092410
   0.89366795  0.75000000  0.97092410
   0.39366795  0.75000000  0.52907590
   0.10633205  0.25000000  0.02907590
   0.13739221  0.25000000  0.51788022
   0.36260779  0.75000000  0.01788022
   0.86260779  0.75000000  0.48211978
   0.63739221  0.25000000  0.98211978
   0.99316624  0.25000000  0.27978860
   0.50683376  0.75000000  0.77978860
   0.00683376  0.75000000  0.72021140
   0.49316624  0.25000000  0.22021140
   0.92859293  0.25000000  0.61898040
   0.57140707  0.75000000  0.11898040
   0.07140707  0.75000000  0.38101960
   0.42859293  0.25000000  0.88101960
   0.39142322  0.25000000  0.40209624
   0.10857678  0.75000000  0.90209624
   0.60857678  0.75000000  0.59790376
   0.89142322  0.25000000  0.09790376
   0.77429446  0.25000000  0.35398101
   0.72570554  0.75000000  0.85398101
   0.22570554  0.75000000  0.64601899
   0.27429446  0.25000000  0.14601899
Al4C3 Pnma-III - r2SCAN H(P) scan @ 50 G
           1
     8.673207    0.000000    0.000000
     0.000000    2.924776    0.000000
     0.000000    0.000000    9.456452
   Al   C 
    16    12
Direct configuration=     4
   0.73725457  0.25000000  0.71369474
   0.76274543  0.75000000  0.21369474
   0.26274543  0.75000000  0.28630526
   0.23725457  0.25000000  0.78630526
   0.60633225  0.25000000  0.47092565
   0.89366775  0.75000000  0.97092565
   0.39366775  0.75000000  0.52907435
   0.10633225  0.25000000  0.02907435
   0.13739149  0.25000000  0.51788085
   0.36260851  0.75000000  0.01788085
   0.86260851  0.75000000  0.48211915
   0.63739149  0.25000000  0.98211915
   0.99316544  0.25000000  0.27979048
   0.50683456  0.75000000  0.77979048
   0.00683456  0.75000000  0.72020952
   0.49316544  0.25000000  0.22020952
   0.92859325  0.25000000  0.61898219
   0.57140675  0.75000000  0.11898219
   0.07140675  0.75000000  0.38101781
   0.42859325  0.25000000  0.88101781
   0.39142507  0.25000000  0.40209764
   0.10857493  0.75000000  0.90209764
   0.60857493  0.75000000  0.59790236
   0.89142507  0.25000000  0.09790236
   0.77429370  0.25000000  0.35398139
   0.72570630  0.75000000  0.85398139
   0.22570630  0.75000000  0.64601861
   0.27429370  0.25000000  0.14601861
Al4C3 Pnma-III - r2SCAN H(P) scan @ 50 G
           1
     8.674377    0.000000    0.000000
     0.000000    2.925171    0.000000
     0.000000    0.000000    9.457728
   Al   C 
    16    12
Direct configuration=     5
   0.73716886  0.25000000  0.71381633
   0.76283114  0.75000000  0.21381633
   0.26283114  0.75000000  0.28618367
   0.23716886  0.25000000  0.78618367
   0.60633020  0.25000000  0.47116023
   0.89366980  0.75000000  0.97116023
   0.39366980  0.75000000  0.52883977
   0.10633020  0.25000000  0.02883977
   0.13742542  0.25000000  0.51795714
   0.36257458  0.75000000  0.01795714
   0.86257458  0.75000000  0.48204286
   0.63742542  0.25000000  0.98204286
   0.99287214  0.25000000  0.27983262
   0.50712786  0.75000000  0.77983262
   0.00712786  0.75000000  0.72016738
   0.49287214  0.25000000  0.22016738
   0.92865988  0.25000000  0.61914028
   0.57134012  0.75000000  0.11914028
   0.07134012  0.75000000  0.38085972
   0.42865988  0.25000000  0.88085972
   0.39167095  0.25000000  0.40206128
   0.10832905  0.75000000  0.90206128
   0.60832905  0.75000000  0.59793872
   0.89167095  0.25000000  0.09793872
   0.77416626  0.25000000  0.35401575
   0.72583374  0.75000000  0.85401575
   0.22583374  0.75000000  0.64598425
   0.27416626  0.25000000  0.14598425
Al4C3 Pnma-III - r2SCAN H(P) scan @ 50 G
           1
     8.674553    0.000000    0.000000
     0.000000    2.925230    0.000000
     0.000000    0.000000    9.457919
   Al   C 
    16    12
Direct configuration=     6
   0.73715603  0.25000000  0.71383454
   0.76284397  0.75000000  0.21383454
   0.26284397  0.75000000  0.28616546
   0.23715603  0.25000000  0.78616546
   0.60632990  0.25000000  0.47119536
   0.89367010  0.75000000  0.97119536
   0.39367010  0.75000000  0.52880464
   0.10632990  0.25000000  0.02880464
   0.13743050  0.25000000  0.51796857
   0.36256950  0.75000000  0.01796857
   0.86256950  0.75000000  0.48203143
   0.63743050  0.25000000  0.98203143
   0.99282821  0.25000000  0.27983893
   0.50717179  0.75000000  0.77983893
   0.00717179  0.75000000  0.72016107
   0.49282821  0.25000000  0.22016107
   0.92866986  0.25000000  0.61916395
   0.57133014  0.75000000  0.11916395
   0.07133014  0.75000000  0.38083605
   0.42866986  0.25000000  0.88083605
   0.39170777  0.25000000  0.40205583
   0.10829223  0.75000000  0.90205583
   0.60829223  0.75000000  0.59794417
   0.89170777  0.25000000  0.09794417
   0.77414717  0.25000000  0.35402089
   0.72585283  0.75000000  0.85402089
   0.22585283  0.75000000  0.64597911
   0.27414717  0.25000000  0.14597911
Al4C3 Pnma-III - r2SCAN H(P) scan @ 50 G
           1
     8.675603    0.000000    0.000000
     0.000000    2.925584    0.000000
     0.000000    0.000000    9.459065
   Al   C 
    16    12
Direct configuration=     7
   0.73732586  0.25000000  0.71389605
   0.76267414  0.75000000  0.21389605
   0.26267414  0.75000000  0.28610395
   0.23732586  0.25000000  0.78610395
   0.60640788  0.25000000  0.47129083
   0.89359212  0.75000000  0.97129083
   0.39359212  0.75000000  0.52870917
   0.10640788  0.25000000  0.02870917
   0.13736386  0.25000000  0.51788830
   0.36263614  0.75000000  0.01788830
   0.86263614  0.75000000  0.48211170
   0.63736386  0.25000000  0.98211170
   0.99273515  0.25000000  0.27992522
   0.50726485  0.75000000  0.77992522
   0.00726485  0.75000000  0.72007478
   0.49273515  0.25000000  0.22007478
   0.92863186  0.25000000  0.61924362
   0.57136814  0.75000000  0.11924362
   0.07136814  0.75000000  0.38075638
   0.42863186  0.25000000  0.88075638
   0.39180882  0.25000000  0.40192658
   0.10819118  0.75000000  0.90192658
   0.60819118  0.75000000  0.59807342
   0.89180882  0.25000000  0.09807342
   0.77402679  0.25000000  0.35413527
   0.72597321  0.75000000  0.85413527
   0.22597321  0.75000000  0.64586473
   0.27402679  0.25000000  0.14586473
Al4C3 Pnma-III - r2SCAN H(P) scan @ 50 G
           1
     8.675540    0.000000    0.000000
     0.000000    2.925563    0.000000
     0.000000    0.000000    9.458996
   Al   C 
    16    12
Direct configuration=     8
   0.73731568  0.25000000  0.71389236
   0.76268432  0.75000000  0.21389236
   0.26268432  0.75000000  0.28610764
   0.23731568  0.25000000  0.78610764
   0.60640320  0.25000000  0.47128510
   0.89359680  0.75000000  0.97128510
   0.39359680  0.75000000  0.52871490
   0.10640320  0.25000000  0.02871490
   0.13736786  0.25000000  0.51789311
   0.36263214  0.75000000  0.01789311
   0.86263214  0.75000000  0.48210689
   0.63736786  0.25000000  0.98210689
   0.99274073  0.25000000  0.27992005
   0.50725927  0.75000000  0.77992005
   0.00725927  0.75000000  0.72007995
   0.49274073  0.25000000  0.22007995
   0.92863414  0.25000000  0.61923885
   0.57136586  0.75000000  0.11923885
   0.07136586  0.75000000  0.38076115
   0.42863414  0.25000000  0.88076115
   0.39180276  0.25000000  0.40193433
   0.10819724  0.75000000  0.90193433
   0.60819724  0.75000000  0.59806567
   0.89180276  0.25000000  0.09806567
   0.77403400  0.25000000  0.35412842
   0.72596600  0.75000000  0.85412842
   0.22596600  0.75000000  0.64587158
   0.27403400  0.25000000  0.14587158
Al4C3 Pnma-III - r2SCAN H(P) scan @ 50 G
           1
     8.675189    0.000000    0.000000
     0.000000    2.925444    0.000000
     0.000000    0.000000    9.458614
   Al   C 
    16    12
Direct configuration=     9
   0.73744414  0.25000000  0.71402524
   0.76255586  0.75000000  0.21402524
   0.26255586  0.75000000  0.28597476
   0.23744414  0.25000000  0.78597476
   0.60635868  0.25000000  0.47143085
   0.89364132  0.75000000  0.97143085
   0.39364132  0.75000000  0.52856915
   0.10635868  0.25000000  0.02856915
   0.13733005  0.25000000  0.51780060
   0.36266995  0.75000000  0.01780060
   0.86266995  0.75000000  0.48219940
   0.63733005  0.25000000  0.98219940
   0.99262623  0.25000000  0.27995562
   0.50737377  0.75000000  0.77995562
   0.00737377  0.75000000  0.72004438
   0.49262623  0.25000000  0.22004438
   0.92866723  0.25000000  0.61919653
   0.57133277  0.75000000  0.11919653
   0.07133277  0.75000000  0.38080347
   0.42866723  0.25000000  0.88080347
   0.39182876  0.25000000  0.40178083
   0.10817124  0.75000000  0.90178083
   0.60817124  0.75000000  0.59821917
   0.89182876  0.25000000  0.09821917
   0.77405740  0.25000000  0.35421304
   0.72594260  0.75000000  0.85421304
   0.22594260  0.75000000  0.64578696
   0.27405740  0.25000000  0.14578696
Al4C3 Pnma-III - r2SCAN H(P) scan @ 50 G
           1
     8.675175    0.000000    0.000000
     0.000000    2.925440    0.000000
     0.000000    0.000000    9.458598
   Al   C 
    16    12
Direct configuration=    10
   0.73744939  0.25000000  0.71403066
   0.76255061  0.75000000  0.21403066
   0.26255061  0.75000000  0.28596934
   0.23744939  0.25000000  0.78596934
   0.60635686  0.25000000  0.47143680
   0.89364314  0.75000000  0.97143680
   0.39364314  0.75000000  0.52856320
   0.10635686  0.25000000  0.02856320
   0.13732851  0.25000000  0.51779682
   0.36267149  0.75000000  0.01779682
   0.86267149  0.75000000  0.48220318
   0.63732851  0.25000000  0.98220318
   0.99262155  0.25000000  0.27995707
   0.50737845  0.75000000  0.77995707
   0.00737845  0.75000000  0.72004293
   0.49262155  0.25000000  0.22004293
   0.92866858  0.25000000  0.61919481
   0.57133142  0.75000000  0.11919481
   0.07133142  0.75000000  0.38080519
   0.42866858  0.25000000  0.88080519
   0.39182982  0.25000000  0.40177456
   0.10817018  0.75000000  0.90177456
   0.60817018  0.75000000  0.59822544
   0.89182982  0.25000000  0.09822544
   0.77405835  0.25000000  0.35421650
   0.72594165  0.75000000  0.85421650
   0.22594165  0.75000000  0.64578350
   0.27405835  0.25000000  0.14578350
Al4C3 Pnma-III - r2SCAN H(P) scan @ 50 G
           1
     8.675472    0.000000    0.000000
     0.000000    2.925540    0.000000
     0.000000    0.000000    9.458922
   Al   C 
    16    12
Direct configuration=    11
   0.73749048  0.25000000  0.71415429
   0.76250952  0.75000000  0.21415429
   0.26250952  0.75000000  0.28584571
   0.23749048  0.25000000  0.78584571
   0.60638144  0.25000000  0.47147844
   0.89361856  0.75000000  0.97147844
   0.39361856  0.75000000  0.52852156
   0.10638144  0.25000000  0.02852156
   0.13737653  0.25000000  0.51776957
   0.36262347  0.75000000  0.01776957
   0.86262347  0.75000000  0.48223043
   0.63737653  0.25000000  0.98223043
   0.99258857  0.25000000  0.27997712
   0.50741143  0.75000000  0.77997712
   0.00741143  0.75000000  0.72002288
   0.49258857  0.25000000  0.22002288
   0.92871710  0.25000000  0.61916771
   0.57128290  0.75000000  0.11916771
   0.07128290  0.75000000  0.38083229
   0.42871710  0.25000000  0.88083229
   0.39179198  0.25000000  0.40177915
   0.10820802  0.75000000  0.90177915
   0.60820802  0.75000000  0.59822085
   0.89179198  0.25000000  0.09822085
   0.77405004  0.25000000  0.35430472
   0.72594996  0.75000000  0.85430472
   0.22594996  0.75000000  0.64569528
   0.27405004  0.25000000  0.14569528
Al4C3 Pnma-III - r2SCAN H(P) scan @ 50 G
           1
     8.675475    0.000000    0.000000
     0.000000    2.925541    0.000000
     0.000000    0.000000    9.458925
   Al   C 
    16    12
Direct configuration=    12
   0.73749085  0.25000000  0.71415541
   0.76250915  0.75000000  0.21415541
   0.26250915  0.75000000  0.28584459
   0.23749085  0.25000000  0.78584459
   0.60638167  0.25000000  0.47147881
   0.89361833  0.75000000  0.97147881
   0.39361833  0.75000000  0.52852119
   0.10638167  0.25000000  0.02852119
   0.13737696  0.25000000  0.51776933
   0.36262304  0.75000000  0.01776933
   0.86262304  0.75000000  0.48223067
   0.63737696  0.25000000  0.98223067
   0.99258827  0.25000000  0.27997731
   0.50741173  0.75000000  0.77997731
   0.00741173  0.75000000  0.72002269
   0.49258827  0.25000000  0.22002269
   0.92871754  0.25000000  0.61916747
   0.57128246  0.75000000  0.11916747
   0.07128246  0.75000000  0.38083253
   0.42871754  0.25000000  0.88083253
   0.39179164  0.25000000  0.40177919
   0.10820836  0.75000000  0.90177919
   0.60820836  0.75000000  0.59822081
   0.89179164  0.25000000  0.09822081
   0.77404996  0.25000000  0.35430551
   0.72595004  0.75000000  0.85430551
   0.22595004  0.75000000  0.64569449
   0.27404996  0.25000000  0.14569449
Al4C3 Pnma-III - r2SCAN H(P) scan @ 50 G
           1
     8.675309    0.000000    0.000000
     0.000000    2.925485    0.000000
     0.000000    0.000000    9.458744
   Al   C 
    16    12
Direct configuration=    13
   0.73754319  0.25000000  0.71420614
   0.76245681  0.75000000  0.21420614
   0.26245681  0.75000000  0.28579386
   0.23754319  0.25000000  0.78579386
   0.60635971  0.25000000  0.47149897
   0.89364029  0.75000000  0.97149897
   0.39364029  0.75000000  0.52850103
   0.10635971  0.25000000  0.02850103
   0.13742614  0.25000000  0.51772786
   0.36257386  0.75000000  0.01772786
   0.86257386  0.75000000  0.48227214
   0.63742614  0.25000000  0.98227214
   0.99257682  0.25000000  0.27997804
   0.50742318  0.75000000  0.77997804
   0.00742318  0.75000000  0.72002196
   0.49257682  0.25000000  0.22002196
   0.92871454  0.25000000  0.61920878
   0.57128546  0.75000000  0.11920878
   0.07128546  0.75000000  0.38079122
   0.42871454  0.25000000  0.88079122
   0.39175208  0.25000000  0.40178511
   0.10824792  0.75000000  0.90178511
   0.60824792  0.75000000  0.59821489
   0.89175208  0.25000000  0.09821489
   0.77405008  0.25000000  0.35433123
   0.72594992  0.75000000  0.85433123
   0.22594992  0.75000000  0.64566877
   0.27405008  0.25000000  0.14566877
