Al4C3 Fd-3m polymorph (findsym-output) -
   1.00000000000000     
     8.2763782679013840    0.0000000000000000    0.0000000000000000
     0.0000000000000000    8.2763782679013840    0.0000000000000000
     0.0000000000000000    0.0000000000000000    8.2763782679013840
   Al   C 
    32    24
Direct
  0.7609680263891789  0.7609680263891789  0.7609680263891789
  0.2390319736108212  0.2390319736108212  0.2390319736108212
  0.9890319736108211  0.4890319736108212  0.2609680263891788
  0.0109680263891788  0.5109680263891789  0.7390319736108211
  0.4890319736108212  0.2609680263891788  0.9890319736108211
  0.5109680263891789  0.7390319736108211  0.0109680263891788
  0.2609680263891788  0.9890319736108211  0.4890319736108212
  0.7390319736108211  0.0109680263891788  0.5109680263891789
  0.5109680263891789  0.0109680263891788  0.7390319736108211
  0.4890319736108212  0.9890319736108211  0.2609680263891788
  0.0109680263891788  0.7390319736108211  0.5109680263891789
  0.9890319736108211  0.2609680263891788  0.4890319736108212
  0.7390319736108211  0.5109680263891789  0.0109680263891788
  0.2609680263891788  0.4890319736108212  0.9890319736108211
  0.7609680263891789  0.2609680263891788  0.2609680263891788
  0.2390319736108212  0.7390319736108211  0.7390319736108211
  0.9890319736108211  0.9890319736108211  0.7609680263891789
  0.0109680263891788  0.0109680263891788  0.2390319736108212
  0.4890319736108212  0.7609680263891789  0.4890319736108212
  0.5109680263891789  0.2390319736108212  0.5109680263891789
  0.5109680263891789  0.5109680263891789  0.2390319736108212
  0.4890319736108212  0.4890319736108212  0.7609680263891789
  0.0109680263891788  0.2390319736108212  0.0109680263891788
  0.9890319736108211  0.7609680263891789  0.9890319736108211
  0.2609680263891788  0.7609680263891789  0.2609680263891788
  0.7390319736108211  0.2390319736108212  0.7390319736108211
  0.7609680263891789  0.9890319736108211  0.9890319736108211
  0.2390319736108212  0.0109680263891788  0.0109680263891788
  0.2390319736108212  0.5109680263891789  0.5109680263891789
  0.7609680263891789  0.4890319736108212  0.4890319736108212
  0.2609680263891788  0.2609680263891788  0.7609680263891789
  0.7390319736108211  0.7390319736108211  0.2390319736108212
  0.0000000000000000  0.0000000000000000  0.0000000000000000
  0.7500000000000000  0.2500000000000000  0.5000000000000000
  0.2500000000000000  0.7500000000000000  0.5000000000000000
  0.2500000000000000  0.5000000000000000  0.7500000000000000
  0.7500000000000000  0.5000000000000000  0.2500000000000000
  0.5000000000000000  0.7500000000000000  0.2500000000000000
  0.5000000000000000  0.2500000000000000  0.7500000000000000
  0.0000000000000000  0.5000000000000000  0.5000000000000000
  0.7500000000000000  0.7500000000000000  0.0000000000000000
  0.2500000000000000  0.2500000000000000  0.0000000000000000
  0.2500000000000000  0.0000000000000000  0.2500000000000000
  0.7500000000000000  0.0000000000000000  0.7500000000000000
  0.5000000000000000  0.0000000000000000  0.5000000000000000
  0.0000000000000000  0.7500000000000000  0.7500000000000000
  0.0000000000000000  0.2500000000000000  0.2500000000000000
  0.5000000000000000  0.5000000000000000  0.0000000000000000
  0.3750000000000000  0.3750000000000000  0.3750000000000000
  0.6250000000000000  0.6250000000000000  0.6250000000000000
  0.3750000000000000  0.8750000000000000  0.8750000000000000
  0.6250000000000000  0.1250000000000000  0.1250000000000000
  0.8750000000000000  0.8750000000000000  0.3750000000000000
  0.1250000000000000  0.1250000000000000  0.6250000000000000
  0.8750000000000000  0.3750000000000000  0.8750000000000000
  0.1250000000000000  0.6250000000000000  0.1250000000000000
 
  0.00000000E+00  0.00000000E+00  0.00000000E+00
  0.00000000E+00  0.00000000E+00  0.00000000E+00
  0.00000000E+00  0.00000000E+00  0.00000000E+00
  0.00000000E+00  0.00000000E+00  0.00000000E+00
  0.00000000E+00  0.00000000E+00  0.00000000E+00
  0.00000000E+00  0.00000000E+00  0.00000000E+00
  0.00000000E+00  0.00000000E+00  0.00000000E+00
  0.00000000E+00  0.00000000E+00  0.00000000E+00
  0.00000000E+00  0.00000000E+00  0.00000000E+00
  0.00000000E+00  0.00000000E+00  0.00000000E+00
  0.00000000E+00  0.00000000E+00  0.00000000E+00
  0.00000000E+00  0.00000000E+00  0.00000000E+00
  0.00000000E+00  0.00000000E+00  0.00000000E+00
  0.00000000E+00  0.00000000E+00  0.00000000E+00
  0.00000000E+00  0.00000000E+00  0.00000000E+00
  0.00000000E+00  0.00000000E+00  0.00000000E+00
  0.00000000E+00  0.00000000E+00  0.00000000E+00
  0.00000000E+00  0.00000000E+00  0.00000000E+00
  0.00000000E+00  0.00000000E+00  0.00000000E+00
  0.00000000E+00  0.00000000E+00  0.00000000E+00
  0.00000000E+00  0.00000000E+00  0.00000000E+00
  0.00000000E+00  0.00000000E+00  0.00000000E+00
  0.00000000E+00  0.00000000E+00  0.00000000E+00
  0.00000000E+00  0.00000000E+00  0.00000000E+00
  0.00000000E+00  0.00000000E+00  0.00000000E+00
  0.00000000E+00  0.00000000E+00  0.00000000E+00
  0.00000000E+00  0.00000000E+00  0.00000000E+00
  0.00000000E+00  0.00000000E+00  0.00000000E+00
  0.00000000E+00  0.00000000E+00  0.00000000E+00
  0.00000000E+00  0.00000000E+00  0.00000000E+00
  0.00000000E+00  0.00000000E+00  0.00000000E+00
  0.00000000E+00  0.00000000E+00  0.00000000E+00
  0.00000000E+00  0.00000000E+00  0.00000000E+00
  0.00000000E+00  0.00000000E+00  0.00000000E+00
  0.00000000E+00  0.00000000E+00  0.00000000E+00
  0.00000000E+00  0.00000000E+00  0.00000000E+00
  0.00000000E+00  0.00000000E+00  0.00000000E+00
  0.00000000E+00  0.00000000E+00  0.00000000E+00
  0.00000000E+00  0.00000000E+00  0.00000000E+00
  0.00000000E+00  0.00000000E+00  0.00000000E+00
  0.00000000E+00  0.00000000E+00  0.00000000E+00
  0.00000000E+00  0.00000000E+00  0.00000000E+00
  0.00000000E+00  0.00000000E+00  0.00000000E+00
  0.00000000E+00  0.00000000E+00  0.00000000E+00
  0.00000000E+00  0.00000000E+00  0.00000000E+00
  0.00000000E+00  0.00000000E+00  0.00000000E+00
  0.00000000E+00  0.00000000E+00  0.00000000E+00
  0.00000000E+00  0.00000000E+00  0.00000000E+00
  0.00000000E+00  0.00000000E+00  0.00000000E+00
  0.00000000E+00  0.00000000E+00  0.00000000E+00
  0.00000000E+00  0.00000000E+00  0.00000000E+00
  0.00000000E+00  0.00000000E+00  0.00000000E+00
  0.00000000E+00  0.00000000E+00  0.00000000E+00
  0.00000000E+00  0.00000000E+00  0.00000000E+00
  0.00000000E+00  0.00000000E+00  0.00000000E+00
  0.00000000E+00  0.00000000E+00  0.00000000E+00
