  56  56   0   0
  0.1057144E+02  0.8396675E-09  0.8396675E-09  0.8396675E-09  0.5000000E-15
  1.000000000000000E-004
  CAR 
 Al4C3 Fd-3m - r2SCAN H(P) scan @ 20 GPa 
     16.63631228     -7.85515387  301      9.04906016      1.00000000
     -7.855  0.0000E+00  0.0000E+00
     -7.774  0.0000E+00  0.0000E+00
     -7.692  0.0000E+00  0.0000E+00
     -7.610  0.0000E+00  0.0000E+00
     -7.529  0.0000E+00  0.0000E+00
     -7.447  0.0000E+00  0.0000E+00
     -7.365  0.0000E+00  0.0000E+00
     -7.284  0.0000E+00  0.0000E+00
     -7.202  0.0000E+00  0.0000E+00
     -7.120  0.0000E+00  0.0000E+00
     -7.039  0.0000E+00  0.0000E+00
     -6.957  0.1097E-11  0.8956E-13
     -6.875  0.1510E-06  0.1233E-07
     -6.794  0.1355E-03  0.1108E-04
     -6.712  0.1590E-02  0.1409E-03
     -6.631  0.6876E-02  0.7023E-03
     -6.549  0.1274E-01  0.1743E-02
     -6.467  0.1734E-01  0.3158E-02
     -6.386  0.1250E-01  0.4179E-02
     -6.304  0.1060E-01  0.5044E-02
     -6.222  0.3253E-01  0.7699E-02
     -6.141  0.4313E-01  0.1122E-01
     -6.059  0.1753E-01  0.1265E-01
     -5.977  0.1270E-01  0.1369E-01
     -5.896  0.4836E-01  0.1764E-01
     -5.814  0.2847E-01  0.1996E-01
     -5.733  0.5753E-01  0.2466E-01
     -5.651  0.6593E-01  0.3004E-01
     -5.569  0.4097E-01  0.3338E-01
     -5.488  0.1767E-01  0.3483E-01
     -5.406  0.2709E-02  0.3505E-01
     -5.324  0.1724E-01  0.3645E-01
     -5.243  0.7403E-02  0.3706E-01
     -5.161  0.4957E-01  0.4111E-01
     -5.079  0.2633E-01  0.4326E-01
     -4.998  0.1044E-01  0.4411E-01
     -4.916  0.1263E-01  0.4514E-01
     -4.835  0.1322E-01  0.4622E-01
     -4.753  0.6432E-01  0.5147E-01
     -4.671  0.5903E-01  0.5629E-01
     -4.590  0.6282E-01  0.6142E-01
     -4.508  0.4041E-01  0.6472E-01
     -4.426  0.1009E-01  0.6554E-01
     -4.345  0.1698E-01  0.6693E-01
     -4.263  0.3252E-01  0.6958E-01
     -4.181  0.1829E-01  0.7107E-01
     -4.100  0.2614E-03  0.7110E-01
     -4.018  0.6721E-02  0.7164E-01
     -3.937  0.3442E-01  0.7445E-01
     -3.855  0.1103E-01  0.7535E-01
     -3.773  0.6815E-01  0.8092E-01
     -3.692  0.2992E-01  0.8336E-01
     -3.610  0.7041E-01  0.8911E-01
     -3.528  0.6823E-01  0.9468E-01
     -3.447  0.8010E-01  0.1012E+00
     -3.365  0.4007E-01  0.1045E+00
     -3.283  0.7901E-01  0.1109E+00
     -3.202  0.9442E-01  0.1186E+00
     -3.120  0.1022E+00  0.1270E+00
     -3.038  0.1143E+00  0.1363E+00
     -2.957  0.1312E+00  0.1470E+00
     -2.875  0.1157E+00  0.1565E+00
     -2.794  0.6297E-01  0.1616E+00
     -2.712  0.1947E-01  0.1632E+00
     -2.630  0.3163E-01  0.1658E+00
     -2.549  0.7809E-01  0.1722E+00
     -2.467  0.1440E+00  0.1839E+00
     -2.385  0.1638E+00  0.1973E+00
     -2.304  0.1295E+00  0.2079E+00
     -2.222  0.1654E+00  0.2214E+00
     -2.140  0.1653E+00  0.2349E+00
     -2.059  0.2611E-01  0.2370E+00
     -1.977  0.3366E-01  0.2398E+00
     -1.896  0.2997E-02  0.2400E+00
     -1.814  0.5784E-05  0.2400E+00
     -1.732  0.1268E-09  0.2400E+00
     -1.651  0.2040E-16  0.2400E+00
     -1.569  0.0000E+00  0.2400E+00
     -1.487  0.0000E+00  0.2400E+00
     -1.406  0.0000E+00  0.2400E+00
     -1.324  0.0000E+00  0.2400E+00
     -1.242  0.0000E+00  0.2400E+00
     -1.161  0.0000E+00  0.2400E+00
     -1.079  0.0000E+00  0.2400E+00
     -0.998  0.0000E+00  0.2400E+00
     -0.916  0.0000E+00  0.2400E+00
     -0.834  0.0000E+00  0.2400E+00
     -0.753  0.0000E+00  0.2400E+00
     -0.671  0.0000E+00  0.2400E+00
     -0.589  0.0000E+00  0.2400E+00
     -0.508  0.0000E+00  0.2400E+00
     -0.426  0.0000E+00  0.2400E+00
     -0.344  0.0000E+00  0.2400E+00
     -0.263  0.0000E+00  0.2400E+00
     -0.181  0.5312E-18  0.2400E+00
     -0.100  0.6929E-11  0.2400E+00
     -0.018  0.4868E-06  0.2400E+00
      0.064  0.2322E-03  0.2400E+00
      0.145  0.1439E-02  0.2401E+00
      0.227  0.2420E-03  0.2402E+00
      0.309  0.9086E-05  0.2402E+00
      0.390  0.2205E-02  0.2403E+00
      0.472  0.8526E-02  0.2410E+00
      0.554  0.9792E-02  0.2418E+00
      0.635  0.1374E-01  0.2430E+00
      0.717  0.9269E-02  0.2437E+00
      0.798  0.6141E-02  0.2442E+00
      0.880  0.8376E-04  0.2442E+00
      0.962  0.8620E-03  0.2443E+00
      1.043  0.2755E-01  0.2465E+00
      1.125  0.5095E-01  0.2507E+00
      1.207  0.4426E-01  0.2543E+00
      1.288  0.3931E-01  0.2575E+00
      1.370  0.1670E-01  0.2589E+00
      1.452  0.2588E-01  0.2610E+00
      1.533  0.6991E-01  0.2667E+00
      1.615  0.9386E-01  0.2744E+00
      1.697  0.6374E-01  0.2796E+00
      1.778  0.8692E-01  0.2867E+00
      1.860  0.1042E+00  0.2952E+00
      1.941  0.1032E+00  0.3036E+00
      2.023  0.3704E-01  0.3066E+00
      2.105  0.1028E+00  0.3150E+00
      2.186  0.1428E+00  0.3267E+00
      2.268  0.7849E-01  0.3331E+00
      2.350  0.9861E-01  0.3411E+00
      2.431  0.1368E+00  0.3523E+00
      2.513  0.1421E+00  0.3639E+00
      2.595  0.9524E-01  0.3717E+00
      2.676  0.6244E-01  0.3768E+00
      2.758  0.5751E-01  0.3815E+00
      2.839  0.3167E-01  0.3841E+00
      2.921  0.1136E+00  0.3933E+00
      3.003  0.8110E-01  0.3999E+00
      3.084  0.1331E+00  0.4108E+00
      3.166  0.7955E-01  0.4173E+00
      3.248  0.7696E-01  0.4236E+00
      3.329  0.1740E-01  0.4250E+00
      3.411  0.2692E-01  0.4272E+00
      3.493  0.9665E-01  0.4351E+00
      3.574  0.8775E-01  0.4423E+00
      3.656  0.7190E-01  0.4481E+00
      3.737  0.6143E-01  0.4531E+00
      3.819  0.8164E-01  0.4598E+00
      3.901  0.7505E-01  0.4659E+00
      3.982  0.1805E-01  0.4674E+00
      4.064  0.8098E-01  0.4740E+00
      4.146  0.1162E+00  0.4835E+00
      4.227  0.8010E-01  0.4900E+00
      4.309  0.9169E-01  0.4975E+00
      4.391  0.6413E-01  0.5028E+00
      4.472  0.3161E-01  0.5054E+00
      4.554  0.4657E-01  0.5092E+00
      4.635  0.1237E+00  0.5192E+00
      4.717  0.7753E-01  0.5256E+00
      4.799  0.1689E-01  0.5270E+00
      4.880  0.5568E-02  0.5274E+00
      4.962  0.3920E-01  0.5306E+00
      5.044  0.1233E+00  0.5407E+00
      5.125  0.1011E+00  0.5489E+00
      5.207  0.1053E+00  0.5575E+00
      5.289  0.1323E+00  0.5683E+00
      5.370  0.1392E+00  0.5797E+00
      5.452  0.1145E+00  0.5890E+00
      5.534  0.9617E-01  0.5969E+00
      5.615  0.8949E-01  0.6042E+00
      5.697  0.7666E-01  0.6105E+00
      5.778  0.9035E-01  0.6178E+00
      5.860  0.1077E+00  0.6266E+00
      5.942  0.6488E-01  0.6319E+00
      6.023  0.7728E-01  0.6382E+00
      6.105  0.1884E+00  0.6536E+00
      6.187  0.1817E+00  0.6684E+00
      6.268  0.1486E+00  0.6806E+00
      6.350  0.1309E+00  0.6913E+00
      6.432  0.1541E+00  0.7038E+00
      6.513  0.2248E+00  0.7222E+00
      6.595  0.1366E+00  0.7333E+00
      6.676  0.1509E+00  0.7457E+00
      6.758  0.2158E+00  0.7633E+00
      6.840  0.1562E+00  0.7760E+00
      6.921  0.1498E+00  0.7883E+00
      7.003  0.2263E+00  0.8067E+00
      7.085  0.2268E+00  0.8252E+00
      7.166  0.2047E+00  0.8420E+00
      7.248  0.2122E+00  0.8593E+00
      7.330  0.1300E+00  0.8699E+00
      7.411  0.1302E+00  0.8805E+00
      7.493  0.3575E-01  0.8834E+00
      7.574  0.2989E-01  0.8859E+00
      7.656  0.9249E-01  0.8934E+00
      7.738  0.4532E-01  0.8971E+00
      7.819  0.8735E-01  0.9043E+00
      7.901  0.1167E+00  0.9138E+00
      7.983  0.9570E-01  0.9216E+00
      8.064  0.5757E-01  0.9263E+00
      8.146  0.6241E-01  0.9314E+00
      8.228  0.9859E-01  0.9394E+00
      8.309  0.9069E-01  0.9469E+00
      8.391  0.4647E-01  0.9506E+00
      8.472  0.1160E-01  0.9516E+00
      8.554  0.3382E-01  0.9544E+00
      8.636  0.3493E-01  0.9572E+00
      8.717  0.2437E-01  0.9592E+00
      8.799  0.6739E-02  0.9597E+00
      8.881  0.3053E-02  0.9600E+00
      8.962  0.7966E-04  0.9600E+00
      9.044  0.1863E-07  0.9600E+00
      9.126  0.2634E-13  0.9600E+00
      9.207  0.0000E+00  0.9600E+00
      9.289  0.0000E+00  0.9600E+00
      9.371  0.0000E+00  0.9600E+00
      9.452  0.0000E+00  0.9600E+00
      9.534  0.0000E+00  0.9600E+00
      9.615  0.0000E+00  0.9600E+00
      9.697  0.0000E+00  0.9600E+00
      9.779  0.0000E+00  0.9600E+00
      9.860  0.0000E+00  0.9600E+00
      9.942  0.0000E+00  0.9600E+00
     10.024  0.0000E+00  0.9600E+00
     10.105  0.2189E-16  0.9600E+00
     10.187  0.9705E-10  0.9600E+00
     10.269  0.2458E-05  0.9600E+00
     10.350  0.4571E-03  0.9600E+00
     10.432  0.1350E-02  0.9601E+00
     10.513  0.1041E-03  0.9602E+00
     10.595  0.8755E-07  0.9602E+00
     10.677  0.8824E-12  0.9602E+00
     10.758  0.1476E-06  0.9602E+00
     10.840  0.3301E-03  0.9602E+00
     10.922  0.7237E-02  0.9608E+00
     11.003  0.3879E-02  0.9611E+00
     11.085  0.3762E-04  0.9611E+00
     11.167  0.2242E-06  0.9611E+00
     11.248  0.5686E-03  0.9611E+00
     11.330  0.1402E-01  0.9623E+00
     11.411  0.8850E-02  0.9630E+00
     11.493  0.1200E-01  0.9640E+00
     11.575  0.7382E-02  0.9646E+00
     11.656  0.1357E-01  0.9657E+00
     11.738  0.6506E-01  0.9710E+00
     11.820  0.5052E-01  0.9751E+00
     11.901  0.1334E+00  0.9860E+00
     11.983  0.8029E-01  0.9926E+00
     12.065  0.3533E-01  0.9955E+00
     12.146  0.2685E-01  0.9977E+00
     12.228  0.6253E-01  0.1003E+01
     12.309  0.1199E-01  0.1004E+01
     12.391  0.6114E-01  0.1009E+01
     12.473  0.1349E+00  0.1020E+01
     12.554  0.6566E-01  0.1025E+01
     12.636  0.3939E-01  0.1028E+01
     12.718  0.4067E-01  0.1032E+01
     12.799  0.1731E+00  0.1046E+01
     12.881  0.1503E+00  0.1058E+01
     12.963  0.5766E-01  0.1063E+01
     13.044  0.1602E+00  0.1076E+01
     13.126  0.1999E+00  0.1092E+01
     13.208  0.1183E+00  0.1102E+01
     13.289  0.3067E-01  0.1104E+01
     13.371  0.2526E-01  0.1106E+01
     13.452  0.5711E-01  0.1111E+01
     13.534  0.3655E-01  0.1114E+01
     13.616  0.4373E-01  0.1118E+01
     13.697  0.7033E-01  0.1123E+01
     13.779  0.4636E-01  0.1127E+01
     13.861  0.6349E-01  0.1132E+01
     13.942  0.8040E-01  0.1139E+01
     14.024  0.5507E-01  0.1143E+01
     14.106  0.8337E-01  0.1150E+01
     14.187  0.1157E+00  0.1160E+01
     14.269  0.6444E-01  0.1165E+01
     14.350  0.1276E+00  0.1175E+01
     14.432  0.7753E-01  0.1182E+01
     14.514  0.1533E+00  0.1194E+01
     14.595  0.1905E+00  0.1210E+01
     14.677  0.1042E+00  0.1218E+01
     14.759  0.1180E+00  0.1228E+01
     14.840  0.8465E-01  0.1235E+01
     14.922  0.9863E-01  0.1243E+01
     15.004  0.6339E-01  0.1248E+01
     15.085  0.7076E-01  0.1254E+01
     15.167  0.4438E-01  0.1257E+01
     15.248  0.5542E-02  0.1258E+01
     15.330  0.6678E-02  0.1258E+01
     15.412  0.1541E-01  0.1260E+01
     15.493  0.1675E-02  0.1260E+01
     15.575  0.2790E-02  0.1260E+01
     15.657  0.2709E-03  0.1260E+01
     15.738  0.3020E-06  0.1260E+01
     15.820  0.2194E-11  0.1260E+01
     15.902  0.0000E+00  0.1260E+01
     15.983  0.0000E+00  0.1260E+01
     16.065  0.0000E+00  0.1260E+01
     16.146  0.0000E+00  0.1260E+01
     16.228  0.0000E+00  0.1260E+01
     16.310  0.0000E+00  0.1260E+01
     16.391  0.0000E+00  0.1260E+01
     16.473  0.0000E+00  0.1260E+01
     16.555  0.0000E+00  0.1260E+01
     16.636  0.0000E+00  0.1260E+01
