       N       E                     dE             d eps       ncg     rms          rms(c)
DAV:   1    -0.497612158189E+03   -0.49761E+03   -0.52579E+00  2520   0.743E+00    0.398E+00
DAV:   2    -0.465162854883E+03    0.32449E+02   -0.36036E+00  2520   0.654E+00    0.802E-01
DAV:   3    -0.465694290631E+03   -0.53144E+00   -0.52452E-01  2520   0.240E+00    0.117E+00
DAV:   4    -0.465739761322E+03   -0.45471E-01   -0.42051E-02  2808   0.597E-01    0.122E+00
DAV:   5    -0.465741818617E+03   -0.20573E-02   -0.60091E-03  2832   0.187E-01    0.870E-01
DAV:   6    -0.465740949342E+03    0.86928E-03   -0.10720E-02  2856   0.223E-01    0.232E-01
DAV:   7    -0.465741109363E+03   -0.16002E-03   -0.75318E-04  2982   0.678E-02    0.854E-02
DAV:   8    -0.465741098163E+03    0.11200E-04   -0.14679E-04  3120   0.299E-02    0.487E-02
DAV:   9    -0.465741086925E+03    0.11238E-04   -0.11252E-05  1332   0.102E-02    0.209E-02
DAV:  10    -0.465741081624E+03    0.53007E-05   -0.77252E-06  1470   0.723E-03
   1 F= -.39184158E+03 E0= -.39184158E+03  d E =-.391842E+03
       N       E                     dE             d eps       ncg     rms          rms(c)
DAV:   1    -0.459302338861E+03    0.64387E+01   -0.47808E+01  2664   0.214E+01    0.738E+00
DAV:   2    -0.458384532148E+03    0.91781E+00   -0.38875E+00  2796   0.464E+00    0.382E+00
DAV:   3    -0.458358956431E+03    0.25576E-01   -0.54747E-01  2778   0.166E+00    0.142E+00
DAV:   4    -0.458362570309E+03   -0.36139E-02   -0.35885E-02  2832   0.582E-01    0.588E-01
DAV:   5    -0.458366466999E+03   -0.38967E-02   -0.31078E-03  2760   0.226E-01    0.432E-01
DAV:   6    -0.458366555747E+03   -0.88748E-04   -0.29704E-03  3072   0.158E-01    0.175E-01
DAV:   7    -0.458366579066E+03   -0.23319E-04   -0.82002E-04  2850   0.719E-02    0.628E-02
DAV:   8    -0.458366628561E+03   -0.49495E-04   -0.38454E-04  3078   0.471E-02    0.189E-02
DAV:   9    -0.458366617743E+03    0.10818E-04   -0.60489E-05  2604   0.202E-02    0.701E-03
DAV:  10    -0.458366625048E+03   -0.73048E-05   -0.15600E-05  1488   0.104E-02
   2 F= -.39128826E+03 E0= -.39128826E+03  d E =0.553318E+00
       N       E                     dE             d eps       ncg     rms          rms(c)
DAV:   1    -0.463711341123E+03   -0.53447E+01   -0.14484E+01  2652   0.113E+01    0.416E+00
DAV:   2    -0.463487685715E+03    0.22366E+00   -0.12713E+00  2844   0.256E+00    0.205E+00
DAV:   3    -0.463487622120E+03    0.63594E-04   -0.16633E-01  2778   0.906E-01    0.745E-01
DAV:   4    -0.463489817507E+03   -0.21954E-02   -0.12210E-02  2874   0.342E-01    0.324E-01
DAV:   5    -0.463491628457E+03   -0.18110E-02   -0.12486E-03  2730   0.145E-01    0.234E-01
DAV:   6    -0.463491791986E+03   -0.16353E-03   -0.11082E-03  3174   0.956E-02    0.865E-02
DAV:   7    -0.463491657006E+03    0.13498E-03   -0.29830E-04  2922   0.440E-02    0.387E-02
DAV:   8    -0.463491635803E+03    0.21202E-04   -0.15069E-04  3078   0.282E-02    0.122E-02
DAV:   9    -0.463491636407E+03   -0.60420E-06   -0.22429E-05  1794   0.125E-02
   3 F= -.39263434E+03 E0= -.39263434E+03  d E =-.792756E+00
       N       E                     dE             d eps       ncg     rms          rms(c)
DAV:   1    -0.463441476932E+03    0.50159E-01   -0.25574E-03  2712   0.151E-01    0.569E-02
DAV:   2    -0.463441378041E+03    0.98891E-04   -0.22492E-04  2838   0.342E-02    0.298E-02
DAV:   3    -0.463441344870E+03    0.33172E-04   -0.27283E-05  1650   0.119E-02    0.131E-02
DAV:   4    -0.463441331936E+03    0.12933E-04   -0.27126E-06  1278   0.562E-03    0.339E-03
DAV:   5    -0.463441328714E+03    0.32220E-05   -0.67311E-07  1278   0.258E-03
   4 F= -.39263447E+03 E0= -.39263447E+03  d E =-.792892E+00
       N       E                     dE             d eps       ncg     rms          rms(c)
DAV:   1    -0.463369952621E+03    0.71379E-01   -0.31354E-01  2790   0.169E+00    0.185E-01
DAV:   2    -0.463376389893E+03   -0.64373E-02   -0.50276E-02  2952   0.573E-01    0.251E-01
DAV:   3    -0.463376459152E+03   -0.69258E-04   -0.76424E-04  2994   0.795E-02    0.254E-01
DAV:   4    -0.463376479421E+03   -0.20269E-04   -0.16791E-05  2034   0.122E-02    0.255E-01
DAV:   5    -0.463377176276E+03   -0.69686E-03   -0.57999E-04  3228   0.691E-02    0.325E-01
DAV:   6    -0.463376104385E+03    0.10719E-02   -0.14572E-02  3360   0.360E-01    0.249E-01
DAV:   7    -0.463378042946E+03   -0.19386E-02   -0.10872E-02  2964   0.249E-01    0.367E-01
DAV:   8    -0.463376034557E+03    0.20084E-02   -0.31581E-03  3204   0.167E-01    0.153E-01
DAV:   9    -0.463375621611E+03    0.41295E-03   -0.47581E-03  3384   0.180E-01    0.567E-02
DAV:  10    -0.463375716559E+03   -0.94948E-04   -0.11689E-03  3132   0.920E-02    0.538E-02
DAV:  11    -0.463375705123E+03    0.11436E-04   -0.10839E-04  2772   0.251E-02    0.373E-02
DAV:  12    -0.463375638225E+03    0.66897E-04   -0.24343E-04  2976   0.472E-02    0.337E-02
DAV:  13    -0.463375645369E+03   -0.71433E-05   -0.59241E-05  2514   0.184E-02
   5 F= -.39263800E+03 E0= -.39263800E+03  d E =-.352711E-02
       N       E                     dE             d eps       ncg     rms          rms(c)
DAV:   1    -0.463412041273E+03   -0.36403E-01   -0.63076E-02  2784   0.760E-01    0.782E-02
DAV:   2    -0.463413384139E+03   -0.13429E-02   -0.10939E-02  2964   0.265E-01    0.113E-01
DAV:   3    -0.463413380245E+03    0.38935E-05   -0.15226E-04  2898   0.369E-02    0.111E-01
DAV:   4    -0.463413311962E+03    0.68284E-04   -0.22523E-05  2070   0.164E-02    0.974E-02
DAV:   5    -0.463413133360E+03    0.17860E-03   -0.21291E-03  2850   0.128E-01    0.650E-02
DAV:   6    -0.463413142705E+03   -0.93448E-05   -0.40019E-04  2724   0.523E-02    0.506E-02
DAV:   7    -0.463413106697E+03    0.36007E-04   -0.21346E-04  3078   0.392E-02    0.128E-02
DAV:   8    -0.463413109353E+03   -0.26555E-05   -0.45563E-05  2118   0.158E-02
   6 F= -.39264454E+03 E0= -.39264454E+03  d E =-.100669E-01
