Al4C3 Fd-3m - r2SCAN H(P) scan @ 20 GPa 
           1
     8.396675    0.000000    0.000000
     0.000000    8.396675    0.000000
     0.000000    0.000000    8.396675
   Al   C 
    32    24
Direct configuration=     1
   0.76123725  0.76123725  0.76123725
   0.23876275  0.23876275  0.23876275
   0.98876275  0.48876275  0.26123725
   0.01123725  0.51123725  0.73876275
   0.48876275  0.26123725  0.98876275
   0.51123725  0.73876275  0.01123725
   0.26123725  0.98876275  0.48876275
   0.73876275  0.01123725  0.51123725
   0.51123725  0.01123725  0.73876275
   0.48876275  0.98876275  0.26123725
   0.01123725  0.73876275  0.51123725
   0.98876275  0.26123725  0.48876275
   0.73876275  0.51123725  0.01123725
   0.26123725  0.48876275  0.98876275
   0.76123725  0.26123725  0.26123725
   0.23876275  0.73876275  0.73876275
   0.98876275  0.98876275  0.76123725
   0.01123725  0.01123725  0.23876275
   0.48876275  0.76123725  0.48876275
   0.51123725  0.23876275  0.51123725
   0.51123725  0.51123725  0.23876275
   0.48876275  0.48876275  0.76123725
   0.01123725  0.23876275  0.01123725
   0.98876275  0.76123725  0.98876275
   0.26123725  0.76123725  0.26123725
   0.73876275  0.23876275  0.73876275
   0.76123725  0.98876275  0.98876275
   0.23876275  0.01123725  0.01123725
   0.23876275  0.51123725  0.51123725
   0.76123725  0.48876275  0.48876275
   0.26123725  0.26123725  0.76123725
   0.73876275  0.73876275  0.23876275
   0.00000000  0.00000000  0.00000000
   0.75000000  0.25000000  0.50000000
   0.25000000  0.75000000  0.50000000
   0.25000000  0.50000000  0.75000000
   0.75000000  0.50000000  0.25000000
   0.50000000  0.75000000  0.25000000
   0.50000000  0.25000000  0.75000000
   0.00000000  0.50000000  0.50000000
   0.75000000  0.75000000  0.00000000
   0.25000000  0.25000000  0.00000000
   0.25000000  0.00000000  0.25000000
   0.75000000  0.00000000  0.75000000
   0.50000000  0.00000000  0.50000000
   0.00000000  0.75000000  0.75000000
   0.00000000  0.25000000  0.25000000
   0.50000000  0.50000000  0.00000000
   0.37500000  0.37500000  0.37500000
   0.62500000  0.62500000  0.62500000
   0.37500000  0.87500000  0.87500000
   0.62500000  0.12500000  0.12500000
   0.87500000  0.87500000  0.37500000
   0.12500000  0.12500000  0.62500000
   0.87500000  0.37500000  0.87500000
   0.12500000  0.62500000  0.12500000
Al4C3 Fd-3m - r2SCAN H(P) scan @ 20 GPa 
           1
     8.129946    0.000000    0.000000
     0.000000    8.129946    0.000000
     0.000000    0.000000    8.129946
   Al   C 
    32    24
Direct configuration=     2
   0.76123560  0.76123560  0.76123560
   0.23876440  0.23876440  0.23876440
   0.98876440  0.48876440  0.26123560
   0.01123560  0.51123560  0.73876440
   0.48876440  0.26123560  0.98876440
   0.51123560  0.73876440  0.01123560
   0.26123560  0.98876440  0.48876440
   0.73876440  0.01123560  0.51123560
   0.51123560  0.01123560  0.73876440
   0.48876440  0.98876440  0.26123560
   0.01123560  0.73876440  0.51123560
   0.98876440  0.26123560  0.48876440
   0.73876440  0.51123560  0.01123560
   0.26123560  0.48876440  0.98876440
   0.76123560  0.26123560  0.26123560
   0.23876440  0.73876440  0.73876440
   0.98876440  0.98876440  0.76123560
   0.01123560  0.01123560  0.23876440
   0.48876440  0.76123560  0.48876440
   0.51123560  0.23876440  0.51123560
   0.51123560  0.51123560  0.23876440
   0.48876440  0.48876440  0.76123560
   0.01123560  0.23876440  0.01123560
   0.98876440  0.76123560  0.98876440
   0.26123560  0.76123560  0.26123560
   0.73876440  0.23876440  0.73876440
   0.76123560  0.98876440  0.98876440
   0.23876440  0.01123560  0.01123560
   0.23876440  0.51123560  0.51123560
   0.76123560  0.48876440  0.48876440
   0.26123560  0.26123560  0.76123560
   0.73876440  0.73876440  0.23876440
   0.00000000  0.00000000  0.00000000
   0.75000000  0.25000000  0.50000000
   0.25000000  0.75000000  0.50000000
   0.25000000  0.50000000  0.75000000
   0.75000000  0.50000000  0.25000000
   0.50000000  0.75000000  0.25000000
   0.50000000  0.25000000  0.75000000
   0.00000000  0.50000000  0.50000000
   0.75000000  0.75000000  0.00000000
   0.25000000  0.25000000  0.00000000
   0.25000000  0.00000000  0.25000000
   0.75000000  0.00000000  0.75000000
   0.50000000  0.00000000  0.50000000
   0.00000000  0.75000000  0.75000000
   0.00000000  0.25000000  0.25000000
   0.50000000  0.50000000  0.00000000
   0.37500000  0.37500000  0.37500000
   0.62500000  0.62500000  0.62500000
   0.37500000  0.87500000  0.87500000
   0.62500000  0.12500000  0.12500000
   0.87500000  0.87500000  0.37500000
   0.12500000  0.12500000  0.62500000
   0.87500000  0.37500000  0.87500000
   0.12500000  0.62500000  0.12500000
Al4C3 Fd-3m - r2SCAN H(P) scan @ 20 GPa 
           1
     8.279836    0.000000    0.000000
     0.000000    8.279836    0.000000
     0.000000    0.000000    8.279836
   Al   C 
    32    24
Direct configuration=     3
   0.76123656  0.76123656  0.76123656
   0.23876344  0.23876344  0.23876344
   0.98876344  0.48876344  0.26123656
   0.01123656  0.51123656  0.73876344
   0.48876344  0.26123656  0.98876344
   0.51123656  0.73876344  0.01123656
   0.26123656  0.98876344  0.48876344
   0.73876344  0.01123656  0.51123656
   0.51123656  0.01123656  0.73876344
   0.48876344  0.98876344  0.26123656
   0.01123656  0.73876344  0.51123656
   0.98876344  0.26123656  0.48876344
   0.73876344  0.51123656  0.01123656
   0.26123656  0.48876344  0.98876344
   0.76123656  0.26123656  0.26123656
   0.23876344  0.73876344  0.73876344
   0.98876344  0.98876344  0.76123656
   0.01123656  0.01123656  0.23876344
   0.48876344  0.76123656  0.48876344
   0.51123656  0.23876344  0.51123656
   0.51123656  0.51123656  0.23876344
   0.48876344  0.48876344  0.76123656
   0.01123656  0.23876344  0.01123656
   0.98876344  0.76123656  0.98876344
   0.26123656  0.76123656  0.26123656
   0.73876344  0.23876344  0.73876344
   0.76123656  0.98876344  0.98876344
   0.23876344  0.01123656  0.01123656
   0.23876344  0.51123656  0.51123656
   0.76123656  0.48876344  0.48876344
   0.26123656  0.26123656  0.76123656
   0.73876344  0.73876344  0.23876344
   0.00000000  0.00000000  0.00000000
   0.75000000  0.25000000  0.50000000
   0.25000000  0.75000000  0.50000000
   0.25000000  0.50000000  0.75000000
   0.75000000  0.50000000  0.25000000
   0.50000000  0.75000000  0.25000000
   0.50000000  0.25000000  0.75000000
   0.00000000  0.50000000  0.50000000
   0.75000000  0.75000000  0.00000000
   0.25000000  0.25000000  0.00000000
   0.25000000  0.00000000  0.25000000
   0.75000000  0.00000000  0.75000000
   0.50000000  0.00000000  0.50000000
   0.00000000  0.75000000  0.75000000
   0.00000000  0.25000000  0.25000000
   0.50000000  0.50000000  0.00000000
   0.37500000  0.37500000  0.37500000
   0.62500000  0.62500000  0.62500000
   0.37500000  0.87500000  0.87500000
   0.62500000  0.12500000  0.12500000
   0.87500000  0.87500000  0.37500000
   0.12500000  0.12500000  0.62500000
   0.87500000  0.37500000  0.87500000
   0.12500000  0.62500000  0.12500000
Al4C3 Fd-3m - r2SCAN H(P) scan @ 20 GPa 
           1
     8.277871    0.000000    0.000000
     0.000000    8.277871    0.000000
     0.000000    0.000000    8.277871
   Al   C 
    32    24
Direct configuration=     4
   0.76123655  0.76123655  0.76123655
   0.23876345  0.23876345  0.23876345
   0.98876345  0.48876345  0.26123655
   0.01123655  0.51123655  0.73876345
   0.48876345  0.26123655  0.98876345
   0.51123655  0.73876345  0.01123655
   0.26123655  0.98876345  0.48876345
   0.73876345  0.01123655  0.51123655
   0.51123655  0.01123655  0.73876345
   0.48876345  0.98876345  0.26123655
   0.01123655  0.73876345  0.51123655
   0.98876345  0.26123655  0.48876345
   0.73876345  0.51123655  0.01123655
   0.26123655  0.48876345  0.98876345
   0.76123655  0.26123655  0.26123655
   0.23876345  0.73876345  0.73876345
   0.98876345  0.98876345  0.76123655
   0.01123655  0.01123655  0.23876345
   0.48876345  0.76123655  0.48876345
   0.51123655  0.23876345  0.51123655
   0.51123655  0.51123655  0.23876345
   0.48876345  0.48876345  0.76123655
   0.01123655  0.23876345  0.01123655
   0.98876345  0.76123655  0.98876345
   0.26123655  0.76123655  0.26123655
   0.73876345  0.23876345  0.73876345
   0.76123655  0.98876345  0.98876345
   0.23876345  0.01123655  0.01123655
   0.23876345  0.51123655  0.51123655
   0.76123655  0.48876345  0.48876345
   0.26123655  0.26123655  0.76123655
   0.73876345  0.73876345  0.23876345
   0.00000000  0.00000000  0.00000000
   0.75000000  0.25000000  0.50000000
   0.25000000  0.75000000  0.50000000
   0.25000000  0.50000000  0.75000000
   0.75000000  0.50000000  0.25000000
   0.50000000  0.75000000  0.25000000
   0.50000000  0.25000000  0.75000000
   0.00000000  0.50000000  0.50000000
   0.75000000  0.75000000  0.00000000
   0.25000000  0.25000000  0.00000000
   0.25000000  0.00000000  0.25000000
   0.75000000  0.00000000  0.75000000
   0.50000000  0.00000000  0.50000000
   0.00000000  0.75000000  0.75000000
   0.00000000  0.25000000  0.25000000
   0.50000000  0.50000000  0.00000000
   0.37500000  0.37500000  0.37500000
   0.62500000  0.62500000  0.62500000
   0.37500000  0.87500000  0.87500000
   0.62500000  0.12500000  0.12500000
   0.87500000  0.87500000  0.37500000
   0.12500000  0.12500000  0.62500000
   0.87500000  0.37500000  0.87500000
   0.12500000  0.62500000  0.12500000
Al4C3 Fd-3m - r2SCAN H(P) scan @ 20 GPa 
           1
     8.275173    0.000000    0.000000
     0.000000    8.275173    0.000000
     0.000000    0.000000    8.275173
   Al   C 
    32    24
Direct configuration=     5
   0.76075094  0.76075094  0.76075094
   0.23924906  0.23924906  0.23924906
   0.98924906  0.48924906  0.26075094
   0.01075094  0.51075094  0.73924906
   0.48924906  0.26075094  0.98924906
   0.51075094  0.73924906  0.01075094
   0.26075094  0.98924906  0.48924906
   0.73924906  0.01075094  0.51075094
   0.51075094  0.01075094  0.73924906
   0.48924906  0.98924906  0.26075094
   0.01075094  0.73924906  0.51075094
   0.98924906  0.26075094  0.48924906
   0.73924906  0.51075094  0.01075094
   0.26075094  0.48924906  0.98924906
   0.76075094  0.26075094  0.26075094
   0.23924906  0.73924906  0.73924906
   0.98924906  0.98924906  0.76075094
   0.01075094  0.01075094  0.23924906
   0.48924906  0.76075094  0.48924906
   0.51075094  0.23924906  0.51075094
   0.51075094  0.51075094  0.23924906
   0.48924906  0.48924906  0.76075094
   0.01075094  0.23924906  0.01075094
   0.98924906  0.76075094  0.98924906
   0.26075094  0.76075094  0.26075094
   0.73924906  0.23924906  0.73924906
   0.76075094  0.98924906  0.98924906
   0.23924906  0.01075094  0.01075094
   0.23924906  0.51075094  0.51075094
   0.76075094  0.48924906  0.48924906
   0.26075094  0.26075094  0.76075094
   0.73924906  0.73924906  0.23924906
   0.00000000  0.00000000  0.00000000
   0.75000000  0.25000000  0.50000000
   0.25000000  0.75000000  0.50000000
   0.25000000  0.50000000  0.75000000
   0.75000000  0.50000000  0.25000000
   0.50000000  0.75000000  0.25000000
   0.50000000  0.25000000  0.75000000
   0.00000000  0.50000000  0.50000000
   0.75000000  0.75000000  0.00000000
   0.25000000  0.25000000  0.00000000
   0.25000000  0.00000000  0.25000000
   0.75000000  0.00000000  0.75000000
   0.50000000  0.00000000  0.50000000
   0.00000000  0.75000000  0.75000000
   0.00000000  0.25000000  0.25000000
   0.50000000  0.50000000  0.00000000
   0.37500000  0.37500000  0.37500000
   0.62500000  0.62500000  0.62500000
   0.37500000  0.87500000  0.87500000
   0.62500000  0.12500000  0.12500000
   0.87500000  0.87500000  0.37500000
   0.12500000  0.12500000  0.62500000
   0.87500000  0.37500000  0.87500000
   0.12500000  0.62500000  0.12500000
Al4C3 Fd-3m - r2SCAN H(P) scan @ 20 GPa 
           1
     8.276378    0.000000    0.000000
     0.000000    8.276378    0.000000
     0.000000    0.000000    8.276378
   Al   C 
    32    24
Direct configuration=     6
   0.76096803  0.76096803  0.76096803
   0.23903197  0.23903197  0.23903197
   0.98903197  0.48903197  0.26096803
   0.01096803  0.51096803  0.73903197
   0.48903197  0.26096803  0.98903197
   0.51096803  0.73903197  0.01096803
   0.26096803  0.98903197  0.48903197
   0.73903197  0.01096803  0.51096803
   0.51096803  0.01096803  0.73903197
   0.48903197  0.98903197  0.26096803
   0.01096803  0.73903197  0.51096803
   0.98903197  0.26096803  0.48903197
   0.73903197  0.51096803  0.01096803
   0.26096803  0.48903197  0.98903197
   0.76096803  0.26096803  0.26096803
   0.23903197  0.73903197  0.73903197
   0.98903197  0.98903197  0.76096803
   0.01096803  0.01096803  0.23903197
   0.48903197  0.76096803  0.48903197
   0.51096803  0.23903197  0.51096803
   0.51096803  0.51096803  0.23903197
   0.48903197  0.48903197  0.76096803
   0.01096803  0.23903197  0.01096803
   0.98903197  0.76096803  0.98903197
   0.26096803  0.76096803  0.26096803
   0.73903197  0.23903197  0.73903197
   0.76096803  0.98903197  0.98903197
   0.23903197  0.01096803  0.01096803
   0.23903197  0.51096803  0.51096803
   0.76096803  0.48903197  0.48903197
   0.26096803  0.26096803  0.76096803
   0.73903197  0.73903197  0.23903197
   0.00000000  0.00000000  0.00000000
   0.75000000  0.25000000  0.50000000
   0.25000000  0.75000000  0.50000000
   0.25000000  0.50000000  0.75000000
   0.75000000  0.50000000  0.25000000
   0.50000000  0.75000000  0.25000000
   0.50000000  0.25000000  0.75000000
   0.00000000  0.50000000  0.50000000
   0.75000000  0.75000000  0.00000000
   0.25000000  0.25000000  0.00000000
   0.25000000  0.00000000  0.25000000
   0.75000000  0.00000000  0.75000000
   0.50000000  0.00000000  0.50000000
   0.00000000  0.75000000  0.75000000
   0.00000000  0.25000000  0.25000000
   0.50000000  0.50000000  0.00000000
   0.37500000  0.37500000  0.37500000
   0.62500000  0.62500000  0.62500000
   0.37500000  0.87500000  0.87500000
   0.62500000  0.12500000  0.12500000
   0.87500000  0.87500000  0.37500000
   0.12500000  0.12500000  0.62500000
   0.87500000  0.37500000  0.87500000
   0.12500000  0.62500000  0.12500000
