Al4C3 Fd-3m polymorph (findsym-output) -
   1.00000000000000     
     8.1092036715395821    0.0000000000000000    0.0000000000000000
     0.0000000000000000    8.1092036715395821    0.0000000000000000
     0.0000000000000000    0.0000000000000000    8.1092036715395821
   Al   C 
    32    24
Direct
  0.7603305519879355  0.7603305519879355  0.7603305519879355
  0.2396694480120644  0.2396694480120644  0.2396694480120644
  0.9896694480120645  0.4896694480120644  0.2603305519879356
  0.0103305519879356  0.5103305519879355  0.7396694480120645
  0.4896694480120644  0.2603305519879356  0.9896694480120645
  0.5103305519879355  0.7396694480120645  0.0103305519879356
  0.2603305519879356  0.9896694480120645  0.4896694480120644
  0.7396694480120645  0.0103305519879356  0.5103305519879355
  0.5103305519879355  0.0103305519879356  0.7396694480120645
  0.4896694480120644  0.9896694480120645  0.2603305519879356
  0.0103305519879356  0.7396694480120645  0.5103305519879355
  0.9896694480120645  0.2603305519879356  0.4896694480120644
  0.7396694480120645  0.5103305519879355  0.0103305519879356
  0.2603305519879356  0.4896694480120644  0.9896694480120645
  0.7603305519879355  0.2603305519879356  0.2603305519879356
  0.2396694480120644  0.7396694480120645  0.7396694480120645
  0.9896694480120645  0.9896694480120645  0.7603305519879355
  0.0103305519879356  0.0103305519879356  0.2396694480120644
  0.4896694480120644  0.7603305519879355  0.4896694480120644
  0.5103305519879355  0.2396694480120644  0.5103305519879355
  0.5103305519879355  0.5103305519879355  0.2396694480120644
  0.4896694480120644  0.4896694480120644  0.7603305519879355
  0.0103305519879356  0.2396694480120644  0.0103305519879356
  0.9896694480120645  0.7603305519879355  0.9896694480120645
  0.2603305519879356  0.7603305519879355  0.2603305519879356
  0.7396694480120645  0.2396694480120644  0.7396694480120645
  0.7603305519879355  0.9896694480120645  0.9896694480120645
  0.2396694480120644  0.0103305519879356  0.0103305519879356
  0.2396694480120644  0.5103305519879355  0.5103305519879355
  0.7603305519879355  0.4896694480120644  0.4896694480120644
  0.2603305519879356  0.2603305519879356  0.7603305519879355
  0.7396694480120645  0.7396694480120645  0.2396694480120644
  0.0000000000000000  0.0000000000000000  0.0000000000000000
  0.7500000000000000  0.2500000000000000  0.5000000000000000
  0.2500000000000000  0.7500000000000000  0.5000000000000000
  0.2500000000000000  0.5000000000000000  0.7500000000000000
  0.7500000000000000  0.5000000000000000  0.2500000000000000
  0.5000000000000000  0.7500000000000000  0.2500000000000000
  0.5000000000000000  0.2500000000000000  0.7500000000000000
  0.0000000000000000  0.5000000000000000  0.5000000000000000
  0.7500000000000000  0.7500000000000000  0.0000000000000000
  0.2500000000000000  0.2500000000000000  0.0000000000000000
  0.2500000000000000  0.0000000000000000  0.2500000000000000
  0.7500000000000000  0.0000000000000000  0.7500000000000000
  0.5000000000000000  0.0000000000000000  0.5000000000000000
  0.0000000000000000  0.7500000000000000  0.7500000000000000
  0.0000000000000000  0.2500000000000000  0.2500000000000000
  0.5000000000000000  0.5000000000000000  0.0000000000000000
  0.3750000000000000  0.3750000000000000  0.3750000000000000
  0.6250000000000000  0.6250000000000000  0.6250000000000000
  0.3750000000000000  0.8750000000000000  0.8750000000000000
  0.6250000000000000  0.1250000000000000  0.1250000000000000
  0.8750000000000000  0.8750000000000000  0.3750000000000000
  0.1250000000000000  0.1250000000000000  0.6250000000000000
  0.8750000000000000  0.3750000000000000  0.8750000000000000
  0.1250000000000000  0.6250000000000000  0.1250000000000000
 
  0.00000000E+00  0.00000000E+00  0.00000000E+00
  0.00000000E+00  0.00000000E+00  0.00000000E+00
  0.00000000E+00  0.00000000E+00  0.00000000E+00
  0.00000000E+00  0.00000000E+00  0.00000000E+00
  0.00000000E+00  0.00000000E+00  0.00000000E+00
  0.00000000E+00  0.00000000E+00  0.00000000E+00
  0.00000000E+00  0.00000000E+00  0.00000000E+00
  0.00000000E+00  0.00000000E+00  0.00000000E+00
  0.00000000E+00  0.00000000E+00  0.00000000E+00
  0.00000000E+00  0.00000000E+00  0.00000000E+00
  0.00000000E+00  0.00000000E+00  0.00000000E+00
  0.00000000E+00  0.00000000E+00  0.00000000E+00
  0.00000000E+00  0.00000000E+00  0.00000000E+00
  0.00000000E+00  0.00000000E+00  0.00000000E+00
  0.00000000E+00  0.00000000E+00  0.00000000E+00
  0.00000000E+00  0.00000000E+00  0.00000000E+00
  0.00000000E+00  0.00000000E+00  0.00000000E+00
  0.00000000E+00  0.00000000E+00  0.00000000E+00
  0.00000000E+00  0.00000000E+00  0.00000000E+00
  0.00000000E+00  0.00000000E+00  0.00000000E+00
  0.00000000E+00  0.00000000E+00  0.00000000E+00
  0.00000000E+00  0.00000000E+00  0.00000000E+00
  0.00000000E+00  0.00000000E+00  0.00000000E+00
  0.00000000E+00  0.00000000E+00  0.00000000E+00
  0.00000000E+00  0.00000000E+00  0.00000000E+00
  0.00000000E+00  0.00000000E+00  0.00000000E+00
  0.00000000E+00  0.00000000E+00  0.00000000E+00
  0.00000000E+00  0.00000000E+00  0.00000000E+00
  0.00000000E+00  0.00000000E+00  0.00000000E+00
  0.00000000E+00  0.00000000E+00  0.00000000E+00
  0.00000000E+00  0.00000000E+00  0.00000000E+00
  0.00000000E+00  0.00000000E+00  0.00000000E+00
  0.00000000E+00  0.00000000E+00  0.00000000E+00
  0.00000000E+00  0.00000000E+00  0.00000000E+00
  0.00000000E+00  0.00000000E+00  0.00000000E+00
  0.00000000E+00  0.00000000E+00  0.00000000E+00
  0.00000000E+00  0.00000000E+00  0.00000000E+00
  0.00000000E+00  0.00000000E+00  0.00000000E+00
  0.00000000E+00  0.00000000E+00  0.00000000E+00
  0.00000000E+00  0.00000000E+00  0.00000000E+00
  0.00000000E+00  0.00000000E+00  0.00000000E+00
  0.00000000E+00  0.00000000E+00  0.00000000E+00
  0.00000000E+00  0.00000000E+00  0.00000000E+00
  0.00000000E+00  0.00000000E+00  0.00000000E+00
  0.00000000E+00  0.00000000E+00  0.00000000E+00
  0.00000000E+00  0.00000000E+00  0.00000000E+00
  0.00000000E+00  0.00000000E+00  0.00000000E+00
  0.00000000E+00  0.00000000E+00  0.00000000E+00
  0.00000000E+00  0.00000000E+00  0.00000000E+00
  0.00000000E+00  0.00000000E+00  0.00000000E+00
  0.00000000E+00  0.00000000E+00  0.00000000E+00
  0.00000000E+00  0.00000000E+00  0.00000000E+00
  0.00000000E+00  0.00000000E+00  0.00000000E+00
  0.00000000E+00  0.00000000E+00  0.00000000E+00
  0.00000000E+00  0.00000000E+00  0.00000000E+00
  0.00000000E+00  0.00000000E+00  0.00000000E+00
