  56  56   0   0
  0.9857786E+01  0.8203310E-09  0.8203310E-09  0.8203310E-09  0.5000000E-15
  1.000000000000000E-004
  CAR 
 Al4C3 Fd-3m - H(P) scan @ 40 GPa (ISIF=8
     17.08475543     -6.70026488  301      9.87492115      1.00000000
     -6.700  0.0000E+00  0.0000E+00
     -6.621  0.0000E+00  0.0000E+00
     -6.542  0.0000E+00  0.0000E+00
     -6.462  0.0000E+00  0.0000E+00
     -6.383  0.0000E+00  0.0000E+00
     -6.304  0.0000E+00  0.0000E+00
     -6.225  0.0000E+00  0.0000E+00
     -6.145  0.0000E+00  0.0000E+00
     -6.066  0.0000E+00  0.0000E+00
     -5.987  0.0000E+00  0.0000E+00
     -5.907  0.3282E-18  0.2602E-19
     -5.828  0.3331E-11  0.2641E-12
     -5.749  0.2395E-06  0.1899E-07
     -5.670  0.1511E-03  0.1200E-04
     -5.590  0.1556E-02  0.1353E-03
     -5.511  0.6175E-02  0.6249E-03
     -5.432  0.1101E-01  0.1498E-02
     -5.352  0.1808E-01  0.2931E-02
     -5.273  0.1303E-01  0.3965E-02
     -5.194  0.8910E-02  0.4671E-02
     -5.115  0.1897E-01  0.6175E-02
     -5.035  0.4045E-01  0.9382E-02
     -4.956  0.3684E-01  0.1230E-01
     -4.877  0.5241E-02  0.1272E-01
     -4.797  0.2071E-01  0.1436E-01
     -4.718  0.4629E-01  0.1803E-01
     -4.639  0.2833E-01  0.2028E-01
     -4.560  0.5607E-01  0.2472E-01
     -4.480  0.5878E-01  0.2938E-01
     -4.401  0.4226E-01  0.3273E-01
     -4.322  0.2578E-01  0.3478E-01
     -4.242  0.1143E-02  0.3487E-01
     -4.163  0.1170E-01  0.3580E-01
     -4.084  0.1193E-01  0.3674E-01
     -4.005  0.2392E-01  0.3864E-01
     -3.925  0.5106E-01  0.4269E-01
     -3.846  0.9643E-02  0.4345E-01
     -3.767  0.1812E-01  0.4489E-01
     -3.687  0.1526E-01  0.4610E-01
     -3.608  0.3912E-01  0.4920E-01
     -3.529  0.5486E-01  0.5355E-01
     -3.450  0.8065E-01  0.5994E-01
     -3.370  0.2110E-01  0.6162E-01
     -3.291  0.3737E-01  0.6458E-01
     -3.212  0.1217E-01  0.6554E-01
     -3.133  0.2231E-01  0.6731E-01
     -3.053  0.4076E-01  0.7054E-01
     -2.974  0.6902E-02  0.7109E-01
     -2.895  0.2358E-04  0.7109E-01
     -2.815  0.1178E-02  0.7119E-01
     -2.736  0.3870E-01  0.7426E-01
     -2.657  0.7145E-01  0.7992E-01
     -2.578  0.2613E-01  0.8199E-01
     -2.498  0.5448E-01  0.8631E-01
     -2.419  0.7867E-01  0.9255E-01
     -2.340  0.6220E-01  0.9748E-01
     -2.260  0.4836E-01  0.1013E+00
     -2.181  0.3277E-01  0.1039E+00
     -2.102  0.6899E-01  0.1094E+00
     -2.023  0.8630E-01  0.1162E+00
     -1.943  0.5611E-01  0.1207E+00
     -1.864  0.7340E-01  0.1265E+00
     -1.785  0.1013E+00  0.1345E+00
     -1.705  0.7530E-01  0.1405E+00
     -1.626  0.1353E+00  0.1512E+00
     -1.547  0.1049E+00  0.1595E+00
     -1.468  0.9556E-01  0.1671E+00
     -1.388  0.5924E-01  0.1718E+00
     -1.309  0.2116E-01  0.1735E+00
     -1.230  0.1521E+00  0.1855E+00
     -1.150  0.2078E+00  0.2020E+00
     -1.071  0.1036E+00  0.2102E+00
     -0.992  0.9601E-01  0.2178E+00
     -0.913  0.1460E+00  0.2294E+00
     -0.833  0.9970E-01  0.2373E+00
     -0.754  0.3255E-01  0.2399E+00
     -0.675  0.1228E-02  0.2400E+00
     -0.595  0.9632E-06  0.2400E+00
     -0.516  0.7912E-11  0.2400E+00
     -0.437  0.0000E+00  0.2400E+00
     -0.358  0.0000E+00  0.2400E+00
     -0.278  0.0000E+00  0.2400E+00
     -0.199  0.0000E+00  0.2400E+00
     -0.120  0.0000E+00  0.2400E+00
     -0.040  0.0000E+00  0.2400E+00
      0.039  0.0000E+00  0.2400E+00
      0.118  0.0000E+00  0.2400E+00
      0.197  0.0000E+00  0.2400E+00
      0.277  0.0000E+00  0.2400E+00
      0.356  0.0000E+00  0.2400E+00
      0.435  0.0000E+00  0.2400E+00
      0.515  0.0000E+00  0.2400E+00
      0.594  0.0000E+00  0.2400E+00
      0.673  0.0000E+00  0.2400E+00
      0.752  0.6465E-12  0.2400E+00
      0.832  0.8237E-07  0.2400E+00
      0.911  0.8936E-04  0.2400E+00
      0.990  0.1308E-02  0.2401E+00
      1.070  0.5679E-03  0.2402E+00
      1.149  0.5185E-05  0.2402E+00
      1.228  0.1583E-03  0.2402E+00
      1.307  0.5919E-02  0.2406E+00
      1.387  0.1106E-01  0.2415E+00
      1.466  0.1680E-01  0.2428E+00
      1.545  0.5214E-02  0.2433E+00
      1.624  0.1107E-01  0.2441E+00
      1.704  0.1025E-02  0.2442E+00
      1.783  0.6688E-03  0.2443E+00
      1.862  0.2399E-01  0.2462E+00
      1.942  0.3692E-01  0.2491E+00
      2.021  0.5228E-01  0.2532E+00
      2.100  0.3418E-01  0.2560E+00
      2.179  0.3306E-01  0.2586E+00
      2.259  0.7263E-01  0.2643E+00
      2.338  0.6564E-01  0.2695E+00
      2.417  0.1136E+00  0.2785E+00
      2.497  0.1024E+00  0.2867E+00
      2.576  0.7337E-01  0.2925E+00
      2.655  0.8779E-01  0.2994E+00
      2.734  0.5025E-01  0.3034E+00
      2.814  0.7421E-01  0.3093E+00
      2.893  0.1445E+00  0.3208E+00
      2.972  0.1052E+00  0.3291E+00
      3.052  0.6825E-01  0.3345E+00
      3.131  0.1221E+00  0.3442E+00
      3.210  0.1441E+00  0.3556E+00
      3.289  0.8374E-01  0.3623E+00
      3.369  0.7938E-01  0.3686E+00
      3.448  0.1129E+00  0.3775E+00
      3.527  0.5766E-01  0.3821E+00
      3.607  0.4226E-01  0.3854E+00
      3.686  0.5173E-01  0.3895E+00
      3.765  0.9519E-01  0.3971E+00
      3.844  0.1030E+00  0.4052E+00
      3.924  0.8201E-01  0.4117E+00
      4.003  0.5726E-01  0.4163E+00
      4.082  0.9603E-01  0.4239E+00
      4.162  0.4219E-01  0.4272E+00
      4.241  0.6555E-01  0.4324E+00
      4.320  0.7806E-01  0.4386E+00
      4.399  0.7168E-01  0.4443E+00
      4.479  0.7800E-01  0.4505E+00
      4.558  0.6377E-01  0.4556E+00
      4.637  0.7770E-01  0.4617E+00
      4.717  0.4607E-01  0.4654E+00
      4.796  0.3382E-01  0.4680E+00
      4.875  0.6917E-01  0.4735E+00
      4.954  0.1615E+00  0.4863E+00
      5.034  0.6400E-01  0.4914E+00
      5.113  0.7773E-01  0.4976E+00
      5.192  0.9279E-01  0.5049E+00
      5.272  0.6346E-01  0.5100E+00
      5.351  0.8214E-01  0.5165E+00
      5.430  0.6393E-01  0.5215E+00
      5.509  0.3397E-01  0.5242E+00
      5.589  0.4806E-01  0.5280E+00
      5.668  0.1464E-01  0.5292E+00
      5.747  0.5536E-01  0.5336E+00
      5.827  0.9575E-01  0.5412E+00
      5.906  0.1184E+00  0.5506E+00
      5.985  0.1333E+00  0.5611E+00
      6.064  0.1171E+00  0.5704E+00
      6.144  0.2089E+00  0.5870E+00
      6.223  0.9455E-01  0.5945E+00
      6.302  0.2761E-01  0.5967E+00
      6.381  0.6613E-01  0.6019E+00
      6.461  0.9223E-01  0.6092E+00
      6.540  0.1051E+00  0.6176E+00
      6.619  0.1486E+00  0.6293E+00
      6.699  0.3824E-01  0.6324E+00
      6.778  0.1253E+00  0.6423E+00
      6.857  0.1487E+00  0.6541E+00
      6.936  0.1576E+00  0.6666E+00
      7.016  0.1423E+00  0.6779E+00
      7.095  0.1361E+00  0.6887E+00
      7.174  0.1581E+00  0.7012E+00
      7.254  0.2156E+00  0.7183E+00
      7.333  0.1494E+00  0.7301E+00
      7.412  0.1064E+00  0.7386E+00
      7.491  0.2098E+00  0.7552E+00
      7.571  0.1887E+00  0.7702E+00
      7.650  0.1631E+00  0.7831E+00
      7.729  0.1411E+00  0.7943E+00
      7.809  0.1982E+00  0.8100E+00
      7.888  0.2158E+00  0.8271E+00
      7.967  0.2042E+00  0.8433E+00
      8.046  0.1847E+00  0.8580E+00
      8.126  0.9792E-01  0.8657E+00
      8.205  0.1482E+00  0.8775E+00
      8.284  0.4744E-01  0.8812E+00
      8.364  0.3159E-01  0.8837E+00
      8.443  0.4519E-01  0.8873E+00
      8.522  0.7817E-01  0.8935E+00
      8.601  0.4414E-01  0.8970E+00
      8.681  0.9214E-01  0.9043E+00
      8.760  0.1118E+00  0.9132E+00
      8.839  0.8092E-01  0.9196E+00
      8.919  0.6735E-01  0.9249E+00
      8.998  0.6322E-01  0.9300E+00
      9.077  0.1181E+00  0.9393E+00
      9.156  0.9077E-01  0.9465E+00
      9.236  0.4932E-01  0.9504E+00
      9.315  0.1365E-01  0.9515E+00
      9.394  0.3152E-01  0.9540E+00
      9.474  0.3710E-01  0.9569E+00
      9.553  0.2630E-01  0.9590E+00
      9.632  0.8168E-02  0.9597E+00
      9.711  0.3803E-02  0.9600E+00
      9.791  0.2130E-03  0.9600E+00
      9.870  0.1574E-06  0.9600E+00
      9.949  0.9790E-12  0.9600E+00
     10.029  0.0000E+00  0.9600E+00
     10.108  0.0000E+00  0.9600E+00
     10.187  0.0000E+00  0.9600E+00
     10.266  0.0000E+00  0.9600E+00
     10.346  0.0000E+00  0.9600E+00
     10.425  0.0000E+00  0.9600E+00
     10.504  0.0000E+00  0.9600E+00
     10.584  0.1021E-15  0.9600E+00
     10.663  0.2030E-09  0.9600E+00
     10.742  0.3117E-05  0.9600E+00
     10.821  0.4683E-03  0.9600E+00
     10.901  0.1376E-02  0.9601E+00
     10.980  0.1231E-03  0.9602E+00
     11.059  0.1570E-06  0.9602E+00
     11.139  0.1741E-11  0.9602E+00
     11.218  0.6735E-08  0.9602E+00
     11.297  0.5145E-04  0.9602E+00
     11.376  0.4106E-02  0.9605E+00
     11.456  0.7297E-02  0.9611E+00
     11.535  0.3703E-03  0.9611E+00
     11.614  0.2409E-06  0.9611E+00
     11.693  0.1859E-04  0.9611E+00
     11.773  0.4245E-02  0.9614E+00
     11.852  0.2135E-01  0.9631E+00
     11.931  0.1609E-01  0.9644E+00
     12.011  0.1710E-02  0.9645E+00
     12.090  0.1462E-01  0.9657E+00
     12.169  0.8576E-01  0.9725E+00
     12.248  0.4965E-01  0.9764E+00
     12.328  0.1399E+00  0.9875E+00
     12.407  0.6737E-01  0.9929E+00
     12.486  0.3430E-01  0.9956E+00
     12.566  0.1644E-01  0.9969E+00
     12.645  0.6189E-01  0.1002E+01
     12.724  0.2974E-01  0.1004E+01
     12.803  0.4589E-01  0.1008E+01
     12.883  0.1565E+00  0.1020E+01
     12.962  0.6897E-01  0.1026E+01
     13.041  0.4069E-01  0.1029E+01
     13.121  0.4309E-01  0.1032E+01
     13.200  0.1886E+00  0.1047E+01
     13.279  0.1270E+00  0.1057E+01
     13.358  0.5681E-01  0.1062E+01
     13.438  0.1485E+00  0.1074E+01
     13.517  0.2125E+00  0.1090E+01
     13.596  0.1376E+00  0.1101E+01
     13.676  0.4026E-01  0.1105E+01
     13.755  0.2516E-01  0.1107E+01
     13.834  0.5431E-01  0.1111E+01
     13.913  0.3931E-01  0.1114E+01
     13.993  0.4593E-01  0.1118E+01
     14.072  0.5942E-01  0.1122E+01
     14.151  0.4732E-01  0.1126E+01
     14.231  0.6437E-01  0.1131E+01
     14.310  0.1023E+00  0.1139E+01
     14.389  0.4891E-01  0.1143E+01
     14.468  0.6220E-01  0.1148E+01
     14.548  0.1295E+00  0.1158E+01
     14.627  0.6296E-01  0.1163E+01
     14.706  0.9157E-01  0.1171E+01
     14.786  0.1197E+00  0.1180E+01
     14.865  0.1621E+00  0.1193E+01
     14.944  0.1882E+00  0.1208E+01
     15.023  0.1034E+00  0.1216E+01
     15.103  0.1012E+00  0.1224E+01
     15.182  0.9022E-01  0.1231E+01
     15.261  0.1018E+00  0.1239E+01
     15.341  0.7625E-01  0.1245E+01
     15.420  0.6484E-01  0.1251E+01
     15.499  0.4188E-01  0.1254E+01
     15.578  0.4256E-01  0.1257E+01
     15.658  0.7797E-02  0.1258E+01
     15.737  0.9270E-02  0.1259E+01
     15.816  0.1370E-01  0.1260E+01
     15.896  0.5665E-03  0.1260E+01
     15.975  0.8134E-03  0.1260E+01
     16.054  0.2821E-02  0.1260E+01
     16.133  0.3022E-03  0.1260E+01
     16.213  0.4789E-06  0.1260E+01
     16.292  0.6662E-11  0.1260E+01
     16.371  0.8752E-18  0.1260E+01
     16.450  0.0000E+00  0.1260E+01
     16.530  0.0000E+00  0.1260E+01
     16.609  0.0000E+00  0.1260E+01
     16.688  0.0000E+00  0.1260E+01
     16.768  0.0000E+00  0.1260E+01
     16.847  0.0000E+00  0.1260E+01
     16.926  0.0000E+00  0.1260E+01
     17.005  0.0000E+00  0.1260E+01
     17.085  0.0000E+00  0.1260E+01
