       N       E                     dE             d eps       ncg     rms          rms(c)
DAV:   1    -0.339354996822E+03   -0.33935E+03   -0.18715E-04  2532   0.909E-02    0.696E-02
DAV:   2    -0.339354990670E+03    0.61520E-05   -0.61545E-05  2838   0.265E-02
   1 F= -.20153354E+03 E0= -.20153354E+03  d E =-.201534E+03
       N       E                     dE             d eps       ncg     rms          rms(c)
DAV:   1    -0.327715049407E+03    0.11640E+02   -0.44786E+01  2586   0.207E+01    0.708E+00
DAV:   2    -0.326525326220E+03    0.11897E+01   -0.32495E+00  2796   0.413E+00    0.310E+00
DAV:   3    -0.326433121516E+03    0.92205E-01   -0.50301E-01  2826   0.155E+00    0.951E-01
DAV:   4    -0.326421344424E+03    0.11777E-01   -0.45698E-02  2820   0.481E-01    0.355E-01
DAV:   5    -0.326419026552E+03    0.23179E-02   -0.89834E-03  2874   0.208E-01    0.211E-01
DAV:   6    -0.326418640679E+03    0.38587E-03   -0.16308E-03  2778   0.945E-02    0.104E-01
DAV:   7    -0.326418567506E+03    0.73173E-04   -0.40291E-04  3204   0.610E-02    0.433E-02
DAV:   8    -0.326418561787E+03    0.57188E-05   -0.13867E-04  2730   0.318E-02    0.989E-03
DAV:   9    -0.326418562753E+03   -0.96576E-06   -0.17334E-05  1446   0.107E-02
   2 F= -.20048673E+03 E0= -.20048673E+03  d E =0.104681E+01
       N       E                     dE             d eps       ncg     rms          rms(c)
DAV:   1    -0.335880811390E+03   -0.94622E+01   -0.16671E+01  2580   0.122E+01    0.440E+00
DAV:   2    -0.335412632905E+03    0.46818E+00   -0.12912E+00  2784   0.257E+00    0.187E+00
DAV:   3    -0.335378524782E+03    0.34108E-01   -0.18659E-01  2766   0.931E-01    0.599E-01
DAV:   4    -0.335373591655E+03    0.49331E-02   -0.19310E-02  2898   0.311E-01    0.217E-01
DAV:   5    -0.335372501307E+03    0.10903E-02   -0.45530E-03  2862   0.145E-01    0.125E-01
DAV:   6    -0.335372287341E+03    0.21397E-03   -0.82731E-04  2766   0.668E-02    0.702E-02
DAV:   7    -0.335372247807E+03    0.39534E-04   -0.21640E-04  3222   0.438E-02    0.412E-02
DAV:   8    -0.335372210833E+03    0.36974E-04   -0.13691E-04  2658   0.277E-02    0.119E-02
DAV:   9    -0.335372212016E+03   -0.11834E-05   -0.96317E-06  1332   0.842E-03
   3 F= -.20212912E+03 E0= -.20212912E+03  d E =-.595583E+00
       N       E                     dE             d eps       ncg     rms          rms(c)
DAV:   1    -0.335306590431E+03    0.65620E-01   -0.13258E-03  2586   0.109E-01    0.369E-02
DAV:   2    -0.335306565290E+03    0.25141E-04   -0.88013E-05  2808   0.214E-02    0.168E-02
DAV:   3    -0.335306567082E+03   -0.17922E-05   -0.11514E-05  1284   0.769E-03
   4 F= -.20212927E+03 E0= -.20212927E+03  d E =-.595734E+00
       N       E                     dE             d eps       ncg     rms          rms(c)
DAV:   1    -0.335217457210E+03    0.89108E-01   -0.20046E-01  2772   0.134E+00    0.167E-01
DAV:   2    -0.335220074072E+03   -0.26169E-02   -0.29225E-02  2874   0.464E-01    0.189E-01
DAV:   3    -0.335220159559E+03   -0.85487E-04   -0.56350E-04  3066   0.603E-02    0.199E-01
DAV:   4    -0.335220076577E+03    0.82982E-04   -0.17466E-05  1938   0.140E-02    0.201E-01
DAV:   5    -0.335220041942E+03    0.34635E-04   -0.35096E-03  2862   0.151E-01    0.387E-01
DAV:   6    -0.335219498120E+03    0.54382E-03   -0.54558E-04  3096   0.776E-02    0.261E-01
DAV:   7    -0.335219380988E+03    0.11713E-03   -0.22658E-04  3066   0.361E-02    0.209E-01
DAV:   8    -0.335219339130E+03    0.41858E-04   -0.49701E-05  2490   0.196E-02    0.195E-01
DAV:   9    -0.335219232480E+03    0.10665E-03   -0.13198E-04  2856   0.429E-02    0.343E-02
DAV:  10    -0.335219231277E+03    0.12027E-05   -0.96674E-05  3126   0.249E-02
   5 F= -.20212970E+03 E0= -.20212970E+03  d E =-.429285E-03
       N       E                     dE             d eps       ncg     rms          rms(c)
DAV:   1    -0.335267120900E+03   -0.47888E-01   -0.47867E-02  2772   0.655E-01    0.896E-02
DAV:   2    -0.335267751363E+03   -0.63046E-03   -0.71094E-03  2862   0.230E-01    0.946E-02
DAV:   3    -0.335267742471E+03    0.88927E-05   -0.13088E-04  2964   0.303E-02    0.951E-02
DAV:   4    -0.335267736848E+03    0.56228E-05   -0.13342E-06  1530   0.413E-03
   6 F= -.20213525E+03 E0= -.20213525E+03  d E =-.598110E-02
