Al4C3 Pnma (POSCAR.III, symmetrized via 
   1.00000000000000     
     9.2543804496681084    0.0000000000000000    0.0000000000000000
     0.0000000000000000    3.1207590001536438    0.0000000000000000
     0.0000000000000000    0.0000000000000000   10.0901093738245464
   Al   C 
    16    12
Direct
  0.7452418971721959  0.2500000000000000  0.7204321202964424
  0.7547581028278041  0.7500000000000000  0.2204321202964424
  0.2547581028278038  0.7500000000000000  0.2795678797035575
  0.2452418971721961  0.2500000000000000  0.7795678797035576
  0.6080458639862271  0.2500000000000000  0.4788908545696755
  0.8919541360137729  0.7500000000000000  0.9788908545696685
  0.3919541360137732  0.7500000000000000  0.5211091454303315
  0.1080458639862269  0.2500000000000000  0.0211091454303316
  0.1329118353488457  0.2500000000000000  0.5176303873910225
  0.3670881646511542  0.7500000000000000  0.0176303873910225
  0.8670881646511545  0.7500000000000000  0.4823696126089775
  0.6329118353488455  0.2500000000000000  0.9823696126089775
  0.9826244895668069  0.2500000000000000  0.2827676602215708
  0.5173755104331931  0.7500000000000000  0.7827676602215708
  0.0173755104331933  0.7500000000000000  0.7172323397784292
  0.4826244895668068  0.2500000000000000  0.2172323397784291
  0.9309699386487397  0.2500000000000000  0.6229346401673912
  0.5690300613512603  0.7500000000000000  0.1229346401673914
  0.0690300613512532  0.7500000000000000  0.3770653598326086
  0.4309699386487468  0.2500000000000000  0.8770653598326088
  0.3976355348691104  0.2500000000000000  0.3994815023428961
  0.1023644651308898  0.7500000000000000  0.8994815023428891
  0.6023644651308898  0.7500000000000000  0.6005184976571109
  0.8976355348691102  0.2500000000000000  0.1005184976571110
  0.7739062064764105  0.2500000000000000  0.3593807747333490
  0.7260937935235895  0.7500000000000000  0.8593807747333491
  0.2260937935235896  0.7500000000000000  0.6406192252666509
  0.2739062064764104  0.2500000000000000  0.1406192252666510
 
  0.00000000E+00  0.00000000E+00  0.00000000E+00
  0.00000000E+00  0.00000000E+00  0.00000000E+00
  0.00000000E+00  0.00000000E+00  0.00000000E+00
  0.00000000E+00  0.00000000E+00  0.00000000E+00
  0.00000000E+00  0.00000000E+00  0.00000000E+00
  0.00000000E+00  0.00000000E+00  0.00000000E+00
  0.00000000E+00  0.00000000E+00  0.00000000E+00
  0.00000000E+00  0.00000000E+00  0.00000000E+00
  0.00000000E+00  0.00000000E+00  0.00000000E+00
  0.00000000E+00  0.00000000E+00  0.00000000E+00
  0.00000000E+00  0.00000000E+00  0.00000000E+00
  0.00000000E+00  0.00000000E+00  0.00000000E+00
  0.00000000E+00  0.00000000E+00  0.00000000E+00
  0.00000000E+00  0.00000000E+00  0.00000000E+00
  0.00000000E+00  0.00000000E+00  0.00000000E+00
  0.00000000E+00  0.00000000E+00  0.00000000E+00
  0.00000000E+00  0.00000000E+00  0.00000000E+00
  0.00000000E+00  0.00000000E+00  0.00000000E+00
  0.00000000E+00  0.00000000E+00  0.00000000E+00
  0.00000000E+00  0.00000000E+00  0.00000000E+00
  0.00000000E+00  0.00000000E+00  0.00000000E+00
  0.00000000E+00  0.00000000E+00  0.00000000E+00
  0.00000000E+00  0.00000000E+00  0.00000000E+00
  0.00000000E+00  0.00000000E+00  0.00000000E+00
  0.00000000E+00  0.00000000E+00  0.00000000E+00
  0.00000000E+00  0.00000000E+00  0.00000000E+00
  0.00000000E+00  0.00000000E+00  0.00000000E+00
  0.00000000E+00  0.00000000E+00  0.00000000E+00
