  28  28   0   0
  0.1062563E+02  0.9318595E-09  0.3142413E-09  0.1016012E-08  0.5000000E-15
  1.000000000000000E-004
  CAR 
 Al4C3 Pnma-III - r2SCAN H(P) scan @ 0 GP
     16.78291088     -7.59133174  301      9.06947868      1.00000000
     -7.591  0.0000E+00  0.0000E+00
     -7.510  0.0000E+00  0.0000E+00
     -7.429  0.0000E+00  0.0000E+00
     -7.348  0.0000E+00  0.0000E+00
     -7.266  0.0000E+00  0.0000E+00
     -7.185  0.0000E+00  0.0000E+00
     -7.104  0.0000E+00  0.0000E+00
     -7.023  0.0000E+00  0.0000E+00
     -6.941  0.0000E+00  0.0000E+00
     -6.860  0.0000E+00  0.0000E+00
     -6.779  0.4270E-19  0.3469E-20
     -6.698  0.5287E-12  0.4295E-13
     -6.616  0.6525E-07  0.5301E-08
     -6.535  0.5548E-04  0.4513E-05
     -6.454  0.7817E-03  0.6802E-04
     -6.373  0.2991E-02  0.3110E-03
     -6.291  0.5564E-02  0.7631E-03
     -6.210  0.6967E-02  0.1329E-02
     -6.129  0.7546E-02  0.1942E-02
     -6.048  0.7502E-02  0.2552E-02
     -5.966  0.1104E-01  0.3449E-02
     -5.885  0.1174E-01  0.4402E-02
     -5.804  0.1222E-01  0.5395E-02
     -5.723  0.8896E-02  0.6117E-02
     -5.641  0.1192E-01  0.7086E-02
     -5.560  0.1384E-01  0.8211E-02
     -5.479  0.9754E-02  0.9003E-02
     -5.398  0.7899E-02  0.9645E-02
     -5.316  0.1526E-01  0.1088E-01
     -5.235  0.1940E-01  0.1246E-01
     -5.154  0.1486E-01  0.1367E-01
     -5.073  0.9762E-02  0.1446E-01
     -4.991  0.1962E-01  0.1606E-01
     -4.910  0.2919E-01  0.1843E-01
     -4.829  0.2461E-01  0.2043E-01
     -4.748  0.8740E-02  0.2114E-01
     -4.666  0.1362E-01  0.2224E-01
     -4.585  0.1378E-01  0.2336E-01
     -4.504  0.2177E-01  0.2513E-01
     -4.423  0.2571E-01  0.2722E-01
     -4.341  0.2515E-01  0.2926E-01
     -4.260  0.1962E-01  0.3086E-01
     -4.179  0.1999E-01  0.3248E-01
     -4.098  0.2934E-01  0.3487E-01
     -4.016  0.2538E-01  0.3693E-01
     -3.935  0.3112E-01  0.3946E-01
     -3.854  0.3296E-01  0.4213E-01
     -3.773  0.2727E-01  0.4435E-01
     -3.691  0.1556E-01  0.4561E-01
     -3.610  0.2539E-01  0.4768E-01
     -3.529  0.3702E-01  0.5068E-01
     -3.448  0.3688E-01  0.5368E-01
     -3.366  0.3487E-01  0.5651E-01
     -3.285  0.4994E-01  0.6057E-01
     -3.204  0.2939E-01  0.6296E-01
     -3.123  0.3083E-01  0.6546E-01
     -3.041  0.3026E-01  0.6792E-01
     -2.960  0.4318E-01  0.7143E-01
     -2.879  0.3354E-01  0.7416E-01
     -2.798  0.5642E-01  0.7874E-01
     -2.716  0.6905E-01  0.8435E-01
     -2.635  0.6156E-01  0.8935E-01
     -2.554  0.4443E-01  0.9296E-01
     -2.473  0.5101E-01  0.9710E-01
     -2.391  0.4656E-01  0.1009E+00
     -2.310  0.2367E-01  0.1028E+00
     -2.229  0.2334E-01  0.1047E+00
     -2.148  0.2773E-01  0.1070E+00
     -2.067  0.2957E-01  0.1094E+00
     -1.985  0.2891E-01  0.1117E+00
     -1.904  0.2198E-01  0.1135E+00
     -1.823  0.2851E-01  0.1158E+00
     -1.742  0.2647E-01  0.1180E+00
     -1.660  0.1852E-01  0.1195E+00
     -1.579  0.6132E-02  0.1200E+00
     -1.498  0.4041E-03  0.1200E+00
     -1.417  0.6305E-06  0.1200E+00
     -1.335  0.7601E-11  0.1200E+00
     -1.254  0.6832E-18  0.1200E+00
     -1.173  0.0000E+00  0.1200E+00
     -1.092  0.0000E+00  0.1200E+00
     -1.010  0.0000E+00  0.1200E+00
     -0.929  0.0000E+00  0.1200E+00
     -0.848  0.0000E+00  0.1200E+00
     -0.767  0.0000E+00  0.1200E+00
     -0.685  0.0000E+00  0.1200E+00
     -0.604  0.0000E+00  0.1200E+00
     -0.523  0.0000E+00  0.1200E+00
     -0.442  0.0000E+00  0.1200E+00
     -0.360  0.0000E+00  0.1200E+00
     -0.279  0.0000E+00  0.1200E+00
     -0.198  0.0000E+00  0.1200E+00
     -0.117  0.0000E+00  0.1200E+00
     -0.035  0.0000E+00  0.1200E+00
      0.046  0.0000E+00  0.1200E+00
      0.127  0.0000E+00  0.1200E+00
      0.208  0.0000E+00  0.1200E+00
      0.290  0.0000E+00  0.1200E+00
      0.371  0.0000E+00  0.1200E+00
      0.452  0.0000E+00  0.1200E+00
      0.533  0.8263E-12  0.1200E+00
      0.615  0.1114E-06  0.1200E+00
      0.696  0.1035E-03  0.1200E+00
      0.777  0.1485E-02  0.1201E+00
      0.858  0.6023E-02  0.1206E+00
      0.940  0.1486E-01  0.1218E+00
      1.021  0.1789E-01  0.1233E+00
      1.102  0.2342E-01  0.1252E+00
      1.183  0.1456E-01  0.1264E+00
      1.265  0.3516E-01  0.1292E+00
      1.346  0.2938E-01  0.1316E+00
      1.427  0.3519E-01  0.1345E+00
      1.508  0.3575E-01  0.1374E+00
      1.590  0.2610E-01  0.1395E+00
      1.671  0.3116E-01  0.1420E+00
      1.752  0.4061E-01  0.1453E+00
      1.833  0.4696E-01  0.1491E+00
      1.915  0.5415E-01  0.1535E+00
      1.996  0.5387E-01  0.1579E+00
      2.077  0.6471E-01  0.1632E+00
      2.158  0.5053E-01  0.1673E+00
      2.240  0.3300E-01  0.1700E+00
      2.321  0.4284E-01  0.1734E+00
      2.402  0.4016E-01  0.1767E+00
      2.483  0.4062E-01  0.1800E+00
      2.565  0.4285E-01  0.1835E+00
      2.646  0.3595E-01  0.1864E+00
      2.727  0.4080E-01  0.1897E+00
      2.808  0.4902E-01  0.1937E+00
      2.890  0.6558E-01  0.1990E+00
      2.971  0.3682E-01  0.2020E+00
      3.052  0.2582E-01  0.2041E+00
      3.133  0.3050E-01  0.2066E+00
      3.215  0.3585E-01  0.2095E+00
      3.296  0.4022E-01  0.2128E+00
      3.377  0.3659E-01  0.2158E+00
      3.458  0.3663E-01  0.2187E+00
      3.540  0.4126E-01  0.2221E+00
      3.621  0.2923E-01  0.2245E+00
      3.702  0.3397E-01  0.2272E+00
      3.783  0.3331E-01  0.2299E+00
      3.865  0.4447E-01  0.2335E+00
      3.946  0.3777E-01  0.2366E+00
      4.027  0.4125E-01  0.2400E+00
      4.108  0.4645E-01  0.2437E+00
      4.190  0.4663E-01  0.2475E+00
      4.271  0.3320E-01  0.2502E+00
      4.352  0.4984E-01  0.2543E+00
      4.433  0.4391E-01  0.2578E+00
      4.515  0.4317E-01  0.2613E+00
      4.596  0.4477E-01  0.2650E+00
      4.677  0.5129E-01  0.2691E+00
      4.758  0.4385E-01  0.2727E+00
      4.840  0.4028E-01  0.2760E+00
      4.921  0.4540E-01  0.2797E+00
      5.002  0.4466E-01  0.2833E+00
      5.083  0.4173E-01  0.2867E+00
      5.165  0.5935E-01  0.2915E+00
      5.246  0.4599E-01  0.2952E+00
      5.327  0.3200E-01  0.2978E+00
      5.408  0.4527E-01  0.3015E+00
      5.490  0.4935E-01  0.3055E+00
      5.571  0.4439E-01  0.3091E+00
      5.652  0.4898E-01  0.3131E+00
      5.733  0.5533E-01  0.3176E+00
      5.815  0.6105E-01  0.3226E+00
      5.896  0.5655E-01  0.3272E+00
      5.977  0.4267E-01  0.3306E+00
      6.058  0.4640E-01  0.3344E+00
      6.139  0.5208E-01  0.3386E+00
      6.221  0.6110E-01  0.3436E+00
      6.302  0.6806E-01  0.3491E+00
      6.383  0.6190E-01  0.3542E+00
      6.464  0.4715E-01  0.3580E+00
      6.546  0.7913E-01  0.3644E+00
      6.627  0.6461E-01  0.3697E+00
      6.708  0.6849E-01  0.3752E+00
      6.789  0.7013E-01  0.3809E+00
      6.871  0.5556E-01  0.3854E+00
      6.952  0.5554E-01  0.3900E+00
      7.033  0.6682E-01  0.3954E+00
      7.114  0.7181E-01  0.4012E+00
      7.196  0.8497E-01  0.4081E+00
      7.277  0.5968E-01  0.4130E+00
      7.358  0.6225E-01  0.4180E+00
      7.439  0.6161E-01  0.4230E+00
      7.521  0.5570E-01  0.4276E+00
      7.602  0.5304E-01  0.4319E+00
      7.683  0.7167E-01  0.4377E+00
      7.764  0.6969E-01  0.4434E+00
      7.846  0.6424E-01  0.4486E+00
      7.927  0.6636E-01  0.4540E+00
      8.008  0.3679E-01  0.4570E+00
      8.089  0.3193E-01  0.4596E+00
      8.171  0.5469E-01  0.4640E+00
      8.252  0.4729E-01  0.4678E+00
      8.333  0.3638E-01  0.4708E+00
      8.414  0.3596E-01  0.4737E+00
      8.496  0.2467E-01  0.4757E+00
      8.577  0.2014E-01  0.4774E+00
      8.658  0.1512E-01  0.4786E+00
      8.739  0.1126E-01  0.4795E+00
      8.821  0.5404E-02  0.4799E+00
      8.902  0.7141E-03  0.4800E+00
      8.983  0.3934E-05  0.4800E+00
      9.064  0.2993E-09  0.4800E+00
      9.146  0.1641E-15  0.4800E+00
      9.227  0.0000E+00  0.4800E+00
      9.308  0.0000E+00  0.4800E+00
      9.389  0.0000E+00  0.4800E+00
      9.471  0.0000E+00  0.4800E+00
      9.552  0.0000E+00  0.4800E+00
      9.633  0.0000E+00  0.4800E+00
      9.714  0.0000E+00  0.4800E+00
      9.796  0.0000E+00  0.4800E+00
      9.877  0.0000E+00  0.4800E+00
      9.958  0.0000E+00  0.4800E+00
     10.039  0.0000E+00  0.4800E+00
     10.121  0.0000E+00  0.4800E+00
     10.202  0.0000E+00  0.4800E+00
     10.283  0.0000E+00  0.4800E+00
     10.364  0.0000E+00  0.4800E+00
     10.446  0.0000E+00  0.4800E+00
     10.527  0.4618E-14  0.4800E+00
     10.608  0.4075E-08  0.4800E+00
     10.689  0.2619E-04  0.4800E+00
     10.771  0.2042E-02  0.4802E+00
     10.852  0.1064E-01  0.4810E+00
     10.933  0.1961E-01  0.4826E+00
     11.014  0.1724E-01  0.4840E+00
     11.096  0.1807E-01  0.4855E+00
     11.177  0.1799E-01  0.4870E+00
     11.258  0.1238E-01  0.4880E+00
     11.339  0.3168E-01  0.4905E+00
     11.421  0.3217E-01  0.4931E+00
     11.502  0.2584E-01  0.4952E+00
     11.583  0.1230E-01  0.4962E+00
     11.664  0.2138E-01  0.4980E+00
     11.746  0.2677E-01  0.5002E+00
     11.827  0.2041E-01  0.5018E+00
     11.908  0.2108E-01  0.5035E+00
     11.989  0.4378E-01  0.5071E+00
     12.071  0.5939E-01  0.5119E+00
     12.152  0.3478E-01  0.5147E+00
     12.233  0.3160E-01  0.5173E+00
     12.314  0.3141E-01  0.5199E+00
     12.396  0.3748E-01  0.5229E+00
     12.477  0.4794E-01  0.5268E+00
     12.558  0.3683E-01  0.5298E+00
     12.639  0.3917E-01  0.5330E+00
     12.721  0.4484E-01  0.5366E+00
     12.802  0.4203E-01  0.5400E+00
     12.883  0.3572E-01  0.5429E+00
     12.964  0.4122E-01  0.5463E+00
     13.046  0.4237E-01  0.5497E+00
     13.127  0.4319E-01  0.5532E+00
     13.208  0.4942E-01  0.5572E+00
     13.289  0.4957E-01  0.5613E+00
     13.371  0.5913E-01  0.5661E+00
     13.452  0.6547E-01  0.5714E+00
     13.533  0.5848E-01  0.5762E+00
     13.614  0.4784E-01  0.5800E+00
     13.696  0.3625E-01  0.5830E+00
     13.777  0.3865E-01  0.5861E+00
     13.858  0.4703E-01  0.5899E+00
     13.939  0.4189E-01  0.5933E+00
     14.020  0.4766E-01  0.5972E+00
     14.102  0.3685E-01  0.6002E+00
     14.183  0.3670E-01  0.6032E+00
     14.264  0.5002E-01  0.6073E+00
     14.345  0.4187E-01  0.6107E+00
     14.427  0.4027E-01  0.6139E+00
     14.508  0.5315E-01  0.6183E+00
     14.589  0.5357E-01  0.6226E+00
     14.670  0.6887E-01  0.6282E+00
     14.752  0.4545E-01  0.6319E+00
     14.833  0.3041E-01  0.6344E+00
     14.914  0.4769E-01  0.6382E+00
     14.995  0.6420E-01  0.6435E+00
     15.077  0.3494E-01  0.6463E+00
     15.158  0.3392E-01  0.6490E+00
     15.239  0.3312E-01  0.6517E+00
     15.320  0.2329E-01  0.6536E+00
     15.402  0.3512E-01  0.6565E+00
     15.483  0.1699E-01  0.6579E+00
     15.564  0.9746E-02  0.6587E+00
     15.645  0.1105E-01  0.6596E+00
     15.727  0.5236E-02  0.6600E+00
     15.808  0.2346E-03  0.6600E+00
     15.889  0.2078E-06  0.6600E+00
     15.970  0.1393E-11  0.6600E+00
     16.052  0.0000E+00  0.6600E+00
     16.133  0.0000E+00  0.6600E+00
     16.214  0.0000E+00  0.6600E+00
     16.295  0.0000E+00  0.6600E+00
     16.377  0.0000E+00  0.6600E+00
     16.458  0.0000E+00  0.6600E+00
     16.539  0.0000E+00  0.6600E+00
     16.620  0.0000E+00  0.6600E+00
     16.702  0.0000E+00  0.6600E+00
     16.783  0.0000E+00  0.6600E+00
