       N       E                     dE             d eps       ncg     rms          rms(c)
DAV:   1    -0.265579101291E+03   -0.26558E+03   -0.10207E+02  8340   0.274E+01    0.270E+01
DAV:   2    -0.228024085484E+03    0.37555E+02   -0.62558E+01  8064   0.214E+01    0.986E+00
DAV:   3    -0.228743824880E+03   -0.71974E+00   -0.55946E+00  8400   0.747E+00    0.719E+00
DAV:   4    -0.229060121205E+03   -0.31630E+00   -0.30627E-01  8796   0.198E+00    0.482E+00
DAV:   5    -0.229183459073E+03   -0.12334E+00   -0.25621E-01  7638   0.223E+00    0.820E-01
DAV:   6    -0.229182298077E+03    0.11610E-02   -0.12311E-02  8556   0.399E-01    0.290E-01
DAV:   7    -0.229183908069E+03   -0.16100E-02   -0.16595E-03  8490   0.181E-01    0.182E-01
DAV:   8    -0.229184738861E+03   -0.83079E-03   -0.12321E-03  7926   0.153E-01    0.462E-02
DAV:   9    -0.229184768072E+03   -0.29211E-04   -0.74981E-05  8778   0.377E-02    0.254E-02
DAV:  10    -0.229184781433E+03   -0.13362E-04   -0.43331E-05  7782   0.261E-02    0.129E-02
DAV:  11    -0.229184782805E+03   -0.13716E-05   -0.33927E-06  4290   0.770E-03
   1 F= -.22918478E+03 E0= -.22918478E+03  d E =-.229185E+03
       N       E                     dE             d eps       ncg     rms          rms(c)
DAV:   1    -0.229263214532E+03   -0.78433E-01   -0.39127E+00  7836   0.809E+00    0.193E+00
DAV:   2    -0.229207491941E+03    0.55723E-01   -0.28000E-01  8460   0.168E+00    0.999E-01
DAV:   3    -0.229208011111E+03   -0.51917E-03   -0.36102E-02  8352   0.562E-01    0.397E-01
DAV:   4    -0.229208321227E+03   -0.31012E-03   -0.14489E-03  8472   0.149E-01    0.178E-01
DAV:   5    -0.229208512700E+03   -0.19147E-03   -0.22675E-04  8442   0.695E-02    0.111E-01
DAV:   6    -0.229208517516E+03   -0.48155E-05   -0.15689E-04  8310   0.458E-02    0.402E-02
DAV:   7    -0.229208514226E+03    0.32893E-05   -0.25592E-05  4692   0.163E-02
   2 F= -.22920851E+03 E0= -.22920851E+03  d E =-.237314E-01
       N       E                     dE             d eps       ncg     rms          rms(c)
DAV:   1    -0.229271143983E+03   -0.62626E-01   -0.77706E-01  7854   0.355E+00    0.872E-01
DAV:   2    -0.229260933142E+03    0.10211E-01   -0.57865E-02  8400   0.755E-01    0.450E-01
DAV:   3    -0.229261149481E+03   -0.21634E-03   -0.72540E-03  8406   0.251E-01    0.179E-01
DAV:   4    -0.229261240951E+03   -0.91470E-04   -0.29527E-04  8442   0.677E-02    0.793E-02
DAV:   5    -0.229261286079E+03   -0.45128E-04   -0.46730E-05  8220   0.317E-02    0.493E-02
DAV:   6    -0.229261288820E+03   -0.27403E-05   -0.30951E-05  6042   0.209E-02
   3 F= -.22926129E+03 E0= -.22926129E+03  d E =-.765060E-01
       N       E                     dE             d eps       ncg     rms          rms(c)
DAV:   1    -0.229261286531E+03   -0.45126E-06   -0.37999E-05  6648   0.269E-02    0.130E-02
DAV:   2    -0.229261284339E+03    0.21911E-05   -0.50884E-06  4026   0.728E-03
   4 F= -.22926128E+03 E0= -.22926128E+03  d E =-.765015E-01
       N       E                     dE             d eps       ncg     rms          rms(c)
DAV:   1    -0.229261285332E+03    0.11990E-05   -0.10912E-05  3960   0.126E-02    0.254E-03
DAV:   2    -0.229261285046E+03    0.28533E-06   -0.87712E-07  3912   0.370E-03
   5 F= -.22926129E+03 E0= -.22926129E+03  d E =-.765022E-01
       N       E                     dE             d eps       ncg     rms          rms(c)
DAV:   1    -0.229261285382E+03   -0.50199E-07   -0.35774E-06  3858   0.839E-03    0.203E-03
DAV:   2    -0.229261285249E+03    0.13308E-06   -0.32149E-07  3786   0.247E-03
   6 F= -.22926129E+03 E0= -.22926129E+03  d E =-.765024E-01
       N       E                     dE             d eps       ncg     rms          rms(c)
DAV:   1    -0.229261593143E+03   -0.30776E-03   -0.27911E-02  7236   0.685E-01    0.329E-02
DAV:   2    -0.229261639062E+03   -0.45919E-04   -0.88818E-04  8970   0.113E-01    0.287E-02
DAV:   3    -0.229261628780E+03    0.10282E-04   -0.65113E-05  8532   0.321E-02    0.182E-02
DAV:   4    -0.229261624026E+03    0.47540E-05   -0.27904E-05  5130   0.197E-02
   7 F= -.22926162E+03 E0= -.22926162E+03  d E =-.338777E-03
       N       E                     dE             d eps       ncg     rms          rms(c)
DAV:   1    -0.229261623897E+03    0.48830E-05   -0.74122E-06  4098   0.109E-02    0.378E-03
DAV:   2    -0.229261623486E+03    0.41101E-06   -0.12600E-06  3906   0.473E-03
   8 F= -.22926162E+03 E0= -.22926162E+03  d E =-.338237E-03
       N       E                     dE             d eps       ncg     rms          rms(c)
DAV:   1    -0.229261800690E+03   -0.17679E-03   -0.19794E-02  7140   0.566E-01    0.218E-02
DAV:   2    -0.229261805321E+03   -0.46317E-05   -0.32991E-04  8754   0.666E-02    0.157E-02
DAV:   3    -0.229261797519E+03    0.78030E-05   -0.11797E-05  5340   0.154E-02
   9 F= -.22926180E+03 E0= -.22926180E+03  d E =-.174033E-03
       N       E                     dE             d eps       ncg     rms          rms(c)
DAV:   1    -0.229261830454E+03   -0.25133E-04   -0.13849E-02  7128   0.475E-01    0.190E-02
DAV:   2    -0.229261830403E+03    0.50764E-07   -0.19953E-04  8844   0.525E-02    0.135E-02
DAV:   3    -0.229261824717E+03    0.56865E-05   -0.83101E-06  4974   0.129E-02
  10 F= -.22926182E+03 E0= -.22926182E+03  d E =-.201231E-03
       N       E                     dE             d eps       ncg     rms          rms(c)
DAV:   1    -0.229261885656E+03   -0.55253E-04   -0.30787E-03  7146   0.229E-01    0.114E-02
DAV:   2    -0.229261891403E+03   -0.57471E-05   -0.78626E-05  8802   0.328E-02
  11 F= -.22926189E+03 E0= -.22926189E+03  d E =-.666862E-04
       N       E                     dE             d eps       ncg     rms          rms(c)
DAV:   1    -0.229261898324E+03   -0.12668E-04   -0.74576E-04  7206   0.113E-01    0.907E-03
DAV:   2    -0.229261897434E+03    0.89067E-06   -0.14967E-05  6516   0.156E-02
  12 F= -.22926190E+03 E0= -.22926190E+03  d E =-.727166E-04
       N       E                     dE             d eps       ncg     rms          rms(c)
DAV:   1    -0.229261951718E+03   -0.53393E-04   -0.30128E-03  7140   0.226E-01    0.131E-02
DAV:   2    -0.229261957452E+03   -0.57340E-05   -0.79567E-05  8778   0.326E-02
  13 F= -.22926196E+03 E0= -.22926196E+03  d E =-.600179E-04
