  28  28   0   0
  0.7610158E+01  0.2699941E-09  0.8248342E-09  0.9568213E-09  0.5000000E-15
  1.000000000000000E-004
  CAR 
 Al4C3 anti-CaFe2O4 - r2SCAN H(P) scan @ 
     23.43239557     -6.41032808  301     13.89515847      1.00000000
     -6.410  0.0000E+00  0.0000E+00
     -6.311  0.0000E+00  0.0000E+00
     -6.211  0.0000E+00  0.0000E+00
     -6.112  0.0000E+00  0.0000E+00
     -6.012  0.0000E+00  0.0000E+00
     -5.913  0.0000E+00  0.0000E+00
     -5.813  0.0000E+00  0.0000E+00
     -5.714  0.0000E+00  0.0000E+00
     -5.615  0.0000E+00  0.0000E+00
     -5.515  0.0000E+00  0.0000E+00
     -5.416  0.0000E+00  0.0000E+00
     -5.316  0.3122E-16  0.3105E-17
     -5.217  0.1085E-08  0.1079E-09
     -5.117  0.1922E-04  0.1912E-05
     -5.018  0.4991E-03  0.5156E-04
     -4.918  0.2263E-02  0.2767E-03
     -4.819  0.4483E-02  0.7226E-03
     -4.719  0.4649E-02  0.1185E-02
     -4.620  0.3635E-02  0.1547E-02
     -4.520  0.5598E-02  0.2103E-02
     -4.421  0.9755E-02  0.3074E-02
     -4.321  0.9398E-02  0.4009E-02
     -4.222  0.4500E-02  0.4456E-02
     -4.122  0.6947E-02  0.5147E-02
     -4.023  0.1074E-01  0.6216E-02
     -3.923  0.9173E-02  0.7128E-02
     -3.824  0.6102E-02  0.7735E-02
     -3.724  0.1112E-01  0.8842E-02
     -3.625  0.1390E-01  0.1022E-01
     -3.526  0.1138E-01  0.1136E-01
     -3.426  0.1228E-01  0.1258E-01
     -3.327  0.9562E-02  0.1353E-01
     -3.227  0.8709E-02  0.1440E-01
     -3.128  0.1268E-01  0.1566E-01
     -3.028  0.1648E-01  0.1730E-01
     -2.929  0.1093E-01  0.1838E-01
     -2.829  0.1273E-01  0.1965E-01
     -2.730  0.1282E-01  0.2093E-01
     -2.630  0.1715E-01  0.2263E-01
     -2.531  0.2053E-01  0.2467E-01
     -2.431  0.1741E-01  0.2640E-01
     -2.332  0.8846E-02  0.2728E-01
     -2.232  0.1388E-01  0.2867E-01
     -2.133  0.1580E-01  0.3024E-01
     -2.033  0.1476E-01  0.3171E-01
     -1.934  0.1481E-01  0.3318E-01
     -1.834  0.2581E-01  0.3575E-01
     -1.735  0.2134E-01  0.3787E-01
     -1.635  0.1839E-01  0.3970E-01
     -1.536  0.2154E-01  0.4184E-01
     -1.437  0.2195E-01  0.4402E-01
     -1.337  0.1909E-01  0.4592E-01
     -1.238  0.1772E-01  0.4769E-01
     -1.138  0.1631E-01  0.4931E-01
     -1.039  0.1442E-01  0.5074E-01
     -0.939  0.2577E-01  0.5331E-01
     -0.840  0.3955E-01  0.5724E-01
     -0.740  0.2419E-01  0.5965E-01
     -0.641  0.2521E-01  0.6215E-01
     -0.541  0.3124E-01  0.6526E-01
     -0.442  0.3035E-01  0.6828E-01
     -0.342  0.2992E-01  0.7126E-01
     -0.243  0.2927E-01  0.7417E-01
     -0.143  0.3312E-01  0.7746E-01
     -0.044  0.4185E-01  0.8163E-01
      0.056  0.3043E-01  0.8465E-01
      0.155  0.3308E-01  0.8795E-01
      0.255  0.4176E-01  0.9210E-01
      0.354  0.3182E-01  0.9526E-01
      0.453  0.4037E-01  0.9928E-01
      0.553  0.2258E-01  0.1015E+00
      0.652  0.1892E-01  0.1034E+00
      0.752  0.1844E-01  0.1052E+00
      0.851  0.1085E-01  0.1063E+00
      0.951  0.1554E-01  0.1079E+00
      1.050  0.1420E-01  0.1093E+00
      1.150  0.1003E-01  0.1103E+00
      1.249  0.1032E-01  0.1113E+00
      1.349  0.1826E-01  0.1131E+00
      1.448  0.7804E-02  0.1139E+00
      1.548  0.7807E-02  0.1147E+00
      1.647  0.1204E-01  0.1159E+00
      1.747  0.1023E-01  0.1169E+00
      1.846  0.6846E-02  0.1176E+00
      1.946  0.4940E-02  0.1181E+00
      2.045  0.9857E-02  0.1190E+00
      2.145  0.6348E-02  0.1197E+00
      2.244  0.3084E-02  0.1200E+00
      2.344  0.2103E-03  0.1200E+00
      2.443  0.8038E-07  0.1200E+00
      2.542  0.8975E-08  0.1200E+00
      2.642  0.7193E-04  0.1200E+00
      2.741  0.9494E-03  0.1201E+00
      2.841  0.2392E-02  0.1203E+00
      2.940  0.3925E-02  0.1207E+00
      3.040  0.5868E-02  0.1213E+00
      3.139  0.4874E-02  0.1218E+00
      3.239  0.7770E-02  0.1226E+00
      3.338  0.9135E-02  0.1235E+00
      3.438  0.1225E-01  0.1247E+00
      3.537  0.1442E-01  0.1261E+00
      3.637  0.1264E-01  0.1274E+00
      3.736  0.2168E-01  0.1295E+00
      3.836  0.3579E-01  0.1331E+00
      3.935  0.3355E-01  0.1364E+00
      4.035  0.2810E-01  0.1392E+00
      4.134  0.2749E-01  0.1420E+00
      4.234  0.2960E-01  0.1449E+00
      4.333  0.3124E-01  0.1480E+00
      4.433  0.3410E-01  0.1514E+00
      4.532  0.3421E-01  0.1548E+00
      4.631  0.2972E-01  0.1578E+00
      4.731  0.4337E-01  0.1621E+00
      4.830  0.4854E-01  0.1669E+00
      4.930  0.2914E-01  0.1698E+00
      5.029  0.2560E-01  0.1724E+00
      5.129  0.4339E-01  0.1767E+00
      5.228  0.2980E-01  0.1796E+00
      5.328  0.1955E-01  0.1816E+00
      5.427  0.2986E-01  0.1846E+00
      5.527  0.2832E-01  0.1874E+00
      5.626  0.3815E-01  0.1912E+00
      5.726  0.3038E-01  0.1942E+00
      5.825  0.2973E-01  0.1972E+00
      5.925  0.3112E-01  0.2002E+00
      6.024  0.2414E-01  0.2027E+00
      6.124  0.3052E-01  0.2057E+00
      6.223  0.4563E-01  0.2102E+00
      6.323  0.4026E-01  0.2142E+00
      6.422  0.3036E-01  0.2173E+00
      6.522  0.3253E-01  0.2205E+00
      6.621  0.3629E-01  0.2241E+00
      6.720  0.2265E-01  0.2263E+00
      6.820  0.3487E-01  0.2298E+00
      6.919  0.3186E-01  0.2330E+00
      7.019  0.2999E-01  0.2360E+00
      7.118  0.3448E-01  0.2394E+00
      7.218  0.4487E-01  0.2439E+00
      7.317  0.3367E-01  0.2472E+00
      7.417  0.3655E-01  0.2508E+00
      7.516  0.3682E-01  0.2545E+00
      7.616  0.4187E-01  0.2587E+00
      7.715  0.4160E-01  0.2628E+00
      7.815  0.3577E-01  0.2664E+00
      7.914  0.4139E-01  0.2705E+00
      8.014  0.4893E-01  0.2754E+00
      8.113  0.4061E-01  0.2794E+00
      8.213  0.3684E-01  0.2831E+00
      8.312  0.3171E-01  0.2862E+00
      8.412  0.3355E-01  0.2896E+00
      8.511  0.3849E-01  0.2934E+00
      8.611  0.3080E-01  0.2964E+00
      8.710  0.4297E-01  0.3007E+00
      8.809  0.3787E-01  0.3045E+00
      8.909  0.3012E-01  0.3075E+00
      9.008  0.4223E-01  0.3117E+00
      9.108  0.2462E-01  0.3141E+00
      9.207  0.3846E-01  0.3180E+00
      9.307  0.4650E-01  0.3226E+00
      9.406  0.4953E-01  0.3275E+00
      9.506  0.4810E-01  0.3323E+00
      9.605  0.2758E-01  0.3350E+00
      9.705  0.3905E-01  0.3389E+00
      9.804  0.4165E-01  0.3431E+00
      9.904  0.5100E-01  0.3481E+00
     10.003  0.5016E-01  0.3531E+00
     10.103  0.3955E-01  0.3571E+00
     10.202  0.3395E-01  0.3604E+00
     10.302  0.3528E-01  0.3640E+00
     10.401  0.2993E-01  0.3669E+00
     10.501  0.3259E-01  0.3702E+00
     10.600  0.5025E-01  0.3752E+00
     10.700  0.6834E-01  0.3820E+00
     10.799  0.5826E-01  0.3878E+00
     10.898  0.5905E-01  0.3936E+00
     10.998  0.3484E-01  0.3971E+00
     11.097  0.5900E-01  0.4030E+00
     11.197  0.4873E-01  0.4078E+00
     11.296  0.6547E-01  0.4143E+00
     11.396  0.7455E-01  0.4217E+00
     11.495  0.5690E-01  0.4274E+00
     11.595  0.6279E-01  0.4337E+00
     11.694  0.4547E-01  0.4382E+00
     11.794  0.4265E-01  0.4424E+00
     11.893  0.4989E-01  0.4474E+00
     11.993  0.3435E-01  0.4508E+00
     12.092  0.3917E-01  0.4547E+00
     12.192  0.3470E-01  0.4581E+00
     12.291  0.3592E-01  0.4617E+00
     12.391  0.1302E-01  0.4630E+00
     12.490  0.1799E-01  0.4648E+00
     12.590  0.1952E-01  0.4667E+00
     12.689  0.1717E-01  0.4685E+00
     12.788  0.2099E-01  0.4705E+00
     12.888  0.2049E-01  0.4726E+00
     12.987  0.2285E-01  0.4749E+00
     13.087  0.1458E-01  0.4763E+00
     13.186  0.3799E-02  0.4767E+00
     13.286  0.3219E-02  0.4770E+00
     13.385  0.5183E-02  0.4775E+00
     13.485  0.5921E-02  0.4781E+00
     13.584  0.9324E-02  0.4790E+00
     13.684  0.7912E-02  0.4798E+00
     13.783  0.1774E-02  0.4800E+00
     13.883  0.5606E-05  0.4800E+00
     13.982  0.2853E-10  0.4800E+00
     14.082  0.1163E-18  0.4800E+00
     14.181  0.0000E+00  0.4800E+00
     14.281  0.0000E+00  0.4800E+00
     14.380  0.2028E-13  0.4800E+00
     14.480  0.1121E-06  0.4800E+00
     14.579  0.4515E-03  0.4800E+00
     14.679  0.5573E-02  0.4806E+00
     14.778  0.1118E-01  0.4817E+00
     14.877  0.1173E-01  0.4829E+00
     14.977  0.9879E-02  0.4839E+00
     15.076  0.1555E-01  0.4854E+00
     15.176  0.1530E-01  0.4869E+00
     15.275  0.1431E-01  0.4884E+00
     15.375  0.2196E-01  0.4905E+00
     15.474  0.1969E-01  0.4925E+00
     15.574  0.9390E-02  0.4934E+00
     15.673  0.1192E-01  0.4946E+00
     15.773  0.1219E-01  0.4958E+00
     15.872  0.1815E-01  0.4976E+00
     15.972  0.1487E-01  0.4991E+00
     16.071  0.3340E-01  0.5024E+00
     16.171  0.3359E-01  0.5058E+00
     16.270  0.2237E-01  0.5080E+00
     16.370  0.2712E-01  0.5107E+00
     16.469  0.2393E-01  0.5131E+00
     16.569  0.2110E-01  0.5152E+00
     16.668  0.2182E-01  0.5174E+00
     16.768  0.3006E-01  0.5203E+00
     16.867  0.2881E-01  0.5232E+00
     16.966  0.2430E-01  0.5256E+00
     17.066  0.2161E-01  0.5278E+00
     17.165  0.1242E-01  0.5290E+00
     17.265  0.2324E-01  0.5313E+00
     17.364  0.2785E-01  0.5341E+00
     17.464  0.2557E-01  0.5366E+00
     17.563  0.2484E-01  0.5391E+00
     17.663  0.2936E-01  0.5420E+00
     17.762  0.3274E-01  0.5453E+00
     17.862  0.2968E-01  0.5482E+00
     17.961  0.2812E-01  0.5510E+00
     18.061  0.3294E-01  0.5543E+00
     18.160  0.4118E-01  0.5584E+00
     18.260  0.3558E-01  0.5619E+00
     18.359  0.2530E-01  0.5645E+00
     18.459  0.3458E-01  0.5679E+00
     18.558  0.4217E-01  0.5721E+00
     18.658  0.3947E-01  0.5760E+00
     18.757  0.3419E-01  0.5794E+00
     18.857  0.3419E-01  0.5828E+00
     18.956  0.3159E-01  0.5860E+00
     19.055  0.3197E-01  0.5891E+00
     19.155  0.2388E-01  0.5915E+00
     19.254  0.3139E-01  0.5946E+00
     19.354  0.3102E-01  0.5977E+00
     19.453  0.2207E-01  0.5999E+00
     19.553  0.2893E-01  0.6028E+00
     19.652  0.3018E-01  0.6058E+00
     19.752  0.4038E-01  0.6098E+00
     19.851  0.2358E-01  0.6122E+00
     19.951  0.2959E-01  0.6151E+00
     20.050  0.3647E-01  0.6187E+00
     20.150  0.3127E-01  0.6218E+00
     20.249  0.1543E-01  0.6234E+00
     20.349  0.1780E-01  0.6252E+00
     20.448  0.2331E-01  0.6275E+00
     20.548  0.3572E-01  0.6310E+00
     20.647  0.2121E-01  0.6331E+00
     20.747  0.2321E-01  0.6354E+00
     20.846  0.2284E-01  0.6377E+00
     20.946  0.2672E-01  0.6404E+00
     21.045  0.1734E-01  0.6421E+00
     21.144  0.2680E-01  0.6448E+00
     21.244  0.2691E-01  0.6474E+00
     21.343  0.1281E-01  0.6487E+00
     21.443  0.2063E-01  0.6508E+00
     21.542  0.1175E-01  0.6519E+00
     21.642  0.2069E-01  0.6540E+00
     21.741  0.1891E-01  0.6559E+00
     21.841  0.1709E-01  0.6576E+00
     21.940  0.1502E-01  0.6591E+00
     22.040  0.7137E-02  0.6598E+00
     22.139  0.2107E-02  0.6600E+00
     22.239  0.7721E-04  0.6600E+00
     22.338  0.4338E-08  0.6600E+00
     22.438  0.1247E-15  0.6600E+00
     22.537  0.0000E+00  0.6600E+00
     22.637  0.0000E+00  0.6600E+00
     22.736  0.0000E+00  0.6600E+00
     22.836  0.0000E+00  0.6600E+00
     22.935  0.0000E+00  0.6600E+00
     23.034  0.0000E+00  0.6600E+00
     23.134  0.0000E+00  0.6600E+00
     23.233  0.0000E+00  0.6600E+00
     23.333  0.0000E+00  0.6600E+00
     23.432  0.0000E+00  0.6600E+00
