       N       E                     dE             d eps       ncg     rms          rms(c)
DAV:   1    -0.225031874271E+03   -0.22503E+03   -0.47454E+00  8316   0.104E+01    0.898E+00
DAV:   2    -0.210207483549E+03    0.14824E+02   -0.13035E+00  9222   0.629E+00    0.647E+00
DAV:   3    -0.210571765320E+03   -0.36428E+00   -0.19272E-01  9672   0.206E+00    0.508E+00
DAV:   4    -0.210604741179E+03   -0.32976E-01   -0.89962E-02  9606   0.109E+00    0.960E-01
DAV:   5    -0.210606313562E+03   -0.15724E-02   -0.47083E-03  9696   0.251E-01    0.411E-01
DAV:   6    -0.210606662771E+03   -0.34921E-03   -0.71947E-04  9720   0.103E-01    0.195E-01
DAV:   7    -0.210606724223E+03   -0.61452E-04   -0.51795E-05  9534   0.343E-02    0.102E-01
DAV:   8    -0.210606718736E+03    0.54871E-05   -0.10243E-04  9498   0.424E-02    0.311E-02
DAV:   9    -0.210606709309E+03    0.94269E-05   -0.10031E-05  5052   0.123E-02
   1 F= -.90909610E+02 E0= -.90909610E+02  d E =-.909096E+02
       N       E                     dE             d eps       ncg     rms          rms(c)
DAV:   1    -0.207199635947E+03    0.34071E+01   -0.29140E+00  8682   0.737E+00    0.149E+00
DAV:   2    -0.207182528758E+03    0.17107E-01   -0.11461E-01  9984   0.126E+00    0.858E-01
DAV:   3    -0.207182169043E+03    0.35971E-03   -0.18480E-02  9492   0.433E-01    0.325E-01
DAV:   4    -0.207182669105E+03   -0.50006E-03   -0.62789E-04 10044   0.104E-01    0.184E-01
DAV:   5    -0.207182736136E+03   -0.67031E-04   -0.16566E-04  9636   0.487E-02    0.132E-01
DAV:   6    -0.207182857094E+03   -0.12096E-03   -0.74603E-05  9156   0.475E-02    0.165E-02
DAV:   7    -0.207182849387E+03    0.77062E-05   -0.53784E-06  5058   0.931E-03
   2 F= -.90793954E+02 E0= -.90793954E+02  d E =0.115656E+00
       N       E                     dE             d eps       ncg     rms          rms(c)
DAV:   1    -0.209655814054E+03   -0.24730E+01   -0.14253E+00  8694   0.509E+00    0.105E+00
DAV:   2    -0.209648409649E+03    0.74044E-02   -0.57651E-02  9966   0.887E-01    0.609E-01
DAV:   3    -0.209647925209E+03    0.48444E-03   -0.92264E-03  9522   0.304E-01    0.236E-01
DAV:   4    -0.209647988000E+03   -0.62791E-04   -0.30937E-04 10050   0.736E-02    0.129E-01
DAV:   5    -0.209647962705E+03    0.25295E-04   -0.86668E-05  9246   0.351E-02    0.922E-02
DAV:   6    -0.209647903512E+03    0.59193E-04   -0.34910E-05  8088   0.327E-02    0.943E-03
DAV:   7    -0.209647905518E+03   -0.20059E-05   -0.36187E-06  4962   0.746E-03
   3 F= -.90933906E+02 E0= -.90933906E+02  d E =-.242963E-01
       N       E                     dE             d eps       ncg     rms          rms(c)
DAV:   1    -0.209684407917E+03   -0.36504E-01   -0.19017E-01  8328   0.178E+00    0.937E-02
DAV:   2    -0.209684332112E+03    0.75805E-04   -0.35422E-03  9858   0.242E-01    0.623E-02
DAV:   3    -0.209684271400E+03    0.60712E-04   -0.21097E-04  9918   0.623E-02    0.369E-02
DAV:   4    -0.209684258391E+03    0.13009E-04   -0.84913E-05  9426   0.344E-02    0.139E-02
DAV:   5    -0.209684257132E+03    0.12589E-05   -0.93390E-06  5256   0.125E-02
   4 F= -.90935707E+02 E0= -.90935707E+02  d E =-.180059E-02
       N       E                     dE             d eps       ncg     rms          rms(c)
DAV:   1    -0.209693260985E+03   -0.90026E-02   -0.12522E-02  8370   0.458E-01    0.244E-02
DAV:   2    -0.209693264535E+03   -0.35492E-05   -0.23043E-04  9912   0.618E-02    0.156E-02
DAV:   3    -0.209693262170E+03    0.23643E-05   -0.12474E-05  5952   0.162E-02
   5 F= -.90935816E+02 E0= -.90935816E+02  d E =-.190977E-02
       N       E                     dE             d eps       ncg     rms          rms(c)
DAV:   1    -0.209726958123E+03   -0.33694E-01   -0.17405E-01  8340   0.173E+00    0.807E-02
DAV:   2    -0.209726970895E+03   -0.12771E-04   -0.23565E-03 10014   0.199E-01    0.522E-02
DAV:   3    -0.209726908291E+03    0.62603E-04   -0.12398E-04  9864   0.469E-02    0.319E-02
DAV:   4    -0.209726888019E+03    0.20272E-04   -0.12515E-04  9720   0.440E-02    0.909E-03
DAV:   5    -0.209726891078E+03   -0.30589E-05   -0.23551E-05  5826   0.174E-02
   6 F= -.90936857E+02 E0= -.90936857E+02  d E =-.104085E-02
       N       E                     dE             d eps       ncg     rms          rms(c)
DAV:   1    -0.209729552590E+03   -0.26646E-02   -0.11712E-03  8580   0.142E-01    0.783E-03
DAV:   2    -0.209729554388E+03   -0.17982E-05   -0.16681E-05  6984   0.171E-02
   7 F= -.90936868E+02 E0= -.90936868E+02  d E =-.105225E-02
       N       E                     dE             d eps       ncg     rms          rms(c)
DAV:   1    -0.209719124266E+03    0.10428E-01   -0.12807E-01  8352   0.147E+00    0.731E-02
DAV:   2    -0.209719072627E+03    0.51639E-04   -0.19511E-03  9714   0.180E-01    0.492E-02
DAV:   3    -0.209719033438E+03    0.39189E-04   -0.10496E-04  9960   0.426E-02    0.300E-02
DAV:   4    -0.209719018037E+03    0.15401E-04   -0.67690E-05  9294   0.333E-02    0.857E-03
DAV:   5    -0.209719021717E+03   -0.36794E-05   -0.16532E-05  5658   0.138E-02
   8 F= -.90937435E+02 E0= -.90937435E+02  d E =-.566768E-03
       N       E                     dE             d eps       ncg     rms          rms(c)
DAV:   1    -0.209720080569E+03   -0.10625E-02   -0.11500E-03  8400   0.139E-01    0.695E-03
DAV:   2    -0.209720080681E+03   -0.11189E-06   -0.16825E-05  6414   0.171E-02
   9 F= -.90937443E+02 E0= -.90937443E+02  d E =-.574720E-03
       N       E                     dE             d eps       ncg     rms          rms(c)
DAV:   1    -0.209729586063E+03   -0.95055E-02   -0.24038E-02  8364   0.646E-01    0.303E-02
DAV:   2    -0.209729599689E+03   -0.13626E-04   -0.38168E-04 10122   0.762E-02    0.199E-02
DAV:   3    -0.209729594890E+03    0.47997E-05   -0.13036E-05  6288   0.165E-02
  10 F= -.90937767E+02 E0= -.90937767E+02  d E =-.323970E-03
       N       E                     dE             d eps       ncg     rms          rms(c)
DAV:   1    -0.209733699247E+03   -0.40996E-02   -0.46173E-03  8418   0.283E-01    0.162E-02
DAV:   2    -0.209733699955E+03   -0.70789E-06   -0.64604E-05 10182   0.320E-02
  11 F= -.90937798E+02 E0= -.90937798E+02  d E =-.354623E-03
       N       E                     dE             d eps       ncg     rms          rms(c)
DAV:   1    -0.209749375474E+03   -0.15676E-01   -0.36748E-02  8364   0.790E-01    0.427E-02
DAV:   2    -0.209749361381E+03    0.14093E-04   -0.52391E-04  9978   0.951E-02    0.259E-02
DAV:   3    -0.209749345227E+03    0.16154E-04   -0.37590E-05  9600   0.260E-02    0.157E-02
DAV:   4    -0.209749340833E+03    0.43935E-05   -0.19208E-05  5484   0.182E-02
  12 F= -.90938075E+02 E0= -.90938075E+02  d E =-.277493E-03
       N       E                     dE             d eps       ncg     rms          rms(c)
DAV:   1    -0.209759111209E+03   -0.97660E-02   -0.14682E-02  8376   0.499E-01    0.266E-02
DAV:   2    -0.209759107589E+03    0.36198E-05   -0.20404E-04 10002   0.595E-02    0.160E-02
DAV:   3    -0.209759101358E+03    0.62311E-05   -0.12391E-05  5976   0.159E-02
  13 F= -.90938129E+02 E0= -.90938129E+02  d E =-.331743E-03
       N       E                     dE             d eps       ncg     rms          rms(c)
DAV:   1    -0.209723983549E+03    0.35124E-01   -0.96097E-03  8364   0.405E-01    0.261E-02
DAV:   2    -0.209723985695E+03   -0.21460E-05   -0.17681E-04 10176   0.531E-02    0.161E-02
DAV:   3    -0.209723981150E+03    0.45451E-05   -0.93418E-06  5382   0.138E-02
  14 F= -.90938208E+02 E0= -.90938208E+02  d E =-.788221E-04
       N       E                     dE             d eps       ncg     rms          rms(c)
DAV:   1    -0.209729086250E+03   -0.51006E-02   -0.23684E-04  8328   0.635E-02    0.472E-03
DAV:   2    -0.209729086727E+03   -0.47766E-06   -0.70647E-06  4458   0.109E-02
  15 F= -.90938211E+02 E0= -.90938211E+02  d E =-.818133E-04
       N       E                     dE             d eps       ncg     rms          rms(c)
DAV:   1    -0.209753332812E+03   -0.24247E-01   -0.66699E-03  8364   0.338E-01    0.189E-02
DAV:   2    -0.209753329690E+03    0.31220E-05   -0.86527E-05 10056   0.374E-02
  16 F= -.90938241E+02 E0= -.90938241E+02  d E =-.302087E-04
