Al4C3 anti-CaFe2O4-type, volume pre-scal
   1.00000000000000     
     2.9634581965059872    0.0000000000000000    0.0000000000000000
     0.0000000000000000    9.0533896695949458    0.0000000000000000
     0.0000000000000000    0.0000000000000000   10.5020819728579777
   Al   C 
    16    12
Direct
  0.2500000000000000  0.4151189057133597  0.5812209128649943
  0.7500000000000000  0.5848810942866403  0.4187790871350056
  0.2500000000000000  0.9151189057133597  0.9187790871350057
  0.7500000000000000  0.0848810942866403  0.0812209128649944
  0.2500000000000000  0.4886745923028864  0.2050125791549454
  0.7500000000000000  0.5113254076971138  0.7949874208450545
  0.2500000000000000  0.9886745923028862  0.2949874208450545
  0.7500000000000000  0.0113254076971137  0.7050125791549455
  0.2500000000000000  0.1356692241859205  0.5209221420014800
  0.7500000000000000  0.8643307758140722  0.4790778579985202
  0.2500000000000000  0.6356692241859278  0.9790778579985200
  0.7500000000000000  0.3643307758140795  0.0209221420014799
  0.7500000000000000  0.2773459876483828  0.3059673073734922
  0.2500000000000000  0.7226540123516172  0.6940326926265078
  0.2500000000000000  0.2226540123516173  0.8059673073734922
  0.7500000000000000  0.7773459876483828  0.1940326926265079
  0.7500000000000000  0.7406887519436515  0.8613339218160063
  0.2500000000000000  0.2593112480563484  0.1386660781839938
  0.7500000000000000  0.2406887519436515  0.6386660781839937
  0.2500000000000000  0.7593112480563485  0.3613339218160062
  0.2500000000000000  0.9218958941373016  0.6122084756613039
  0.7500000000000000  0.5781041058626984  0.1122084756613039
  0.2500000000000000  0.4218958941373014  0.8877915243386961
  0.7500000000000000  0.0781041058626985  0.3877915243386960
  0.7500000000000000  0.0801343031234603  0.8840474791882608
  0.2500000000000000  0.9198656968765397  0.1159525208117393
  0.7500000000000000  0.5801343031234603  0.6159525208117392
  0.2500000000000000  0.4198656968765396  0.3840474791882608
 
  0.00000000E+00  0.00000000E+00  0.00000000E+00
  0.00000000E+00  0.00000000E+00  0.00000000E+00
  0.00000000E+00  0.00000000E+00  0.00000000E+00
  0.00000000E+00  0.00000000E+00  0.00000000E+00
  0.00000000E+00  0.00000000E+00  0.00000000E+00
  0.00000000E+00  0.00000000E+00  0.00000000E+00
  0.00000000E+00  0.00000000E+00  0.00000000E+00
  0.00000000E+00  0.00000000E+00  0.00000000E+00
  0.00000000E+00  0.00000000E+00  0.00000000E+00
  0.00000000E+00  0.00000000E+00  0.00000000E+00
  0.00000000E+00  0.00000000E+00  0.00000000E+00
  0.00000000E+00  0.00000000E+00  0.00000000E+00
  0.00000000E+00  0.00000000E+00  0.00000000E+00
  0.00000000E+00  0.00000000E+00  0.00000000E+00
  0.00000000E+00  0.00000000E+00  0.00000000E+00
  0.00000000E+00  0.00000000E+00  0.00000000E+00
  0.00000000E+00  0.00000000E+00  0.00000000E+00
  0.00000000E+00  0.00000000E+00  0.00000000E+00
  0.00000000E+00  0.00000000E+00  0.00000000E+00
  0.00000000E+00  0.00000000E+00  0.00000000E+00
  0.00000000E+00  0.00000000E+00  0.00000000E+00
  0.00000000E+00  0.00000000E+00  0.00000000E+00
  0.00000000E+00  0.00000000E+00  0.00000000E+00
  0.00000000E+00  0.00000000E+00  0.00000000E+00
  0.00000000E+00  0.00000000E+00  0.00000000E+00
  0.00000000E+00  0.00000000E+00  0.00000000E+00
  0.00000000E+00  0.00000000E+00  0.00000000E+00
  0.00000000E+00  0.00000000E+00  0.00000000E+00
