       N       E                     dE             d eps       ncg     rms          rms(c)
DAV:   1    -0.785697065152E+02   -0.78570E+02   -0.10840E+01  7308   0.835E+00    0.139E-01
DAV:   2    -0.787052109929E+02   -0.13550E+00   -0.13529E+00  7404   0.217E+00    0.715E-02
DAV:   3    -0.787059995529E+02   -0.78856E-03   -0.92379E-03  7704   0.240E-01    0.545E-02
DAV:   4    -0.787059743378E+02    0.25215E-04   -0.16602E-04  7356   0.460E-02    0.338E-02
DAV:   5    -0.787059638626E+02    0.10475E-04   -0.11237E-05  5496   0.149E-02    0.219E-02
DAV:   6    -0.787059569531E+02    0.69095E-05   -0.17241E-05  4932   0.176E-02
   1 F= -.21556832E+02 E0= -.21556385E+02  d E =-.215568E+02
       N       E                     dE             d eps       ncg     rms          rms(c)
DAV:   1    -0.744029644263E+02    0.43030E+01   -0.70078E+00  7020   0.149E+01    0.292E+00
DAV:   2    -0.742289533930E+02    0.17401E+00   -0.41450E-01  7416   0.287E+00    0.135E+00
DAV:   3    -0.742149743958E+02    0.13979E-01   -0.52007E-02  7404   0.995E-01    0.421E-01
DAV:   4    -0.742130092028E+02    0.19652E-02   -0.26481E-03  7404   0.236E-01    0.130E-01
DAV:   5    -0.742126987475E+02    0.31046E-03   -0.22005E-04  7476   0.727E-02    0.834E-02
DAV:   6    -0.742126738357E+02    0.24912E-04   -0.36245E-05  7392   0.307E-02    0.122E-02
DAV:   7    -0.742126758674E+02   -0.20317E-05   -0.42048E-06  4236   0.116E-02
   2 F= -.21196740E+02 E0= -.21196393E+02  d E =0.360092E+00
       N       E                     dE             d eps       ncg     rms          rms(c)
DAV:   1    -0.776134455958E+02   -0.34008E+01   -0.32960E+00  7116   0.991E+00    0.203E+00
DAV:   2    -0.775282060458E+02    0.85240E-01   -0.20186E-01  7380   0.198E+00    0.932E-01
DAV:   3    -0.775213159656E+02    0.68901E-02   -0.28976E-02  7488   0.710E-01    0.283E-01
DAV:   4    -0.775202376875E+02    0.10783E-02   -0.19901E-03  7368   0.185E-01    0.919E-02
DAV:   5    -0.775200206772E+02    0.21701E-03   -0.28373E-04  7440   0.722E-02    0.563E-02
DAV:   6    -0.775199930493E+02    0.27628E-04   -0.45349E-05  7104   0.288E-02    0.144E-02
DAV:   7    -0.775199891546E+02    0.38948E-05   -0.38437E-06  3756   0.952E-03
   3 F= -.21639357E+02 E0= -.21638948E+02  d E =-.825245E-01
       N       E                     dE             d eps       ncg     rms          rms(c)
DAV:   1    -0.774984275736E+02    0.21565E-01   -0.17986E-04  7092   0.733E-02    0.148E-02
DAV:   2    -0.774984245579E+02    0.30157E-05   -0.10156E-05  3528   0.144E-02
   4 F= -.21639384E+02 E0= -.21638975E+02  d E =-.825512E-01
       N       E                     dE             d eps       ncg     rms          rms(c)
DAV:   1    -0.774953997633E+02    0.30278E-02   -0.17003E-06  3264   0.700E-03    0.416E-03
DAV:   2    -0.774954001505E+02   -0.38723E-06   -0.26434E-07  3132   0.218E-03
   5 F= -.21639385E+02 E0= -.21638976E+02  d E =-.825522E-01
       N       E                     dE             d eps       ncg     rms          rms(c)
DAV:   1    -0.774966638846E+02   -0.12641E-02   -0.76150E-07  3072   0.487E-03    0.778E-04
DAV:   2    -0.774966638765E+02    0.81263E-08   -0.46142E-08  3060   0.113E-03
   6 F= -.21639385E+02 E0= -.21638977E+02  d E =-.825529E-01
       N       E                     dE             d eps       ncg     rms          rms(c)
DAV:   1    -0.774811751356E+02    0.15489E-01   -0.10829E-01  6072   0.170E+00    0.712E-02
DAV:   2    -0.774810713115E+02    0.10382E-03   -0.17857E-03  7872   0.218E-01    0.433E-02
DAV:   3    -0.774810191701E+02    0.52141E-04   -0.15818E-04  7368   0.692E-02    0.172E-02
DAV:   4    -0.774810193419E+02   -0.17181E-06   -0.41373E-05  5892   0.290E-02
   7 F= -.21640307E+02 E0= -.21639891E+02  d E =-.921913E-03
       N       E                     dE             d eps       ncg     rms          rms(c)
DAV:   1    -0.774829707370E+02   -0.19516E-02   -0.15034E-03  6120   0.201E-01    0.846E-03
DAV:   2    -0.774829690332E+02    0.17039E-05   -0.24920E-05  6960   0.261E-02
   8 F= -.21640324E+02 E0= -.21639910E+02  d E =-.939221E-03
       N       E                     dE             d eps       ncg     rms          rms(c)
DAV:   1    -0.774858817281E+02   -0.29110E-02   -0.56185E-03  6060   0.387E-01    0.174E-02
DAV:   2    -0.774858779517E+02    0.37765E-05   -0.10208E-04  7836   0.559E-02    0.104E-02
DAV:   3    -0.774858736506E+02    0.43011E-05   -0.15026E-05  4656   0.242E-02
   9 F= -.21640400E+02 E0= -.21639981E+02  d E =-.754856E-04
       N       E                     dE             d eps       ncg     rms          rms(c)
DAV:   1    -0.774860691592E+02   -0.19121E-03   -0.34872E-05  5676   0.315E-02    0.318E-03
DAV:   2    -0.774860690909E+02    0.68272E-07   -0.12178E-06  3108   0.587E-03
  10 F= -.21640401E+02 E0= -.21639981E+02  d E =-.763560E-04
       N       E                     dE             d eps       ncg     rms          rms(c)
DAV:   1    -0.774786359664E+02    0.74332E-02   -0.10903E-03  6168   0.178E-01    0.102E-02
DAV:   2    -0.774786358415E+02    0.12492E-06   -0.13100E-05  6012   0.205E-02
  11 F= -.21640455E+02 E0= -.21640029E+02  d E =-.541616E-04
