Al4C3 I-43d - H(P) scan @ 0 GPa (ISIF=8)
           1
     6.395704    0.000000    0.000000
     0.000000    6.395704    0.000000
     0.000000    0.000000    6.395704
   Al   C 
    16    12
Direct configuration=     1
   0.30622471  0.30622471  0.30622471
   0.19377529  0.69377529  0.80622471
   0.69377529  0.80622471  0.19377529
   0.80622471  0.19377529  0.69377529
   0.55622471  0.55622471  0.55622471
   0.94377529  0.44377529  0.05622471
   0.05622471  0.94377529  0.44377529
   0.44377529  0.05622471  0.94377529
   0.80622471  0.80622471  0.80622471
   0.69377529  0.19377529  0.30622471
   0.19377529  0.30622471  0.69377529
   0.30622471  0.69377529  0.19377529
   0.05622471  0.05622471  0.05622471
   0.44377529  0.94377529  0.55622471
   0.55622471  0.44377529  0.94377529
   0.94377529  0.55622471  0.44377529
   0.37500000  0.00000000  0.25000000
   0.12500000  0.00000000  0.75000000
   0.62500000  0.50000000  0.25000000
   0.87500000  0.50000000  0.75000000
   0.25000000  0.37500000  0.00000000
   0.75000000  0.12500000  0.00000000
   0.25000000  0.62500000  0.50000000
   0.75000000  0.87500000  0.50000000
   0.00000000  0.25000000  0.37500000
   0.00000000  0.75000000  0.12500000
   0.50000000  0.25000000  0.62500000
   0.50000000  0.75000000  0.87500000
Al4C3 I-43d - H(P) scan @ 0 GPa (ISIF=8)
           1
     6.576774    0.000000    0.000000
     0.000000    6.576774    0.000000
     0.000000    0.000000    6.576774
   Al   C 
    16    12
Direct configuration=     2
   0.30623117  0.30623117  0.30623117
   0.19376883  0.69376883  0.80623117
   0.69376883  0.80623117  0.19376883
   0.80623117  0.19376883  0.69376883
   0.55623117  0.55623117  0.55623117
   0.94376883  0.44376883  0.05623117
   0.05623117  0.94376883  0.44376883
   0.44376883  0.05623117  0.94376883
   0.80623117  0.80623117  0.80623117
   0.69376883  0.19376883  0.30623117
   0.19376883  0.30623117  0.69376883
   0.30623117  0.69376883  0.19376883
   0.05623117  0.05623117  0.05623117
   0.44376883  0.94376883  0.55623117
   0.55623117  0.44376883  0.94376883
   0.94376883  0.55623117  0.44376883
   0.37500000  0.00000000  0.25000000
   0.12500000  0.00000000  0.75000000
   0.62500000  0.50000000  0.25000000
   0.87500000  0.50000000  0.75000000
   0.25000000  0.37500000  0.00000000
   0.75000000  0.12500000  0.00000000
   0.25000000  0.62500000  0.50000000
   0.75000000  0.87500000  0.50000000
   0.00000000  0.25000000  0.37500000
   0.00000000  0.75000000  0.12500000
   0.50000000  0.25000000  0.62500000
   0.50000000  0.75000000  0.87500000
Al4C3 I-43d - H(P) scan @ 0 GPa (ISIF=8)
           1
     6.503250    0.000000    0.000000
     0.000000    6.503250    0.000000
     0.000000    0.000000    6.503250
   Al   C 
    16    12
Direct configuration=     3
   0.30622862  0.30622862  0.30622862
   0.19377138  0.69377138  0.80622862
   0.69377138  0.80622862  0.19377138
   0.80622862  0.19377138  0.69377138
   0.55622862  0.55622862  0.55622862
   0.94377138  0.44377138  0.05622862
   0.05622862  0.94377138  0.44377138
   0.44377138  0.05622862  0.94377138
   0.80622862  0.80622862  0.80622862
   0.69377138  0.19377138  0.30622862
   0.19377138  0.30622862  0.69377138
   0.30622862  0.69377138  0.19377138
   0.05622862  0.05622862  0.05622862
   0.44377138  0.94377138  0.55622862
   0.55622862  0.44377138  0.94377138
   0.94377138  0.55622862  0.44377138
   0.37500000  0.00000000  0.25000000
   0.12500000  0.00000000  0.75000000
   0.62500000  0.50000000  0.25000000
   0.87500000  0.50000000  0.75000000
   0.25000000  0.37500000  0.00000000
   0.75000000  0.12500000  0.00000000
   0.25000000  0.62500000  0.50000000
   0.75000000  0.87500000  0.50000000
   0.00000000  0.25000000  0.37500000
   0.00000000  0.75000000  0.12500000
   0.50000000  0.25000000  0.62500000
   0.50000000  0.75000000  0.87500000
Al4C3 I-43d - H(P) scan @ 0 GPa (ISIF=8)
           1
     6.507375    0.000000    0.000000
     0.000000    6.507375    0.000000
     0.000000    0.000000    6.507375
   Al   C 
    16    12
Direct configuration=     4
   0.30540541  0.30540541  0.30540541
   0.19459459  0.69459459  0.80540541
   0.69459459  0.80540541  0.19459459
   0.80540541  0.19459459  0.69459459
   0.55540541  0.55540541  0.55540541
   0.94459459  0.44459459  0.05540541
   0.05540541  0.94459459  0.44459459
   0.44459459  0.05540541  0.94459459
   0.80540541  0.80540541  0.80540541
   0.69459459  0.19459459  0.30540541
   0.19459459  0.30540541  0.69459459
   0.30540541  0.69459459  0.19459459
   0.05540541  0.05540541  0.05540541
   0.44459459  0.94459459  0.55540541
   0.55540541  0.44459459  0.94459459
   0.94459459  0.55540541  0.44459459
   0.37500000 -0.00000000  0.25000000
   0.12500000 -0.00000000  0.75000000
   0.62500000  0.50000000  0.25000000
   0.87500000  0.50000000  0.75000000
   0.25000000  0.37500000 -0.00000000
   0.75000000  0.12500000 -0.00000000
   0.25000000  0.62500000  0.50000000
   0.75000000  0.87500000  0.50000000
  -0.00000000  0.25000000  0.37500000
  -0.00000000  0.75000000  0.12500000
   0.50000000  0.25000000  0.62500000
   0.50000000  0.75000000  0.87500000
Al4C3 I-43d - H(P) scan @ 0 GPa (ISIF=8)
           1
     6.519750    0.000000    0.000000
     0.000000    6.519750    0.000000
     0.000000    0.000000    6.519750
   Al   C 
    16    12
Direct configuration=     5
   0.30293735  0.30293735  0.30293735
   0.19706265  0.69706265  0.80293735
   0.69706265  0.80293735  0.19706265
   0.80293735  0.19706265  0.69706265
   0.55293735  0.55293735  0.55293735
   0.94706265  0.44706265  0.05293735
   0.05293735  0.94706265  0.44706265
   0.44706265  0.05293735  0.94706265
   0.80293735  0.80293735  0.80293735
   0.69706265  0.19706265  0.30293735
   0.19706265  0.30293735  0.69706265
   0.30293735  0.69706265  0.19706265
   0.05293735  0.05293735  0.05293735
   0.44706265  0.94706265  0.55293735
   0.55293735  0.44706265  0.94706265
   0.94706265  0.55293735  0.44706265
   0.37500000 -0.00000000  0.25000000
   0.12500000 -0.00000000  0.75000000
   0.62500000  0.50000000  0.25000000
   0.87500000  0.50000000  0.75000000
   0.25000000  0.37500000 -0.00000000
   0.75000000  0.12500000 -0.00000000
   0.25000000  0.62500000  0.50000000
   0.75000000  0.87500000  0.50000000
  -0.00000000  0.25000000  0.37500000
  -0.00000000  0.75000000  0.12500000
   0.50000000  0.25000000  0.62500000
   0.50000000  0.75000000  0.87500000
Al4C3 I-43d - H(P) scan @ 0 GPa (ISIF=8)
           1
     6.544499    0.000000    0.000000
     0.000000    6.544499    0.000000
     0.000000    0.000000    6.544499
   Al   C 
    16    12
Direct configuration=     6
   0.29801059  0.29801059  0.29801059
   0.20198941  0.70198941  0.79801059
   0.70198941  0.79801059  0.20198941
   0.79801059  0.20198941  0.70198941
   0.54801059  0.54801059  0.54801059
   0.95198941  0.45198941  0.04801059
   0.04801059  0.95198941  0.45198941
   0.45198941  0.04801059  0.95198941
   0.79801059  0.79801059  0.79801059
   0.70198941  0.20198941  0.29801059
   0.20198941  0.29801059  0.70198941
   0.29801059  0.70198941  0.20198941
   0.04801059  0.04801059  0.04801059
   0.45198941  0.95198941  0.54801059
   0.54801059  0.45198941  0.95198941
   0.95198941  0.54801059  0.45198941
   0.37500000 -0.00000000  0.25000000
   0.12500000 -0.00000000  0.75000000
   0.62500000  0.50000000  0.25000000
   0.87500000  0.50000000  0.75000000
   0.25000000  0.37500000 -0.00000000
   0.75000000  0.12500000 -0.00000000
   0.25000000  0.62500000  0.50000000
   0.75000000  0.87500000  0.50000000
  -0.00000000  0.25000000  0.37500000
  -0.00000000  0.75000000  0.12500000
   0.50000000  0.25000000  0.62500000
   0.50000000  0.75000000  0.87500000
Al4C3 I-43d - H(P) scan @ 0 GPa (ISIF=8)
           1
     6.539094    0.000000    0.000000
     0.000000    6.539094    0.000000
     0.000000    0.000000    6.539094
   Al   C 
    16    12
Direct configuration=     7
   0.29908259  0.29908259  0.29908259
   0.20091741  0.70091741  0.79908259
   0.70091741  0.79908259  0.20091741
   0.79908259  0.20091741  0.70091741
   0.54908259  0.54908259  0.54908259
   0.95091741  0.45091741  0.04908259
   0.04908259  0.95091741  0.45091741
   0.45091741  0.04908259  0.95091741
   0.79908259  0.79908259  0.79908259
   0.70091741  0.20091741  0.29908259
   0.20091741  0.29908259  0.70091741
   0.29908259  0.70091741  0.20091741
   0.04908259  0.04908259  0.04908259
   0.45091741  0.95091741  0.54908259
   0.54908259  0.45091741  0.95091741
   0.95091741  0.54908259  0.45091741
   0.37500000 -0.00000000  0.25000000
   0.12500000 -0.00000000  0.75000000
   0.62500000  0.50000000  0.25000000
   0.87500000  0.50000000  0.75000000
   0.25000000  0.37500000 -0.00000000
   0.75000000  0.12500000 -0.00000000
   0.25000000  0.62500000  0.50000000
   0.75000000  0.87500000  0.50000000
  -0.00000000  0.25000000  0.37500000
  -0.00000000  0.75000000  0.12500000
   0.50000000  0.25000000  0.62500000
   0.50000000  0.75000000  0.87500000
Al4C3 I-43d - H(P) scan @ 0 GPa (ISIF=8)
           1
     6.566664    0.000000    0.000000
     0.000000    6.566664    0.000000
     0.000000    0.000000    6.566664
   Al   C 
    16    12
Direct configuration=     8
   0.29877744  0.29877744  0.29877744
   0.20122256  0.70122256  0.79877744
   0.70122256  0.79877744  0.20122256
   0.79877744  0.20122256  0.70122256
   0.54877744  0.54877744  0.54877744
   0.95122256  0.45122256  0.04877744
   0.04877744  0.95122256  0.45122256
   0.45122256  0.04877744  0.95122256
   0.79877744  0.79877744  0.79877744
   0.70122256  0.20122256  0.29877744
   0.20122256  0.29877744  0.70122256
   0.29877744  0.70122256  0.20122256
   0.04877744  0.04877744  0.04877744
   0.45122256  0.95122256  0.54877744
   0.54877744  0.45122256  0.95122256
   0.95122256  0.54877744  0.45122256
   0.37500000 -0.00000000  0.25000000
   0.12500000 -0.00000000  0.75000000
   0.62500000  0.50000000  0.25000000
   0.87500000  0.50000000  0.75000000
   0.25000000  0.37500000 -0.00000000
   0.75000000  0.12500000 -0.00000000
   0.25000000  0.62500000  0.50000000
   0.75000000  0.87500000  0.50000000
  -0.00000000  0.25000000  0.37500000
  -0.00000000  0.75000000  0.12500000
   0.50000000  0.25000000  0.62500000
   0.50000000  0.75000000  0.87500000
Al4C3 I-43d - H(P) scan @ 0 GPa (ISIF=8)
           1
     6.546377    0.000000    0.000000
     0.000000    6.546377    0.000000
     0.000000    0.000000    6.546377
   Al   C 
    16    12
Direct configuration=     9
   0.29900103  0.29900103  0.29900103
   0.20099897  0.70099897  0.79900103
   0.70099897  0.79900103  0.20099897
   0.79900103  0.20099897  0.70099897
   0.54900103  0.54900103  0.54900103
   0.95099897  0.45099897  0.04900103
   0.04900103  0.95099897  0.45099897
   0.45099897  0.04900103  0.95099897
   0.79900103  0.79900103  0.79900103
   0.70099897  0.20099897  0.29900103
   0.20099897  0.29900103  0.70099897
   0.29900103  0.70099897  0.20099897
   0.04900103  0.04900103  0.04900103
   0.45099897  0.95099897  0.54900103
   0.54900103  0.45099897  0.95099897
   0.95099897  0.54900103  0.45099897
   0.37500000 -0.00000000  0.25000000
   0.12500000 -0.00000000  0.75000000
   0.62500000  0.50000000  0.25000000
   0.87500000  0.50000000  0.75000000
   0.25000000  0.37500000 -0.00000000
   0.75000000  0.12500000 -0.00000000
   0.25000000  0.62500000  0.50000000
   0.75000000  0.87500000  0.50000000
  -0.00000000  0.25000000  0.37500000
  -0.00000000  0.75000000  0.12500000
   0.50000000  0.25000000  0.62500000
   0.50000000  0.75000000  0.87500000
