Al4C3 Pnma (CIF findsym, P21/n21/m21/a) 
   1.00000000000000     
     8.6173888676288826    0.0000000000000000    0.0000000000000000
     0.0000000000000000    2.9608216871745201    0.0000000000000000
     0.0000000000000000    0.0000000000000000    9.0843104197897482
   Al   C 
    16    12
Direct
  0.2697606007723182  0.2500000000000000  0.2662708068420662
  0.7697606007723184  0.2500000000000000  0.2337291931579338
  0.7302393992276816  0.7500000000000000  0.7337291931579337
  0.2302393992276889  0.7500000000000000  0.7662708068420663
  0.4641904250445095  0.2500000000000000  0.8919051266266675
  0.9641904250445095  0.2500000000000000  0.6080948733733325
  0.5358095749554905  0.7500000000000000  0.1080948733733325
  0.0358095749554905  0.7500000000000000  0.3919051266266675
  0.5053331197561438  0.2500000000000000  0.6057828425291346
  0.0053331197561437  0.2500000000000000  0.8942171574708654
  0.4946668802438564  0.7500000000000000  0.3942171574708654
  0.9946668802438562  0.7500000000000000  0.1057828425291346
  0.2348842408539462  0.2500000000000000  0.5570050881944534
  0.7348842408539462  0.2500000000000000  0.9429949118055466
  0.7651157591460538  0.7500000000000000  0.4429949118055465
  0.2651157591460539  0.7500000000000000  0.0570050881944535
  0.3847821344638896  0.2500000000000000  0.4260851775052233
  0.8847821344638896  0.2500000000000000  0.0739148224947766
  0.6152178655361104  0.7500000000000000  0.5739148224947767
  0.1152178655361104  0.7500000000000000  0.9260851775052233
  0.3961801612960175  0.2500000000000000  0.0895326438220346
  0.8961801612960175  0.2500000000000000  0.4104673561779583
  0.6038198387039825  0.7500000000000000  0.9104673561779583
  0.1038198387039825  0.7500000000000000  0.5895326438220417
  0.3458453239734720  0.2500000000000000  0.7342288962820316
  0.8458453239734721  0.2500000000000000  0.7657711037179684
  0.6541546760265279  0.7500000000000000  0.2657711037179684
  0.1541546760265280  0.7500000000000000  0.2342288962820316
 
  0.00000000E+00  0.00000000E+00  0.00000000E+00
  0.00000000E+00  0.00000000E+00  0.00000000E+00
  0.00000000E+00  0.00000000E+00  0.00000000E+00
  0.00000000E+00  0.00000000E+00  0.00000000E+00
  0.00000000E+00  0.00000000E+00  0.00000000E+00
  0.00000000E+00  0.00000000E+00  0.00000000E+00
  0.00000000E+00  0.00000000E+00  0.00000000E+00
  0.00000000E+00  0.00000000E+00  0.00000000E+00
  0.00000000E+00  0.00000000E+00  0.00000000E+00
  0.00000000E+00  0.00000000E+00  0.00000000E+00
  0.00000000E+00  0.00000000E+00  0.00000000E+00
  0.00000000E+00  0.00000000E+00  0.00000000E+00
  0.00000000E+00  0.00000000E+00  0.00000000E+00
  0.00000000E+00  0.00000000E+00  0.00000000E+00
  0.00000000E+00  0.00000000E+00  0.00000000E+00
  0.00000000E+00  0.00000000E+00  0.00000000E+00
  0.00000000E+00  0.00000000E+00  0.00000000E+00
  0.00000000E+00  0.00000000E+00  0.00000000E+00
  0.00000000E+00  0.00000000E+00  0.00000000E+00
  0.00000000E+00  0.00000000E+00  0.00000000E+00
  0.00000000E+00  0.00000000E+00  0.00000000E+00
  0.00000000E+00  0.00000000E+00  0.00000000E+00
  0.00000000E+00  0.00000000E+00  0.00000000E+00
  0.00000000E+00  0.00000000E+00  0.00000000E+00
  0.00000000E+00  0.00000000E+00  0.00000000E+00
  0.00000000E+00  0.00000000E+00  0.00000000E+00
  0.00000000E+00  0.00000000E+00  0.00000000E+00
  0.00000000E+00  0.00000000E+00  0.00000000E+00
