  28  28   0   0
  0.8316578E+01  0.8630778E-09  0.2965422E-09  0.9098425E-09  0.5000000E-15
  1.000000000000000E-004
  CAR 
 Al4C3 Pnma-VII - r2SCAN H(P) scan @ 100 
     21.35062034     -7.13328217  301     11.19729593      1.00000000
     -7.133  0.0000E+00  0.0000E+00
     -7.038  0.0000E+00  0.0000E+00
     -6.943  0.0000E+00  0.0000E+00
     -6.848  0.0000E+00  0.0000E+00
     -6.753  0.0000E+00  0.0000E+00
     -6.659  0.0000E+00  0.0000E+00
     -6.564  0.0000E+00  0.0000E+00
     -6.469  0.0000E+00  0.0000E+00
     -6.374  0.0000E+00  0.0000E+00
     -6.279  0.0000E+00  0.0000E+00
     -6.184  0.0000E+00  0.0000E+00
     -6.089  0.4316E-15  0.4097E-16
     -5.994  0.3323E-08  0.3155E-09
     -5.899  0.2619E-04  0.2487E-05
     -5.804  0.6143E-03  0.6081E-04
     -5.709  0.2930E-02  0.3390E-03
     -5.614  0.5808E-02  0.8904E-03
     -5.519  0.5848E-02  0.1446E-02
     -5.424  0.5582E-02  0.1976E-02
     -5.329  0.9713E-02  0.2898E-02
     -5.234  0.1362E-01  0.4191E-02
     -5.139  0.1014E-01  0.5154E-02
     -5.044  0.7407E-02  0.5857E-02
     -4.950  0.1268E-01  0.7061E-02
     -4.855  0.8061E-02  0.7827E-02
     -4.760  0.3805E-02  0.8188E-02
     -4.665  0.1051E-01  0.9186E-02
     -4.570  0.1171E-01  0.1030E-01
     -4.475  0.8003E-02  0.1106E-01
     -4.380  0.1780E-01  0.1275E-01
     -4.285  0.1584E-01  0.1425E-01
     -4.190  0.7692E-02  0.1498E-01
     -4.095  0.1655E-01  0.1655E-01
     -4.000  0.2197E-01  0.1864E-01
     -3.905  0.1411E-01  0.1998E-01
     -3.810  0.1056E-01  0.2098E-01
     -3.715  0.1047E-01  0.2198E-01
     -3.620  0.1573E-01  0.2347E-01
     -3.525  0.2411E-01  0.2576E-01
     -3.430  0.1601E-01  0.2728E-01
     -3.335  0.1572E-01  0.2877E-01
     -3.240  0.1525E-01  0.3022E-01
     -3.146  0.1796E-01  0.3192E-01
     -3.051  0.1977E-01  0.3380E-01
     -2.956  0.2039E-01  0.3574E-01
     -2.861  0.1931E-01  0.3757E-01
     -2.766  0.1950E-01  0.3942E-01
     -2.671  0.3043E-01  0.4231E-01
     -2.576  0.2420E-01  0.4461E-01
     -2.481  0.2249E-01  0.4674E-01
     -2.386  0.2428E-01  0.4905E-01
     -2.291  0.1859E-01  0.5082E-01
     -2.196  0.2418E-01  0.5311E-01
     -2.101  0.2053E-01  0.5506E-01
     -2.006  0.2374E-01  0.5731E-01
     -1.911  0.4326E-01  0.6142E-01
     -1.816  0.3815E-01  0.6504E-01
     -1.721  0.3886E-01  0.6873E-01
     -1.626  0.3316E-01  0.7188E-01
     -1.531  0.3120E-01  0.7484E-01
     -1.437  0.3762E-01  0.7842E-01
     -1.342  0.4541E-01  0.8273E-01
     -1.247  0.3345E-01  0.8590E-01
     -1.152  0.2231E-01  0.8802E-01
     -1.057  0.2781E-01  0.9066E-01
     -0.962  0.2898E-01  0.9341E-01
     -0.867  0.2528E-01  0.9581E-01
     -0.772  0.3985E-01  0.9960E-01
     -0.677  0.4496E-01  0.1039E+00
     -0.582  0.3457E-01  0.1071E+00
     -0.487  0.3918E-01  0.1109E+00
     -0.392  0.4885E-01  0.1155E+00
     -0.297  0.4122E-01  0.1194E+00
     -0.202  0.6102E-02  0.1200E+00
     -0.107  0.1735E-04  0.1200E+00
     -0.012  0.1215E-09  0.1200E+00
      0.083  0.7973E-18  0.1200E+00
      0.178  0.0000E+00  0.1200E+00
      0.273  0.0000E+00  0.1200E+00
      0.367  0.0000E+00  0.1200E+00
      0.462  0.0000E+00  0.1200E+00
      0.557  0.0000E+00  0.1200E+00
      0.652  0.0000E+00  0.1200E+00
      0.747  0.0000E+00  0.1200E+00
      0.842  0.0000E+00  0.1200E+00
      0.937  0.0000E+00  0.1200E+00
      1.032  0.0000E+00  0.1200E+00
      1.127  0.0000E+00  0.1200E+00
      1.222  0.0000E+00  0.1200E+00
      1.317  0.0000E+00  0.1200E+00
      1.412  0.6644E-19  0.1200E+00
      1.507  0.1583E-10  0.1200E+00
      1.602  0.2398E-05  0.1200E+00
      1.697  0.5715E-03  0.1201E+00
      1.792  0.4008E-02  0.1204E+00
      1.887  0.7820E-02  0.1212E+00
      1.982  0.6411E-02  0.1218E+00
      2.077  0.7634E-02  0.1225E+00
      2.171  0.1391E-01  0.1238E+00
      2.266  0.1867E-01  0.1256E+00
      2.361  0.1645E-01  0.1272E+00
      2.456  0.2193E-01  0.1292E+00
      2.551  0.2740E-01  0.1318E+00
      2.646  0.2511E-01  0.1342E+00
      2.741  0.1739E-01  0.1359E+00
      2.836  0.1614E-01  0.1374E+00
      2.931  0.1490E-01  0.1388E+00
      3.026  0.1423E-01  0.1402E+00
      3.121  0.2632E-01  0.1427E+00
      3.216  0.3261E-01  0.1458E+00
      3.311  0.2412E-01  0.1481E+00
      3.406  0.2280E-01  0.1502E+00
      3.501  0.2274E-01  0.1524E+00
      3.596  0.2021E-01  0.1543E+00
      3.691  0.2153E-01  0.1564E+00
      3.786  0.3099E-01  0.1593E+00
      3.880  0.3551E-01  0.1627E+00
      3.975  0.5664E-01  0.1680E+00
      4.070  0.5203E-01  0.1730E+00
      4.165  0.5461E-01  0.1782E+00
      4.260  0.3933E-01  0.1819E+00
      4.355  0.3376E-01  0.1851E+00
      4.450  0.4579E-01  0.1895E+00
      4.545  0.4502E-01  0.1937E+00
      4.640  0.3744E-01  0.1973E+00
      4.735  0.3538E-01  0.2006E+00
      4.830  0.3617E-01  0.2041E+00
      4.925  0.3899E-01  0.2078E+00
      5.020  0.3076E-01  0.2107E+00
      5.115  0.3195E-01  0.2137E+00
      5.210  0.3911E-01  0.2175E+00
      5.305  0.2718E-01  0.2200E+00
      5.400  0.2938E-01  0.2228E+00
      5.495  0.3075E-01  0.2257E+00
      5.590  0.3783E-01  0.2293E+00
      5.684  0.4681E-01  0.2338E+00
      5.779  0.2910E-01  0.2365E+00
      5.874  0.3154E-01  0.2395E+00
      5.969  0.3540E-01  0.2429E+00
      6.064  0.3288E-01  0.2460E+00
      6.159  0.4433E-01  0.2502E+00
      6.254  0.4740E-01  0.2547E+00
      6.349  0.3713E-01  0.2583E+00
      6.444  0.3914E-01  0.2620E+00
      6.539  0.4370E-01  0.2661E+00
      6.634  0.5452E-01  0.2713E+00
      6.729  0.4495E-01  0.2756E+00
      6.824  0.3984E-01  0.2793E+00
      6.919  0.3748E-01  0.2829E+00
      7.014  0.4026E-01  0.2867E+00
      7.109  0.5025E-01  0.2915E+00
      7.204  0.3115E-01  0.2945E+00
      7.299  0.4235E-01  0.2985E+00
      7.394  0.5058E-01  0.3033E+00
      7.488  0.5369E-01  0.3084E+00
      7.583  0.5323E-01  0.3134E+00
      7.678  0.5115E-01  0.3183E+00
      7.773  0.5147E-01  0.3232E+00
      7.868  0.4819E-01  0.3278E+00
      7.963  0.5330E-01  0.3328E+00
      8.058  0.7069E-01  0.3395E+00
      8.153  0.6229E-01  0.3454E+00
      8.248  0.4445E-01  0.3497E+00
      8.343  0.5319E-01  0.3547E+00
      8.438  0.5486E-01  0.3599E+00
      8.533  0.6283E-01  0.3659E+00
      8.628  0.7923E-01  0.3734E+00
      8.723  0.6461E-01  0.3795E+00
      8.818  0.5750E-01  0.3850E+00
      8.913  0.6746E-01  0.3914E+00
      9.008  0.7120E-01  0.3982E+00
      9.103  0.5293E-01  0.4032E+00
      9.197  0.4362E-01  0.4073E+00
      9.292  0.5357E-01  0.4124E+00
      9.387  0.5900E-01  0.4180E+00
      9.482  0.8599E-01  0.4262E+00
      9.577  0.5582E-01  0.4315E+00
      9.672  0.6153E-01  0.4373E+00
      9.767  0.5032E-01  0.4421E+00
      9.862  0.3855E-01  0.4458E+00
      9.957  0.4972E-01  0.4505E+00
     10.052  0.5874E-01  0.4561E+00
     10.147  0.5658E-01  0.4614E+00
     10.242  0.3928E-01  0.4652E+00
     10.337  0.2825E-01  0.4678E+00
     10.432  0.2674E-01  0.4704E+00
     10.527  0.3512E-01  0.4737E+00
     10.622  0.3758E-01  0.4773E+00
     10.717  0.8736E-02  0.4781E+00
     10.812  0.1087E-02  0.4782E+00
     10.907  0.9583E-02  0.4791E+00
     11.001  0.8831E-02  0.4800E+00
     11.096  0.3135E-03  0.4800E+00
     11.191  0.6123E-07  0.4800E+00
     11.286  0.1712E-13  0.4800E+00
     11.381  0.8211E-15  0.4800E+00
     11.476  0.8929E-08  0.4800E+00
     11.571  0.9786E-04  0.4800E+00
     11.666  0.2297E-02  0.4802E+00
     11.761  0.8465E-03  0.4803E+00
     11.856  0.2806E-02  0.4806E+00
     11.951  0.5353E-03  0.4806E+00
     12.046  0.5253E-03  0.4807E+00
     12.141  0.6068E-02  0.4813E+00
     12.236  0.4309E-02  0.4817E+00
     12.331  0.7860E-02  0.4824E+00
     12.426  0.7172E-02  0.4831E+00
     12.521  0.3906E-02  0.4835E+00
     12.616  0.1201E-02  0.4836E+00
     12.711  0.4796E-02  0.4840E+00
     12.805  0.1429E-01  0.4854E+00
     12.900  0.6214E-02  0.4860E+00
     12.995  0.4818E-02  0.4864E+00
     13.090  0.8110E-02  0.4872E+00
     13.185  0.1401E-01  0.4885E+00
     13.280  0.1754E-01  0.4902E+00
     13.375  0.1112E-01  0.4913E+00
     13.470  0.6145E-02  0.4918E+00
     13.565  0.9929E-02  0.4928E+00
     13.660  0.1473E-01  0.4942E+00
     13.755  0.1136E-01  0.4953E+00
     13.850  0.2227E-01  0.4974E+00
     13.945  0.1579E-01  0.4989E+00
     14.040  0.1235E-01  0.5000E+00
     14.135  0.1362E-01  0.5013E+00
     14.230  0.1797E-01  0.5030E+00
     14.325  0.1352E-01  0.5043E+00
     14.420  0.1057E-01  0.5053E+00
     14.514  0.2364E-01  0.5076E+00
     14.609  0.1681E-01  0.5092E+00
     14.704  0.1234E-01  0.5103E+00
     14.799  0.2218E-01  0.5124E+00
     14.894  0.3332E-01  0.5156E+00
     14.989  0.3012E-01  0.5185E+00
     15.084  0.2605E-01  0.5209E+00
     15.179  0.2578E-01  0.5234E+00
     15.274  0.2564E-01  0.5258E+00
     15.369  0.2521E-01  0.5282E+00
     15.464  0.2713E-01  0.5308E+00
     15.559  0.2576E-01  0.5332E+00
     15.654  0.2088E-01  0.5352E+00
     15.749  0.1964E-01  0.5371E+00
     15.844  0.2675E-01  0.5396E+00
     15.939  0.1938E-01  0.5415E+00
     16.034  0.2261E-01  0.5436E+00
     16.129  0.1253E-01  0.5448E+00
     16.224  0.3409E-01  0.5480E+00
     16.318  0.3993E-01  0.5518E+00
     16.413  0.2031E-01  0.5538E+00
     16.508  0.2410E-01  0.5561E+00
     16.603  0.2218E-01  0.5582E+00
     16.698  0.3210E-01  0.5612E+00
     16.793  0.2707E-01  0.5638E+00
     16.888  0.1747E-01  0.5654E+00
     16.983  0.1311E-01  0.5667E+00
     17.078  0.2115E-01  0.5687E+00
     17.173  0.2970E-01  0.5715E+00
     17.268  0.3710E-01  0.5750E+00
     17.363  0.1605E-01  0.5766E+00
     17.458  0.1833E-01  0.5783E+00
     17.553  0.2783E-01  0.5809E+00
     17.648  0.4149E-01  0.5849E+00
     17.743  0.3591E-01  0.5883E+00
     17.838  0.2750E-01  0.5909E+00
     17.933  0.2431E-01  0.5932E+00
     18.027  0.2308E-01  0.5954E+00
     18.122  0.2259E-01  0.5975E+00
     18.217  0.2470E-01  0.5999E+00
     18.312  0.2031E-01  0.6018E+00
     18.407  0.2217E-01  0.6039E+00
     18.502  0.4212E-01  0.6079E+00
     18.597  0.4304E-01  0.6120E+00
     18.692  0.2725E-01  0.6146E+00
     18.787  0.3425E-01  0.6178E+00
     18.882  0.3267E-01  0.6209E+00
     18.977  0.3874E-01  0.6246E+00
     19.072  0.4390E-01  0.6288E+00
     19.167  0.2770E-01  0.6314E+00
     19.262  0.3071E-01  0.6343E+00
     19.357  0.3771E-01  0.6379E+00
     19.452  0.4562E-01  0.6422E+00
     19.547  0.3563E-01  0.6456E+00
     19.642  0.2643E-01  0.6481E+00
     19.737  0.3017E-01  0.6510E+00
     19.831  0.2348E-01  0.6532E+00
     19.926  0.2888E-01  0.6560E+00
     20.021  0.2531E-01  0.6584E+00
     20.116  0.1657E-01  0.6599E+00
     20.211  0.5282E-03  0.6600E+00
     20.306  0.4643E-07  0.6600E+00
     20.401  0.4536E-14  0.6600E+00
     20.496  0.0000E+00  0.6600E+00
     20.591  0.0000E+00  0.6600E+00
     20.686  0.0000E+00  0.6600E+00
     20.781  0.0000E+00  0.6600E+00
     20.876  0.0000E+00  0.6600E+00
     20.971  0.0000E+00  0.6600E+00
     21.066  0.0000E+00  0.6600E+00
     21.161  0.0000E+00  0.6600E+00
     21.256  0.0000E+00  0.6600E+00
     21.351  0.0000E+00  0.6600E+00
