       N       E                     dE             d eps       ncg     rms          rms(c)
DAV:   1    -0.228320518928E+03   -0.22832E+03   -0.45998E+00  7134   0.104E+01    0.958E+00
DAV:   2    -0.212803415161E+03    0.15517E+02   -0.16172E+00  7182   0.672E+00    0.686E+00
DAV:   3    -0.213232854578E+03   -0.42944E+00   -0.22244E-01  8568   0.223E+00    0.531E+00
DAV:   4    -0.213271824269E+03   -0.38970E-01   -0.12903E-01  8430   0.123E+00    0.104E+00
DAV:   5    -0.213274013209E+03   -0.21889E-02   -0.74989E-03  8370   0.347E-01    0.457E-01
DAV:   6    -0.213274818947E+03   -0.80574E-03   -0.23309E-03  8130   0.176E-01    0.175E-01
DAV:   7    -0.213274875234E+03   -0.56287E-04   -0.12283E-04  8370   0.423E-02    0.117E-01
DAV:   8    -0.213274874704E+03    0.52963E-06   -0.13298E-04  8502   0.465E-02    0.642E-02
DAV:   9    -0.213274913688E+03   -0.38984E-04   -0.75027E-05  8100   0.343E-02    0.747E-03
DAV:  10    -0.213274919491E+03   -0.58033E-05   -0.14829E-06  4290   0.610E-03
   1 F= -.67932592E+02 E0= -.67932592E+02  d E =-.679326E+02
       N       E                     dE             d eps       ncg     rms          rms(c)
DAV:   1    -0.210337936349E+03    0.29370E+01   -0.15338E+00  7632   0.539E+00    0.112E+00
DAV:   2    -0.210326999805E+03    0.10937E-01   -0.68400E-02  8640   0.940E-01    0.616E-01
DAV:   3    -0.210326848811E+03    0.15099E-03   -0.11752E-02  8244   0.341E-01    0.223E-01
DAV:   4    -0.210327356003E+03   -0.50719E-03   -0.46358E-04  8550   0.864E-02    0.115E-01
DAV:   5    -0.210327435448E+03   -0.79445E-04   -0.14203E-04  8196   0.439E-02    0.829E-02
DAV:   6    -0.210327588929E+03   -0.15348E-03   -0.40912E-05  7716   0.305E-02    0.206E-02
DAV:   7    -0.210327576346E+03    0.12583E-04   -0.30900E-06  4470   0.676E-03    0.803E-03
DAV:   8    -0.210327569255E+03    0.70913E-05   -0.82100E-07  4368   0.356E-03
   2 F= -.67865609E+02 E0= -.67865609E+02  d E =0.669824E-01
       N       E                     dE             d eps       ncg     rms          rms(c)
DAV:   1    -0.212410700313E+03   -0.20831E+01   -0.73075E-01  7632   0.369E+00    0.778E-01
DAV:   2    -0.212404314145E+03    0.63862E-02   -0.32608E-02  8664   0.647E-01    0.431E-01
DAV:   3    -0.212403126343E+03    0.11878E-02   -0.56537E-03  8256   0.235E-01    0.158E-01
DAV:   4    -0.212402970986E+03    0.15536E-03   -0.22158E-04  8562   0.600E-02    0.799E-02
DAV:   5    -0.212402899297E+03    0.71689E-04   -0.72296E-05  7878   0.310E-02    0.575E-02
DAV:   6    -0.212402792543E+03    0.10675E-03   -0.19285E-05  4662   0.212E-02    0.108E-02
DAV:   7    -0.212402796710E+03   -0.41665E-05   -0.22631E-06  4392   0.655E-03
   3 F= -.67948310E+02 E0= -.67948310E+02  d E =-.157182E-01
       N       E                     dE             d eps       ncg     rms          rms(c)
DAV:   1    -0.212428419783E+03   -0.25627E-01   -0.12621E-04  7908   0.485E-02    0.869E-03
DAV:   2    -0.212428408328E+03    0.11455E-04   -0.52102E-06  4320   0.853E-03    0.453E-03
DAV:   3    -0.212428401617E+03    0.67109E-05   -0.16973E-06  4176   0.443E-03
   4 F= -.67948312E+02 E0= -.67948312E+02  d E =-.157204E-01
       N       E                     dE             d eps       ncg     rms          rms(c)
DAV:   1    -0.212589939759E+03   -0.16153E+00   -0.30458E-01  7170   0.231E+00    0.116E-01
DAV:   2    -0.212589868505E+03    0.71254E-04   -0.35863E-03  8652   0.236E-01    0.701E-02
DAV:   3    -0.212589788686E+03    0.79819E-04   -0.18360E-04  8502   0.536E-02    0.423E-02
DAV:   4    -0.212589763456E+03    0.25229E-04   -0.10517E-04  8424   0.395E-02    0.138E-02
DAV:   5    -0.212589770734E+03   -0.72771E-05   -0.24096E-05  5148   0.161E-02
   5 F= -.67952446E+02 E0= -.67952446E+02  d E =-.413337E-02
       N       E                     dE             d eps       ncg     rms          rms(c)
DAV:   1    -0.212603506916E+03   -0.13743E-01   -0.23114E-03  7428   0.202E-01    0.113E-02
DAV:   2    -0.212603505223E+03    0.16932E-05   -0.25609E-05  6996   0.205E-02
   6 F= -.67952477E+02 E0= -.67952477E+02  d E =-.416490E-02
       N       E                     dE             d eps       ncg     rms          rms(c)
DAV:   1    -0.212627492137E+03   -0.23985E-01   -0.12974E-01  7176   0.147E+00    0.716E-02
DAV:   2    -0.212627430017E+03    0.62120E-04   -0.14219E-03  8586   0.155E-01    0.457E-02
DAV:   3    -0.212627387539E+03    0.42478E-04   -0.10799E-04  8616   0.429E-02    0.291E-02
DAV:   4    -0.212627369502E+03    0.18037E-04   -0.63423E-05  8364   0.324E-02    0.971E-03
DAV:   5    -0.212627372025E+03   -0.25230E-05   -0.16298E-05  5106   0.134E-02
   7 F= -.67954012E+02 E0= -.67954012E+02  d E =-.153524E-02
       N       E                     dE             d eps       ncg     rms          rms(c)
DAV:   1    -0.212649323615E+03   -0.21954E-01   -0.11890E-01  7182   0.141E+00    0.670E-02
DAV:   2    -0.212649278423E+03    0.45192E-04   -0.13081E-03  8586   0.148E-01    0.431E-02
DAV:   3    -0.212649241463E+03    0.36960E-04   -0.96333E-05  8628   0.407E-02    0.276E-02
DAV:   4    -0.212649225393E+03    0.16070E-04   -0.54927E-05  8268   0.303E-02    0.938E-03
DAV:   5    -0.212649227493E+03   -0.20995E-05   -0.14366E-05  5100   0.126E-02
   8 F= -.67954497E+02 E0= -.67954497E+02  d E =-.201970E-02
       N       E                     dE             d eps       ncg     rms          rms(c)
DAV:   1    -0.212568227422E+03    0.80998E-01   -0.10009E-01  7188   0.129E+00    0.735E-02
DAV:   2    -0.212568246459E+03   -0.19037E-04   -0.17320E-03  8556   0.168E-01    0.492E-02
DAV:   3    -0.212568226433E+03    0.20026E-04   -0.11312E-04  8484   0.444E-02    0.302E-02
DAV:   4    -0.212568235798E+03   -0.93648E-05   -0.72843E-05  8082   0.327E-02
   9 F= -.67954804E+02 E0= -.67954804E+02  d E =-.307548E-03
       N       E                     dE             d eps       ncg     rms          rms(c)
DAV:   1    -0.212597905755E+03   -0.29679E-01   -0.12963E-02  7194   0.464E-01    0.249E-02
DAV:   2    -0.212597889447E+03    0.16308E-04   -0.22948E-04  8544   0.604E-02    0.166E-02
DAV:   3    -0.212597877823E+03    0.11624E-04   -0.12702E-05  5034   0.156E-02    0.965E-03
DAV:   4    -0.212597870627E+03    0.71960E-05   -0.10200E-05  3978   0.125E-02
  10 F= -.67954988E+02 E0= -.67954988E+02  d E =-.491098E-03
       N       E                     dE             d eps       ncg     rms          rms(c)
DAV:   1    -0.212600532220E+03   -0.26544E-02   -0.11539E-04  6810   0.439E-02    0.360E-03
DAV:   2    -0.212600530351E+03    0.18694E-05   -0.20853E-06  3774   0.637E-03
  11 F= -.67954987E+02 E0= -.67954987E+02  d E =-.490647E-03
       N       E                     dE             d eps       ncg     rms          rms(c)
DAV:   1    -0.212631182528E+03   -0.30650E-01   -0.10495E-02  7188   0.410E-01    0.254E-02
DAV:   2    -0.212631172395E+03    0.10134E-04   -0.16202E-04  8670   0.506E-02    0.169E-02
DAV:   3    -0.212631161826E+03    0.10568E-04   -0.13641E-05  4734   0.166E-02    0.793E-03
DAV:   4    -0.212631159720E+03    0.21065E-05   -0.11676E-05  4092   0.128E-02
  12 F= -.67955037E+02 E0= -.67955037E+02  d E =-.490977E-04
       N       E                     dE             d eps       ncg     rms          rms(c)
DAV:   1    -0.212621999509E+03    0.91623E-02   -0.91733E-04  7218   0.121E-01    0.786E-03
DAV:   2    -0.212622000168E+03   -0.65868E-06   -0.12285E-05  5334   0.146E-02
  13 F= -.67955049E+02 E0= -.67955049E+02  d E =-.617523E-04
