Al4C3 Pnma-VII - r2SCAN H(P) scan @ 100 
           1
     8.630778    0.000000    0.000000
     0.000000    2.965422    0.000000
     0.000000    0.000000    9.098425
   Al   C 
    16    12
Direct configuration=     1
   0.27032046  0.25000000  0.26633036
   0.77032046  0.25000000  0.23366964
   0.72967954  0.75000000  0.73366964
   0.22967954  0.75000000  0.76633036
   0.46294080  0.25000000  0.89184025
   0.96294080  0.25000000  0.60815975
   0.53705920  0.75000000  0.10815975
   0.03705920  0.75000000  0.39184025
   0.50538615  0.25000000  0.60654419
   0.00538615  0.25000000  0.89345581
   0.49461385  0.75000000  0.39345581
   0.99461385  0.75000000  0.10654419
   0.23383536  0.25000000  0.55647462
   0.73383536  0.25000000  0.94352538
   0.76616464  0.75000000  0.44352538
   0.26616464  0.75000000  0.05647462
   0.38482245  0.25000000  0.42658261
   0.88482245  0.25000000  0.07341739
   0.61517755  0.75000000  0.57341739
   0.11517755  0.75000000  0.92658261
   0.39738650  0.25000000  0.09050994
   0.89738650  0.25000000  0.40949006
   0.60261350  0.75000000  0.90949006
   0.10261350  0.75000000  0.59050994
   0.34511436  0.25000000  0.73386397
   0.84511436  0.25000000  0.76613603
   0.65488564  0.75000000  0.26613603
   0.15488564  0.75000000  0.23386397
Al4C3 Pnma-VII - r2SCAN H(P) scan @ 100 
           1
     8.573383    0.000000    0.000000
     0.000000    2.945702    0.000000
     0.000000    0.000000    9.037920
   Al   C 
    16    12
Direct configuration=     2
   0.27016995  0.25000000  0.26615030
   0.77016995  0.25000000  0.23384970
   0.72983005  0.75000000  0.73384970
   0.22983005  0.75000000  0.76615030
   0.46331918  0.25000000  0.89211340
   0.96331918  0.25000000  0.60788660
   0.53668082  0.75000000  0.10788660
   0.03668082  0.75000000  0.39211340
   0.50499708  0.25000000  0.60542801
   0.00499708  0.25000000  0.89457199
   0.49500292  0.75000000  0.39457199
   0.99500292  0.75000000  0.10542801
   0.23439713  0.25000000  0.55734175
   0.73439713  0.25000000  0.94265825
   0.76560287  0.75000000  0.44265825
   0.26560287  0.75000000  0.05734175
   0.38464699  0.25000000  0.42632094
   0.88464699  0.25000000  0.07367906
   0.61535301  0.75000000  0.57367906
   0.11535301  0.75000000  0.92632094
   0.39700173  0.25000000  0.08982963
   0.89700173  0.25000000  0.41017037
   0.60299827  0.75000000  0.91017037
   0.10299827  0.75000000  0.58982963
   0.34510019  0.25000000  0.73401144
   0.84510019  0.25000000  0.76598856
   0.65489981  0.75000000  0.26598856
   0.15489981  0.75000000  0.23401144
Al4C3 Pnma-VII - r2SCAN H(P) scan @ 100 
           1
     8.613168    0.000000    0.000000
     0.000000    2.959372    0.000000
     0.000000    0.000000    9.079861
   Al   C 
    16    12
Direct configuration=     3
   0.27027498  0.25000000  0.26627595
   0.77027498  0.25000000  0.23372405
   0.72972502  0.75000000  0.73372405
   0.22972502  0.75000000  0.76627595
   0.46305514  0.25000000  0.89192279
   0.96305514  0.25000000  0.60807721
   0.53694486  0.75000000  0.10807721
   0.03694486  0.75000000  0.39192279
   0.50526858  0.25000000  0.60620690
   0.00526858  0.25000000  0.89379310
   0.49473142  0.75000000  0.39379310
   0.99473142  0.75000000  0.10620690
   0.23400511  0.25000000  0.55673665
   0.73400511  0.25000000  0.94326335
   0.76599489  0.75000000  0.44326335
   0.26599489  0.75000000  0.05673665
   0.38476943  0.25000000  0.42650354
   0.88476943  0.25000000  0.07349646
   0.61523057  0.75000000  0.57349646
   0.11523057  0.75000000  0.92650354
   0.39727023  0.25000000  0.09030437
   0.89727023  0.25000000  0.40969563
   0.60272977  0.75000000  0.90969563
   0.10272977  0.75000000  0.59030437
   0.34511007  0.25000000  0.73390853
   0.84511007  0.25000000  0.76609147
   0.65488993  0.75000000  0.26609147
   0.15488993  0.75000000  0.23390853
Al4C3 Pnma-VII - r2SCAN H(P) scan @ 100 
           1
     8.613677    0.000000    0.000000
     0.000000    2.959546    0.000000
     0.000000    0.000000    9.080397
   Al   C 
    16    12
Direct configuration=     4
   0.27027632  0.25000000  0.26627755
   0.77027632  0.25000000  0.23372245
   0.72972368  0.75000000  0.73372245
   0.22972368  0.75000000  0.76627755
   0.46305177  0.25000000  0.89192036
   0.96305177  0.25000000  0.60807964
   0.53694823  0.75000000  0.10807964
   0.03694823  0.75000000  0.39192036
   0.50527203  0.25000000  0.60621682
   0.00527203  0.25000000  0.89378318
   0.49472797  0.75000000  0.39378318
   0.99472797  0.75000000  0.10621682
   0.23400012  0.25000000  0.55672895
   0.73400012  0.25000000  0.94327105
   0.76599988  0.75000000  0.44327105
   0.26599988  0.75000000  0.05672895
   0.38477099  0.25000000  0.42650587
   0.88477099  0.25000000  0.07349413
   0.61522901  0.75000000  0.57349413
   0.11522901  0.75000000  0.92650587
   0.39727365  0.25000000  0.09031041
   0.89727365  0.25000000  0.40968959
   0.60272635  0.75000000  0.90968959
   0.10272635  0.75000000  0.59031041
   0.34511020  0.25000000  0.73390722
   0.84511020  0.25000000  0.76609278
   0.65488980  0.75000000  0.26609278
   0.15488980  0.75000000  0.23390722
Al4C3 Pnma-VII - r2SCAN H(P) scan @ 100 
           1
     8.616801    0.000000    0.000000
     0.000000    2.960620    0.000000
     0.000000    0.000000    9.083690
   Al   C 
    16    12
Direct configuration=     5
   0.27024801  0.25000000  0.26621340
   0.77024801  0.25000000  0.23378660
   0.72975199  0.75000000  0.73378660
   0.22975199  0.75000000  0.76621340
   0.46333273  0.25000000  0.89196576
   0.96333273  0.25000000  0.60803424
   0.53666727  0.75000000  0.10803424
   0.03666727  0.75000000  0.39196576
   0.50503045  0.25000000  0.60570622
   0.00503045  0.25000000  0.89429378
   0.49496955  0.75000000  0.39429378
   0.99496955  0.75000000  0.10570622
   0.23431070  0.25000000  0.55712035
   0.73431070  0.25000000  0.94287965
   0.76568930  0.75000000  0.44287965
   0.26568930  0.75000000  0.05712035
   0.38461835  0.25000000  0.42632955
   0.88461835  0.25000000  0.07367045
   0.61538165  0.75000000  0.57367045
   0.11538165  0.75000000  0.92632955
   0.39691779  0.25000000  0.08995713
   0.89691779  0.25000000  0.41004287
   0.60308221  0.75000000  0.91004287
   0.10308221  0.75000000  0.58995713
   0.34537256  0.25000000  0.73408271
   0.84537256  0.25000000  0.76591729
   0.65462744  0.75000000  0.26591729
   0.15462744  0.75000000  0.23408271
Al4C3 Pnma-VII - r2SCAN H(P) scan @ 100 
           1
     8.617073    0.000000    0.000000
     0.000000    2.960713    0.000000
     0.000000    0.000000    9.083977
   Al   C 
    16    12
Direct configuration=     6
   0.27024555  0.25000000  0.26620782
   0.77024555  0.25000000  0.23379218
   0.72975445  0.75000000  0.73379218
   0.22975445  0.75000000  0.76620782
   0.46335719  0.25000000  0.89196971
   0.96335719  0.25000000  0.60803029
   0.53664281  0.75000000  0.10803029
   0.03664281  0.75000000  0.39196971
   0.50500941  0.25000000  0.60566175
   0.00500941  0.25000000  0.89433825
   0.49499059  0.75000000  0.39433825
   0.99499059  0.75000000  0.10566175
   0.23433775  0.25000000  0.55715443
   0.73433775  0.25000000  0.94284557
   0.76566225  0.75000000  0.44284557
   0.26566225  0.75000000  0.05715443
   0.38460506  0.25000000  0.42631419
   0.88460506  0.25000000  0.07368581
   0.61539494  0.75000000  0.57368581
   0.11539494  0.75000000  0.92631419
   0.39688681  0.25000000  0.08992637
   0.89688681  0.25000000  0.41007363
   0.60311319  0.75000000  0.91007363
   0.10311319  0.75000000  0.58992637
   0.34539540  0.25000000  0.73409799
   0.84539540  0.25000000  0.76590201
   0.65460460  0.75000000  0.26590201
   0.15460460  0.75000000  0.23409799
Al4C3 Pnma-VII - r2SCAN H(P) scan @ 100 
           1
     8.617516    0.000000    0.000000
     0.000000    2.960865    0.000000
     0.000000    0.000000    9.084445
   Al   C 
    16    12
Direct configuration=     7
   0.27008718  0.25000000  0.26620038
   0.77008718  0.25000000  0.23379962
   0.72991282  0.75000000  0.73379962
   0.22991282  0.75000000  0.76620038
   0.46370441  0.25000000  0.89194299
   0.96370441  0.25000000  0.60805701
   0.53629559  0.75000000  0.10805701
   0.03629559  0.75000000  0.39194299
   0.50512664  0.25000000  0.60570932
   0.00512664  0.25000000  0.89429068
   0.49487336  0.75000000  0.39429068
   0.99487336  0.75000000  0.10570932
   0.23451345  0.25000000  0.55709833
   0.73451345  0.25000000  0.94290167
   0.76548655  0.75000000  0.44290167
   0.26548655  0.75000000  0.05709833
   0.38468313  0.25000000  0.42630067
   0.88468313  0.25000000  0.07369933
   0.61531687  0.75000000  0.57369933
   0.11531687  0.75000000  0.92630067
   0.39657823  0.25000000  0.08978557
   0.89657823  0.25000000  0.41021443
   0.60342177  0.75000000  0.91021443
   0.10342177  0.75000000  0.58978557
   0.34561712  0.25000000  0.73414641
   0.84561712  0.25000000  0.76585359
   0.65438288  0.75000000  0.26585359
   0.15438288  0.75000000  0.23414641
Al4C3 Pnma-VII - r2SCAN H(P) scan @ 100 
           1
     8.617940    0.000000    0.000000
     0.000000    2.961011    0.000000
     0.000000    0.000000    9.084892
   Al   C 
    16    12
Direct configuration=     8
   0.26993564  0.25000000  0.26619327
   0.76993564  0.25000000  0.23380673
   0.73006436  0.75000000  0.73380673
   0.23006436  0.75000000  0.76619327
   0.46403663  0.25000000  0.89191743
   0.96403663  0.25000000  0.60808257
   0.53596337  0.75000000  0.10808257
   0.03596337  0.75000000  0.39191743
   0.50523881  0.25000000  0.60575483
   0.00523881  0.25000000  0.89424517
   0.49476119  0.75000000  0.39424517
   0.99476119  0.75000000  0.10575483
   0.23468158  0.25000000  0.55704465
   0.73468158  0.25000000  0.94295535
   0.76531842  0.75000000  0.44295535
   0.26531842  0.75000000  0.05704465
   0.38475783  0.25000000  0.42628773
   0.88475783  0.25000000  0.07371227
   0.61524217  0.75000000  0.57371227
   0.11524217  0.75000000  0.92628773
   0.39628297  0.25000000  0.08965084
   0.89628297  0.25000000  0.41034916
   0.60371703  0.75000000  0.91034916
   0.10371703  0.75000000  0.58965084
   0.34582927  0.25000000  0.73419275
   0.84582927  0.25000000  0.76580725
   0.65417073  0.75000000  0.26580725
   0.15417073  0.75000000  0.23419275
Al4C3 Pnma-VII - r2SCAN H(P) scan @ 100 
           1
     8.616326    0.000000    0.000000
     0.000000    2.960457    0.000000
     0.000000    0.000000    9.083190
   Al   C 
    16    12
Direct configuration=     9
   0.26975686  0.25000000  0.26635114
   0.76975686  0.25000000  0.23364886
   0.73024314  0.75000000  0.73364886
   0.23024314  0.75000000  0.76635114
   0.46426193  0.25000000  0.89188963
   0.96426193  0.25000000  0.60811037
   0.53573807  0.75000000  0.10811037
   0.03573807  0.75000000  0.39188963
   0.50539644  0.25000000  0.60578332
   0.00539644  0.25000000  0.89421668
   0.49460356  0.75000000  0.39421668
   0.99460356  0.75000000  0.10578332
   0.23495660  0.25000000  0.55695135
   0.73495660  0.25000000  0.94304865
   0.76504340  0.75000000  0.44304865
   0.26504340  0.75000000  0.05695135
   0.38473446  0.25000000  0.42605242
   0.88473446  0.25000000  0.07394758
   0.61526554  0.75000000  0.57394758
   0.11526554  0.75000000  0.92605242
   0.39613583  0.25000000  0.08948648
   0.89613583  0.25000000  0.41051352
   0.60386417  0.75000000  0.91051352
   0.10386417  0.75000000  0.58948648
   0.34588025  0.25000000  0.73426503
   0.84588025  0.25000000  0.76573497
   0.65411975  0.75000000  0.26573497
   0.15411975  0.75000000  0.23426503
Al4C3 Pnma-VII - r2SCAN H(P) scan @ 100 
           1
     8.616911    0.000000    0.000000
     0.000000    2.960657    0.000000
     0.000000    0.000000    9.083807
   Al   C 
    16    12
Direct configuration=    10
   0.26982165  0.25000000  0.26629393
   0.76982165  0.25000000  0.23370607
   0.73017835  0.75000000  0.73370607
   0.23017835  0.75000000  0.76629393
   0.46418029  0.25000000  0.89189970
   0.96418029  0.25000000  0.60810030
   0.53581971  0.75000000  0.10810030
   0.03581971  0.75000000  0.39189970
   0.50533932  0.25000000  0.60577299
   0.00533932  0.25000000  0.89422701
   0.49466068  0.75000000  0.39422701
   0.99466068  0.75000000  0.10577299
   0.23485694  0.25000000  0.55698516
   0.73485694  0.25000000  0.94301484
   0.76514306  0.75000000  0.44301484
   0.26514306  0.75000000  0.05698516
   0.38474293  0.25000000  0.42613769
   0.88474293  0.25000000  0.07386231
   0.61525707  0.75000000  0.57386231
   0.11525707  0.75000000  0.92613769
   0.39618915  0.25000000  0.08954604
   0.89618915  0.25000000  0.41045396
   0.60381085  0.75000000  0.91045396
   0.10381085  0.75000000  0.58954604
   0.34586178  0.25000000  0.73423884
   0.84586178  0.25000000  0.76576116
   0.65413822  0.75000000  0.26576116
   0.15413822  0.75000000  0.23423884
Al4C3 Pnma-VII - r2SCAN H(P) scan @ 100 
           1
     8.616964    0.000000    0.000000
     0.000000    2.960676    0.000000
     0.000000    0.000000    9.083862
   Al   C 
    16    12
Direct configuration=    11
   0.26982750  0.25000000  0.26628877
   0.76982750  0.25000000  0.23371123
   0.73017250  0.75000000  0.73371123
   0.23017250  0.75000000  0.76628877
   0.46417291  0.25000000  0.89190061
   0.96417291  0.25000000  0.60809939
   0.53582709  0.75000000  0.10809939
   0.03582709  0.75000000  0.39190061
   0.50533416  0.25000000  0.60577206
   0.00533416  0.25000000  0.89422794
   0.49466584  0.75000000  0.39422794
   0.99466584  0.75000000  0.10577206
   0.23484794  0.25000000  0.55698821
   0.73484794  0.25000000  0.94301179
   0.76515206  0.75000000  0.44301179
   0.26515206  0.75000000  0.05698821
   0.38474369  0.25000000  0.42614539
   0.88474369  0.25000000  0.07385461
   0.61525631  0.75000000  0.57385461
   0.11525631  0.75000000  0.92614539
   0.39619397  0.25000000  0.08955142
   0.89619397  0.25000000  0.41044858
   0.60380603  0.75000000  0.91044858
   0.10380603  0.75000000  0.58955142
   0.34586011  0.25000000  0.73423647
   0.84586011  0.25000000  0.76576353
   0.65413989  0.75000000  0.26576353
   0.15413989  0.75000000  0.23423647
Al4C3 Pnma-VII - r2SCAN H(P) scan @ 100 
           1
     8.617571    0.000000    0.000000
     0.000000    2.960884    0.000000
     0.000000    0.000000    9.084502
   Al   C 
    16    12
Direct configuration=    12
   0.26973194  0.25000000  0.26626311
   0.76973194  0.25000000  0.23373689
   0.73026806  0.75000000  0.73373689
   0.23026806  0.75000000  0.76626311
   0.46419793  0.25000000  0.89190706
   0.96419793  0.25000000  0.60809294
   0.53580207  0.75000000  0.10809294
   0.03580207  0.75000000  0.39190706
   0.50533267  0.25000000  0.60578746
   0.00533267  0.25000000  0.89421254
   0.49466733  0.75000000  0.39421254
   0.99466733  0.75000000  0.10578746
   0.23489979  0.25000000  0.55701232
   0.73489979  0.25000000  0.94298768
   0.76510021  0.75000000  0.44298768
   0.26510021  0.75000000  0.05701232
   0.38479860  0.25000000  0.42605938
   0.88479860  0.25000000  0.07394062
   0.61520140  0.75000000  0.57394062
   0.11520140  0.75000000  0.92605938
   0.39617425  0.25000000  0.08952460
   0.89617425  0.25000000  0.41047540
   0.60382575  0.75000000  0.91047540
   0.10382575  0.75000000  0.58952460
   0.34583899  0.25000000  0.73422565
   0.84583899  0.25000000  0.76577435
   0.65416101  0.75000000  0.26577435
   0.15416101  0.75000000  0.23422565
Al4C3 Pnma-VII - r2SCAN H(P) scan @ 100 
           1
     8.617389    0.000000    0.000000
     0.000000    2.960822    0.000000
     0.000000    0.000000    9.084310
   Al   C 
    16    12
Direct configuration=    13
   0.26976060  0.25000000  0.26627081
   0.76976060  0.25000000  0.23372919
   0.73023940  0.75000000  0.73372919
   0.23023940  0.75000000  0.76627081
   0.46419043  0.25000000  0.89190513
   0.96419043  0.25000000  0.60809487
   0.53580957  0.75000000  0.10809487
   0.03580957  0.75000000  0.39190513
   0.50533312  0.25000000  0.60578284
   0.00533312  0.25000000  0.89421716
   0.49466688  0.75000000  0.39421716
   0.99466688  0.75000000  0.10578284
   0.23488424  0.25000000  0.55700509
   0.73488424  0.25000000  0.94299491
   0.76511576  0.75000000  0.44299491
   0.26511576  0.75000000  0.05700509
   0.38478213  0.25000000  0.42608518
   0.88478213  0.25000000  0.07391482
   0.61521787  0.75000000  0.57391482
   0.11521787  0.75000000  0.92608518
   0.39618016  0.25000000  0.08953264
   0.89618016  0.25000000  0.41046736
   0.60381984  0.75000000  0.91046736
   0.10381984  0.75000000  0.58953264
   0.34584532  0.25000000  0.73422890
   0.84584532  0.25000000  0.76577110
   0.65415468  0.75000000  0.26577110
   0.15415468  0.75000000  0.23422890
