  28  28   0   0
  0.7572834E+01  0.8026270E-09  0.2768917E-09  0.9540975E-09  0.5000000E-15
  1.000000000000000E-004
  CAR 
 Al4C3 Pnma - r2SCAN H(P) scan @ 90 GPa (
     23.40252139     -6.37847437  301     13.58099716      1.00000000
     -6.378  0.0000E+00  0.0000E+00
     -6.279  0.0000E+00  0.0000E+00
     -6.180  0.0000E+00  0.0000E+00
     -6.081  0.0000E+00  0.0000E+00
     -5.981  0.0000E+00  0.0000E+00
     -5.882  0.0000E+00  0.0000E+00
     -5.783  0.0000E+00  0.0000E+00
     -5.684  0.0000E+00  0.0000E+00
     -5.584  0.0000E+00  0.0000E+00
     -5.485  0.0000E+00  0.0000E+00
     -5.386  0.0000E+00  0.0000E+00
     -5.287  0.3510E-16  0.3484E-17
     -5.187  0.1138E-08  0.1129E-09
     -5.088  0.1941E-04  0.1927E-05
     -4.989  0.4950E-03  0.5107E-04
     -4.889  0.2236E-02  0.2730E-03
     -4.790  0.4393E-02  0.7091E-03
     -4.691  0.4597E-02  0.1165E-02
     -4.592  0.3694E-02  0.1532E-02
     -4.492  0.5368E-02  0.2065E-02
     -4.393  0.9430E-02  0.3001E-02
     -4.294  0.9281E-02  0.3922E-02
     -4.195  0.5017E-02  0.4421E-02
     -4.095  0.5736E-02  0.4990E-02
     -3.996  0.1078E-01  0.6060E-02
     -3.897  0.1048E-01  0.7101E-02
     -3.797  0.5577E-02  0.7655E-02
     -3.698  0.1198E-01  0.8843E-02
     -3.599  0.1254E-01  0.1009E-01
     -3.500  0.1162E-01  0.1124E-01
     -3.400  0.1199E-01  0.1243E-01
     -3.301  0.1038E-01  0.1346E-01
     -3.202  0.8225E-02  0.1428E-01
     -3.103  0.1074E-01  0.1535E-01
     -3.003  0.1833E-01  0.1717E-01
     -2.904  0.1350E-01  0.1851E-01
     -2.805  0.9210E-02  0.1942E-01
     -2.705  0.1168E-01  0.2058E-01
     -2.606  0.2362E-01  0.2293E-01
     -2.507  0.1615E-01  0.2453E-01
     -2.408  0.1197E-01  0.2572E-01
     -2.308  0.1308E-01  0.2702E-01
     -2.209  0.1739E-01  0.2874E-01
     -2.110  0.1225E-01  0.2996E-01
     -2.011  0.1358E-01  0.3131E-01
     -1.911  0.1700E-01  0.3299E-01
     -1.812  0.2168E-01  0.3514E-01
     -1.713  0.2484E-01  0.3761E-01
     -1.614  0.2209E-01  0.3980E-01
     -1.514  0.1378E-01  0.4117E-01
     -1.415  0.2216E-01  0.4337E-01
     -1.316  0.2577E-01  0.4593E-01
     -1.216  0.1379E-01  0.4730E-01
     -1.117  0.1096E-01  0.4839E-01
     -1.018  0.2101E-01  0.5047E-01
     -0.919  0.2550E-01  0.5300E-01
     -0.819  0.3110E-01  0.5609E-01
     -0.720  0.3513E-01  0.5958E-01
     -0.621  0.1795E-01  0.6136E-01
     -0.522  0.2330E-01  0.6367E-01
     -0.422  0.2822E-01  0.6648E-01
     -0.323  0.2609E-01  0.6907E-01
     -0.224  0.3805E-01  0.7284E-01
     -0.124  0.3519E-01  0.7634E-01
     -0.025  0.4055E-01  0.8036E-01
      0.074  0.3369E-01  0.8371E-01
      0.173  0.4225E-01  0.8790E-01
      0.273  0.3221E-01  0.9110E-01
      0.372  0.3769E-01  0.9484E-01
      0.471  0.3416E-01  0.9823E-01
      0.570  0.2285E-01  0.1005E+00
      0.670  0.1797E-01  0.1023E+00
      0.769  0.1607E-01  0.1039E+00
      0.868  0.1805E-01  0.1057E+00
      0.968  0.2249E-01  0.1079E+00
      1.067  0.1009E-01  0.1089E+00
      1.166  0.1342E-01  0.1102E+00
      1.265  0.1354E-01  0.1116E+00
      1.365  0.1683E-01  0.1133E+00
      1.464  0.6811E-02  0.1139E+00
      1.563  0.8805E-02  0.1148E+00
      1.662  0.1340E-01  0.1161E+00
      1.762  0.7372E-02  0.1169E+00
      1.861  0.8487E-02  0.1177E+00
      1.960  0.6412E-02  0.1183E+00
      2.059  0.9893E-02  0.1193E+00
      2.159  0.4140E-02  0.1197E+00
      2.258  0.2476E-02  0.1200E+00
      2.357  0.1723E-03  0.1200E+00
      2.457  0.4647E-07  0.1200E+00
      2.556  0.8803E-14  0.1200E+00
      2.655  0.3684E-12  0.1200E+00
      2.754  0.3113E-06  0.1200E+00
      2.854  0.2407E-03  0.1200E+00
      2.953  0.2115E-02  0.1202E+00
      3.052  0.3805E-02  0.1206E+00
      3.151  0.3212E-02  0.1209E+00
      3.251  0.3886E-02  0.1213E+00
      3.350  0.6545E-02  0.1220E+00
      3.449  0.1410E-01  0.1234E+00
      3.549  0.1471E-01  0.1248E+00
      3.648  0.1919E-01  0.1267E+00
      3.747  0.3357E-01  0.1301E+00
      3.846  0.2576E-01  0.1326E+00
      3.946  0.2949E-01  0.1355E+00
      4.045  0.2744E-01  0.1383E+00
      4.144  0.2263E-01  0.1405E+00
      4.243  0.2702E-01  0.1432E+00
      4.343  0.3616E-01  0.1468E+00
      4.442  0.4389E-01  0.1511E+00
      4.541  0.2689E-01  0.1538E+00
      4.640  0.3220E-01  0.1570E+00
      4.740  0.4388E-01  0.1614E+00
      4.839  0.3842E-01  0.1652E+00
      4.938  0.3446E-01  0.1686E+00
      5.038  0.2980E-01  0.1716E+00
      5.137  0.3140E-01  0.1747E+00
      5.236  0.3151E-01  0.1778E+00
      5.335  0.2873E-01  0.1807E+00
      5.435  0.3612E-01  0.1842E+00
      5.534  0.3019E-01  0.1872E+00
      5.633  0.2690E-01  0.1899E+00
      5.732  0.2258E-01  0.1922E+00
      5.832  0.3214E-01  0.1953E+00
      5.931  0.3275E-01  0.1986E+00
      6.030  0.3755E-01  0.2023E+00
      6.130  0.2976E-01  0.2053E+00
      6.229  0.2886E-01  0.2081E+00
      6.328  0.3209E-01  0.2113E+00
      6.427  0.3313E-01  0.2146E+00
      6.527  0.4338E-01  0.2189E+00
      6.626  0.3726E-01  0.2226E+00
      6.725  0.3351E-01  0.2259E+00
      6.824  0.3030E-01  0.2290E+00
      6.924  0.3600E-01  0.2325E+00
      7.023  0.2464E-01  0.2350E+00
      7.122  0.2655E-01  0.2376E+00
      7.222  0.3124E-01  0.2407E+00
      7.321  0.3240E-01  0.2439E+00
      7.420  0.5026E-01  0.2489E+00
      7.519  0.4221E-01  0.2531E+00
      7.619  0.3410E-01  0.2565E+00
      7.718  0.4592E-01  0.2611E+00
      7.817  0.4137E-01  0.2652E+00
      7.916  0.3062E-01  0.2682E+00
      8.016  0.4334E-01  0.2725E+00
      8.115  0.4223E-01  0.2767E+00
      8.214  0.3482E-01  0.2801E+00
      8.313  0.4421E-01  0.2845E+00
      8.413  0.4451E-01  0.2890E+00
      8.512  0.2586E-01  0.2915E+00
      8.611  0.3577E-01  0.2951E+00
      8.711  0.2830E-01  0.2979E+00
      8.810  0.3368E-01  0.3012E+00
      8.909  0.3615E-01  0.3048E+00
      9.008  0.4239E-01  0.3090E+00
      9.108  0.2494E-01  0.3115E+00
      9.207  0.4691E-01  0.3162E+00
      9.306  0.4550E-01  0.3207E+00
      9.405  0.3685E-01  0.3243E+00
      9.505  0.5128E-01  0.3294E+00
      9.604  0.3302E-01  0.3327E+00
      9.703  0.4291E-01  0.3370E+00
      9.803  0.4130E-01  0.3411E+00
      9.902  0.3849E-01  0.3449E+00
     10.001  0.4832E-01  0.3497E+00
     10.100  0.4494E-01  0.3541E+00
     10.200  0.4302E-01  0.3584E+00
     10.299  0.3383E-01  0.3618E+00
     10.398  0.2664E-01  0.3644E+00
     10.497  0.3768E-01  0.3682E+00
     10.597  0.3846E-01  0.3720E+00
     10.696  0.5271E-01  0.3772E+00
     10.795  0.5899E-01  0.3831E+00
     10.895  0.5444E-01  0.3885E+00
     10.994  0.6003E-01  0.3944E+00
     11.093  0.6063E-01  0.4004E+00
     11.192  0.5760E-01  0.4062E+00
     11.292  0.4200E-01  0.4103E+00
     11.391  0.4940E-01  0.4152E+00
     11.490  0.5955E-01  0.4211E+00
     11.589  0.6419E-01  0.4275E+00
     11.689  0.6559E-01  0.4340E+00
     11.788  0.6966E-01  0.4409E+00
     11.887  0.4487E-01  0.4454E+00
     11.986  0.4894E-01  0.4503E+00
     12.086  0.4156E-01  0.4544E+00
     12.185  0.3921E-01  0.4583E+00
     12.284  0.2784E-01  0.4610E+00
     12.384  0.4214E-01  0.4652E+00
     12.483  0.3069E-01  0.4683E+00
     12.582  0.2389E-01  0.4706E+00
     12.681  0.2526E-01  0.4731E+00
     12.781  0.1730E-01  0.4749E+00
     12.880  0.1199E-01  0.4761E+00
     12.979  0.1339E-01  0.4774E+00
     13.078  0.9783E-02  0.4784E+00
     13.178  0.9135E-02  0.4793E+00
     13.277  0.4911E-02  0.4797E+00
     13.376  0.2467E-02  0.4800E+00
     13.476  0.6497E-04  0.4800E+00
     13.575  0.9021E-08  0.4800E+00
     13.674  0.9212E-15  0.4800E+00
     13.773  0.0000E+00  0.4800E+00
     13.873  0.0000E+00  0.4800E+00
     13.972  0.0000E+00  0.4800E+00
     14.071  0.0000E+00  0.4800E+00
     14.170  0.0000E+00  0.4800E+00
     14.270  0.0000E+00  0.4800E+00
     14.369  0.0000E+00  0.4800E+00
     14.468  0.4543E-17  0.4800E+00
     14.567  0.5556E-09  0.4800E+00
     14.667  0.3871E-04  0.4800E+00
     14.766  0.3304E-02  0.4803E+00
     14.865  0.8459E-02  0.4812E+00
     14.965  0.1458E-01  0.4826E+00
     15.064  0.6358E-02  0.4832E+00
     15.163  0.1684E-01  0.4849E+00
     15.262  0.1732E-01  0.4866E+00
     15.362  0.1844E-01  0.4885E+00
     15.461  0.1861E-01  0.4903E+00
     15.560  0.2022E-01  0.4923E+00
     15.659  0.1352E-01  0.4937E+00
     15.759  0.8247E-02  0.4945E+00
     15.858  0.1521E-01  0.4960E+00
     15.957  0.2187E-01  0.4982E+00
     16.057  0.2670E-01  0.5008E+00
     16.156  0.2505E-01  0.5033E+00
     16.255  0.3431E-01  0.5067E+00
     16.354  0.2703E-01  0.5094E+00
     16.454  0.2271E-01  0.5116E+00
     16.553  0.2704E-01  0.5143E+00
     16.652  0.1955E-01  0.5163E+00
     16.751  0.2053E-01  0.5183E+00
     16.851  0.2604E-01  0.5209E+00
     16.950  0.1840E-01  0.5227E+00
     17.049  0.1320E-01  0.5240E+00
     17.149  0.1540E-01  0.5256E+00
     17.248  0.1215E-01  0.5268E+00
     17.347  0.1914E-01  0.5287E+00
     17.446  0.1996E-01  0.5307E+00
     17.546  0.2831E-01  0.5335E+00
     17.645  0.2488E-01  0.5359E+00
     17.744  0.2102E-01  0.5380E+00
     17.843  0.2260E-01  0.5403E+00
     17.943  0.1271E-01  0.5415E+00
     18.042  0.1817E-01  0.5433E+00
     18.141  0.2779E-01  0.5461E+00
     18.240  0.3595E-01  0.5497E+00
     18.340  0.5507E-01  0.5551E+00
     18.439  0.4286E-01  0.5594E+00
     18.538  0.3384E-01  0.5627E+00
     18.638  0.2109E-01  0.5648E+00
     18.737  0.3546E-01  0.5683E+00
     18.836  0.4237E-01  0.5726E+00
     18.935  0.3809E-01  0.5763E+00
     19.035  0.3583E-01  0.5799E+00
     19.134  0.3810E-01  0.5837E+00
     19.233  0.2651E-01  0.5863E+00
     19.332  0.2873E-01  0.5892E+00
     19.432  0.3548E-01  0.5927E+00
     19.531  0.3916E-01  0.5966E+00
     19.630  0.2585E-01  0.5991E+00
     19.730  0.2246E-01  0.6014E+00
     19.829  0.3935E-01  0.6053E+00
     19.928  0.3029E-01  0.6083E+00
     20.027  0.3285E-01  0.6115E+00
     20.127  0.2980E-01  0.6145E+00
     20.226  0.2173E-01  0.6167E+00
     20.325  0.2792E-01  0.6194E+00
     20.424  0.2439E-01  0.6218E+00
     20.524  0.2718E-01  0.6245E+00
     20.623  0.2819E-01  0.6273E+00
     20.722  0.3206E-01  0.6305E+00
     20.822  0.3615E-01  0.6341E+00
     20.921  0.4027E-01  0.6381E+00
     21.020  0.2965E-01  0.6411E+00
     21.119  0.3072E-01  0.6441E+00
     21.219  0.2000E-01  0.6461E+00
     21.318  0.2398E-01  0.6485E+00
     21.417  0.1860E-01  0.6503E+00
     21.516  0.1912E-01  0.6522E+00
     21.616  0.2864E-01  0.6551E+00
     21.715  0.2276E-01  0.6573E+00
     21.814  0.1599E-01  0.6589E+00
     21.913  0.7837E-02  0.6597E+00
     22.013  0.2179E-02  0.6599E+00
     22.112  0.9804E-03  0.6600E+00
     22.211  0.3885E-04  0.6600E+00
     22.311  0.2275E-08  0.6600E+00
     22.410  0.7013E-16  0.6600E+00
     22.509  0.0000E+00  0.6600E+00
     22.608  0.0000E+00  0.6600E+00
     22.708  0.0000E+00  0.6600E+00
     22.807  0.0000E+00  0.6600E+00
     22.906  0.0000E+00  0.6600E+00
     23.005  0.0000E+00  0.6600E+00
     23.105  0.0000E+00  0.6600E+00
     23.204  0.0000E+00  0.6600E+00
     23.303  0.0000E+00  0.6600E+00
     23.403  0.0000E+00  0.6600E+00
