       N       E                     dE             d eps       ncg     rms          rms(c)
DAV:   1    -0.247179989470E+03   -0.24718E+03   -0.98861E+01  9486   0.290E+01    0.324E+01
DAV:   2    -0.211176246937E+03    0.36004E+02   -0.54217E+01  9216   0.227E+01    0.141E+01
DAV:   3    -0.211220587749E+03   -0.44341E-01   -0.57492E+00  9234   0.837E+00    0.104E+01
DAV:   4    -0.211348877439E+03   -0.12829E+00   -0.93107E-01  9924   0.335E+00    0.586E+00
DAV:   5    -0.211433819065E+03   -0.84942E-01   -0.20887E-01  9228   0.214E+00    0.907E-01
DAV:   6    -0.211431421095E+03    0.23980E-02   -0.31964E-02  9600   0.644E-01    0.604E-01
DAV:   7    -0.211431534188E+03   -0.11309E-03   -0.20333E-03 10098   0.181E-01    0.494E-01
DAV:   8    -0.211432528979E+03   -0.99479E-03   -0.18037E-03  9450   0.184E-01    0.191E-01
DAV:   9    -0.211432677766E+03   -0.14879E-03   -0.60565E-04  9402   0.990E-02    0.545E-02
DAV:  10    -0.211432703075E+03   -0.25309E-04   -0.44234E-05  8274   0.263E-02    0.327E-02
DAV:  11    -0.211432725226E+03   -0.22151E-04   -0.10643E-05  5346   0.143E-02    0.891E-03
DAV:  12    -0.211432737161E+03   -0.11935E-04   -0.71938E-06  4968   0.132E-02    0.814E-03
DAV:  13    -0.211432733997E+03    0.31638E-05   -0.92564E-07  4824   0.435E-03
   1 F= -.92322693E+02 E0= -.92322693E+02  d E =-.923227E+02
       N       E                     dE             d eps       ncg     rms          rms(c)
DAV:   1    -0.208072222959E+03    0.33605E+01   -0.29025E+00  8706   0.735E+00    0.148E+00
DAV:   2    -0.208055587380E+03    0.16636E-01   -0.11249E-01 10062   0.124E+00    0.851E-01
DAV:   3    -0.208055209473E+03    0.37791E-03   -0.17725E-02  9558   0.424E-01    0.335E-01
DAV:   4    -0.208055699148E+03   -0.48968E-03   -0.69289E-04 10134   0.106E-01    0.184E-01
DAV:   5    -0.208055763791E+03   -0.64643E-04   -0.18615E-04  9654   0.504E-02    0.131E-01
DAV:   6    -0.208055887693E+03   -0.12390E-03   -0.71208E-05  9222   0.460E-02    0.199E-02
DAV:   7    -0.208055886231E+03    0.14622E-05   -0.56504E-06  5094   0.961E-03
   2 F= -.92209875E+02 E0= -.92209875E+02  d E =0.112818E+00
       N       E                     dE             d eps       ncg     rms          rms(c)
DAV:   1    -0.210492457216E+03   -0.24366E+01   -0.14178E+00  8682   0.507E+00    0.104E+00
DAV:   2    -0.210485250404E+03    0.72068E-02   -0.56463E-02 10116   0.879E-01    0.602E-01
DAV:   3    -0.210484728145E+03    0.52226E-03   -0.88380E-03  9432   0.298E-01    0.243E-01
DAV:   4    -0.210484775109E+03   -0.46964E-04   -0.34327E-04 10164   0.746E-02    0.130E-01
DAV:   5    -0.210484739805E+03    0.35304E-04   -0.96647E-05  9300   0.363E-02    0.914E-02
DAV:   6    -0.210484679091E+03    0.60714E-04   -0.32962E-05  7488   0.316E-02    0.113E-02
DAV:   7    -0.210484678178E+03    0.91314E-06   -0.40705E-06  4980   0.823E-03
   3 F= -.92346540E+02 E0= -.92346540E+02  d E =-.238468E-01
       N       E                     dE             d eps       ncg     rms          rms(c)
DAV:   1    -0.210517153844E+03   -0.32475E-01   -0.19253E-01  8328   0.179E+00    0.960E-02
DAV:   2    -0.210517083905E+03    0.69938E-04   -0.38641E-03  9804   0.253E-01    0.648E-02
DAV:   3    -0.210517036050E+03    0.47855E-04   -0.22989E-04  9978   0.641E-02    0.407E-02
DAV:   4    -0.210517018372E+03    0.17678E-04   -0.88902E-05  9462   0.377E-02    0.157E-02
DAV:   5    -0.210517017010E+03    0.13626E-05   -0.16687E-05  5832   0.157E-02
   4 F= -.92348213E+02 E0= -.92348213E+02  d E =-.167345E-02
       N       E                     dE             d eps       ncg     rms          rms(c)
DAV:   1    -0.210519610018E+03   -0.25916E-02   -0.13339E-03  8616   0.149E-01    0.874E-03
DAV:   2    -0.210519613356E+03   -0.33382E-05   -0.24935E-05  7590   0.208E-02
   5 F= -.92348231E+02 E0= -.92348231E+02  d E =-.169094E-02
       N       E                     dE             d eps       ncg     rms          rms(c)
DAV:   1    -0.210555416469E+03   -0.35806E-01   -0.14054E-01  8322   0.155E+00    0.727E-02
DAV:   2    -0.210555445562E+03   -0.29093E-04   -0.19927E-03 10224   0.182E-01    0.473E-02
DAV:   3    -0.210555404049E+03    0.41513E-04   -0.96343E-05  9858   0.408E-02    0.309E-02
DAV:   4    -0.210555386143E+03    0.17906E-04   -0.10802E-04  9714   0.413E-02    0.822E-03
DAV:   5    -0.210555388620E+03   -0.24766E-05   -0.21457E-05  5844   0.162E-02
   6 F= -.92348898E+02 E0= -.92348898E+02  d E =-.667712E-03
       N       E                     dE             d eps       ncg     rms          rms(c)
DAV:   1    -0.210550555768E+03    0.48304E-02   -0.26676E-03  8346   0.214E-01    0.100E-02
DAV:   2    -0.210550553253E+03    0.25143E-05   -0.34490E-05  8598   0.244E-02
   7 F= -.92348916E+02 E0= -.92348916E+02  d E =-.685925E-03
       N       E                     dE             d eps       ncg     rms          rms(c)
DAV:   1    -0.210536079711E+03    0.14476E-01   -0.78488E-02  8316   0.114E+00    0.549E-02
DAV:   2    -0.210536058338E+03    0.21373E-04   -0.12955E-03  9738   0.145E-01    0.372E-02
DAV:   3    -0.210536039289E+03    0.19049E-04   -0.59203E-05  9960   0.321E-02    0.234E-02
DAV:   4    -0.210536029281E+03    0.10008E-04   -0.32192E-05  7716   0.235E-02    0.747E-03
DAV:   5    -0.210536031078E+03   -0.17972E-05   -0.92812E-06  4950   0.110E-02
   8 F= -.92349264E+02 E0= -.92349264E+02  d E =-.347074E-03
       N       E                     dE             d eps       ncg     rms          rms(c)
DAV:   1    -0.210538292614E+03   -0.22633E-02   -0.17977E-03  8328   0.173E-01    0.835E-03
DAV:   2    -0.210538293747E+03   -0.11337E-05   -0.28797E-05  7470   0.220E-02
   9 F= -.92349278E+02 E0= -.92349278E+02  d E =-.361448E-03
       N       E                     dE             d eps       ncg     rms          rms(c)
DAV:   1    -0.210547814111E+03   -0.95215E-02   -0.13655E-02  8328   0.484E-01    0.227E-02
DAV:   2    -0.210547820839E+03   -0.67288E-05   -0.21095E-04 10134   0.569E-02    0.144E-02
DAV:   3    -0.210547818106E+03    0.27337E-05   -0.72073E-06  5640   0.123E-02
  10 F= -.92349474E+02 E0= -.92349474E+02  d E =-.196187E-03
       N       E                     dE             d eps       ncg     rms          rms(c)
DAV:   1    -0.210553010777E+03   -0.51899E-02   -0.40845E-03  8382   0.265E-01    0.145E-02
DAV:   2    -0.210553010667E+03    0.11038E-06   -0.55094E-05 10248   0.296E-02
  11 F= -.92349500E+02 E0= -.92349500E+02  d E =-.221893E-03
       N       E                     dE             d eps       ncg     rms          rms(c)
DAV:   1    -0.210549980749E+03    0.30300E-02   -0.20677E-02  8328   0.589E-01    0.325E-02
DAV:   2    -0.210549976807E+03    0.39424E-05   -0.33040E-04 10008   0.751E-02    0.208E-02
DAV:   3    -0.210549969280E+03    0.75271E-05   -0.19017E-05  6744   0.192E-02
  12 F= -.92349636E+02 E0= -.92349636E+02  d E =-.136117E-03
       N       E                     dE             d eps       ncg     rms          rms(c)
DAV:   1    -0.210548939141E+03    0.10377E-02   -0.20238E-03  8514   0.184E-01    0.117E-02
DAV:   2    -0.210548939104E+03    0.37133E-07   -0.22211E-05  8142   0.204E-02
  13 F= -.92349637E+02 E0= -.92349637E+02  d E =-.137434E-03
       N       E                     dE             d eps       ncg     rms          rms(c)
DAV:   1    -0.210562162860E+03   -0.13224E-01   -0.86278E-03  8322   0.384E-01    0.218E-02
DAV:   2    -0.210562161222E+03    0.16380E-05   -0.13862E-04 10248   0.476E-02    0.146E-02
DAV:   3    -0.210562155587E+03    0.56349E-05   -0.54773E-06  5226   0.109E-02
  14 F= -.92349660E+02 E0= -.92349660E+02  d E =-.226621E-04
       N       E                     dE             d eps       ncg     rms          rms(c)
DAV:   1    -0.210558184932E+03    0.39763E-02   -0.85374E-04  8334   0.121E-01    0.593E-03
DAV:   2    -0.210558187938E+03   -0.30067E-05   -0.19315E-05  7020   0.178E-02
  15 F= -.92349665E+02 E0= -.92349665E+02  d E =-.281272E-04
       N       E                     dE             d eps       ncg     rms          rms(c)
DAV:   1    -0.210543498349E+03    0.14687E-01   -0.45858E-03  8328   0.280E-01    0.144E-02
DAV:   2    -0.210543500975E+03   -0.26257E-05   -0.74247E-05 10092   0.341E-02
  16 F= -.92349684E+02 E0= -.92349684E+02  d E =-.182187E-04
