  28  28   0   0
  0.9710266E+01  0.9088219E-09  0.3122593E-09  0.9580652E-09  0.5000000E-15
  1.000000000000000E-004
  CAR 
 Al4C3 Pnma-VII - H(P) scan @ 30 GPa (ISI
     17.31930488     -6.88779877  301      9.01324244      1.00000000
     -6.888  0.0000E+00  0.0000E+00
     -6.807  0.0000E+00  0.0000E+00
     -6.726  0.0000E+00  0.0000E+00
     -6.646  0.0000E+00  0.0000E+00
     -6.565  0.0000E+00  0.0000E+00
     -6.484  0.0000E+00  0.0000E+00
     -6.404  0.0000E+00  0.0000E+00
     -6.323  0.0000E+00  0.0000E+00
     -6.242  0.0000E+00  0.0000E+00
     -6.162  0.0000E+00  0.0000E+00
     -6.081  0.3909E-19  0.3154E-20
     -6.000  0.6260E-12  0.5051E-13
     -5.920  0.6619E-07  0.5341E-08
     -5.839  0.5189E-04  0.4192E-05
     -5.758  0.7772E-03  0.6691E-04
     -5.677  0.3428E-02  0.3435E-03
     -5.597  0.6724E-02  0.8861E-03
     -5.516  0.6768E-02  0.1432E-02
     -5.435  0.6192E-02  0.1932E-02
     -5.355  0.1109E-01  0.2827E-02
     -5.274  0.1594E-01  0.4113E-02
     -5.193  0.1083E-01  0.4987E-02
     -5.113  0.8336E-02  0.5660E-02
     -5.032  0.1537E-01  0.6901E-02
     -4.951  0.1101E-01  0.7789E-02
     -4.871  0.6730E-02  0.8332E-02
     -4.790  0.1411E-01  0.9470E-02
     -4.709  0.1773E-01  0.1090E-01
     -4.628  0.1542E-01  0.1215E-01
     -4.548  0.1926E-01  0.1370E-01
     -4.467  0.1318E-01  0.1476E-01
     -4.386  0.1566E-01  0.1603E-01
     -4.306  0.2369E-01  0.1794E-01
     -4.225  0.2130E-01  0.1966E-01
     -4.144  0.1306E-01  0.2071E-01
     -4.064  0.1508E-01  0.2193E-01
     -3.983  0.1680E-01  0.2328E-01
     -3.902  0.2886E-01  0.2561E-01
     -3.822  0.2176E-01  0.2737E-01
     -3.741  0.1270E-01  0.2839E-01
     -3.660  0.2193E-01  0.3016E-01
     -3.579  0.2472E-01  0.3216E-01
     -3.499  0.2555E-01  0.3422E-01
     -3.418  0.2296E-01  0.3607E-01
     -3.337  0.2576E-01  0.3815E-01
     -3.257  0.2891E-01  0.4048E-01
     -3.176  0.2699E-01  0.4266E-01
     -3.095  0.2852E-01  0.4496E-01
     -3.015  0.2499E-01  0.4698E-01
     -2.934  0.3289E-01  0.4963E-01
     -2.853  0.3072E-01  0.5211E-01
     -2.773  0.3040E-01  0.5456E-01
     -2.692  0.2183E-01  0.5632E-01
     -2.611  0.3478E-01  0.5913E-01
     -2.531  0.5711E-01  0.6374E-01
     -2.450  0.4799E-01  0.6761E-01
     -2.369  0.4039E-01  0.7087E-01
     -2.288  0.4435E-01  0.7445E-01
     -2.208  0.4226E-01  0.7786E-01
     -2.127  0.5743E-01  0.8249E-01
     -2.046  0.3635E-01  0.8542E-01
     -1.966  0.3316E-01  0.8810E-01
     -1.885  0.3471E-01  0.9090E-01
     -1.804  0.3763E-01  0.9394E-01
     -1.724  0.4451E-01  0.9753E-01
     -1.643  0.5732E-01  0.1022E+00
     -1.562  0.5117E-01  0.1063E+00
     -1.482  0.5206E-01  0.1105E+00
     -1.401  0.6303E-01  0.1156E+00
     -1.320  0.4849E-01  0.1195E+00
     -1.239  0.6399E-02  0.1200E+00
     -1.159  0.2872E-04  0.1200E+00
     -1.078  0.1401E-08  0.1200E+00
     -0.997  0.4958E-15  0.1200E+00
     -0.917  0.0000E+00  0.1200E+00
     -0.836  0.0000E+00  0.1200E+00
     -0.755  0.0000E+00  0.1200E+00
     -0.675  0.0000E+00  0.1200E+00
     -0.594  0.0000E+00  0.1200E+00
     -0.513  0.0000E+00  0.1200E+00
     -0.433  0.0000E+00  0.1200E+00
     -0.352  0.0000E+00  0.1200E+00
     -0.271  0.0000E+00  0.1200E+00
     -0.191  0.0000E+00  0.1200E+00
     -0.110  0.0000E+00  0.1200E+00
     -0.029  0.0000E+00  0.1200E+00
      0.052  0.0000E+00  0.1200E+00
      0.132  0.0000E+00  0.1200E+00
      0.213  0.0000E+00  0.1200E+00
      0.294  0.0000E+00  0.1200E+00
      0.374  0.0000E+00  0.1200E+00
      0.455  0.2345E-18  0.1200E+00
      0.536  0.3092E-11  0.1200E+00
      0.616  0.2366E-06  0.1200E+00
      0.697  0.1437E-03  0.1200E+00
      0.778  0.2348E-02  0.1202E+00
      0.858  0.6929E-02  0.1208E+00
      0.939  0.9000E-02  0.1215E+00
      1.020  0.6345E-02  0.1220E+00
      1.101  0.9266E-02  0.1227E+00
      1.181  0.1931E-01  0.1243E+00
      1.262  0.1772E-01  0.1257E+00
      1.343  0.2073E-01  0.1274E+00
      1.423  0.2683E-01  0.1296E+00
      1.504  0.2847E-01  0.1319E+00
      1.585  0.3011E-01  0.1343E+00
      1.665  0.2145E-01  0.1360E+00
      1.746  0.1744E-01  0.1374E+00
      1.827  0.1548E-01  0.1387E+00
      1.907  0.2316E-01  0.1406E+00
      1.988  0.3464E-01  0.1433E+00
      2.069  0.3642E-01  0.1463E+00
      2.150  0.2831E-01  0.1486E+00
      2.230  0.2884E-01  0.1509E+00
      2.311  0.2706E-01  0.1531E+00
      2.392  0.2396E-01  0.1550E+00
      2.472  0.2687E-01  0.1572E+00
      2.553  0.4255E-01  0.1606E+00
      2.634  0.5763E-01  0.1653E+00
      2.714  0.5723E-01  0.1699E+00
      2.795  0.6075E-01  0.1748E+00
      2.876  0.5974E-01  0.1796E+00
      2.956  0.3955E-01  0.1828E+00
      3.037  0.4407E-01  0.1864E+00
      3.118  0.5441E-01  0.1907E+00
      3.198  0.5250E-01  0.1950E+00
      3.279  0.4566E-01  0.1987E+00
      3.360  0.4197E-01  0.2021E+00
      3.441  0.4120E-01  0.2054E+00
      3.521  0.3640E-01  0.2083E+00
      3.602  0.3693E-01  0.2113E+00
      3.683  0.3618E-01  0.2142E+00
      3.763  0.3816E-01  0.2173E+00
      3.844  0.4011E-01  0.2205E+00
      3.925  0.3777E-01  0.2236E+00
      4.005  0.3170E-01  0.2261E+00
      4.086  0.4657E-01  0.2299E+00
      4.167  0.4262E-01  0.2333E+00
      4.247  0.3909E-01  0.2365E+00
      4.328  0.3553E-01  0.2394E+00
      4.409  0.3766E-01  0.2424E+00
      4.490  0.3958E-01  0.2456E+00
      4.570  0.5226E-01  0.2498E+00
      4.651  0.5635E-01  0.2543E+00
      4.732  0.4750E-01  0.2582E+00
      4.812  0.3926E-01  0.2613E+00
      4.893  0.4789E-01  0.2652E+00
      4.974  0.5634E-01  0.2698E+00
      5.054  0.4888E-01  0.2737E+00
      5.135  0.4165E-01  0.2771E+00
      5.216  0.5386E-01  0.2814E+00
      5.296  0.3843E-01  0.2845E+00
      5.377  0.4941E-01  0.2885E+00
      5.458  0.4963E-01  0.2925E+00
      5.539  0.4525E-01  0.2962E+00
      5.619  0.5284E-01  0.3004E+00
      5.700  0.6394E-01  0.3056E+00
      5.781  0.6145E-01  0.3105E+00
      5.861  0.5695E-01  0.3151E+00
      5.942  0.5795E-01  0.3198E+00
      6.023  0.6458E-01  0.3250E+00
      6.103  0.5717E-01  0.3296E+00
      6.184  0.7029E-01  0.3353E+00
      6.265  0.8134E-01  0.3419E+00
      6.345  0.5999E-01  0.3467E+00
      6.426  0.5736E-01  0.3513E+00
      6.507  0.6706E-01  0.3567E+00
      6.587  0.6305E-01  0.3618E+00
      6.668  0.6214E-01  0.3668E+00
      6.749  0.9733E-01  0.3747E+00
      6.830  0.7663E-01  0.3809E+00
      6.910  0.6546E-01  0.3862E+00
      6.991  0.7379E-01  0.3921E+00
      7.072  0.8101E-01  0.3987E+00
      7.152  0.5661E-01  0.4032E+00
      7.233  0.5254E-01  0.4075E+00
      7.314  0.6485E-01  0.4127E+00
      7.394  0.7098E-01  0.4184E+00
      7.475  0.8333E-01  0.4252E+00
      7.556  0.7635E-01  0.4313E+00
      7.636  0.7594E-01  0.4374E+00
      7.717  0.5607E-01  0.4420E+00
      7.798  0.5026E-01  0.4460E+00
      7.879  0.5125E-01  0.4502E+00
      7.959  0.6851E-01  0.4557E+00
      8.040  0.6398E-01  0.4608E+00
      8.121  0.4939E-01  0.4648E+00
      8.201  0.3413E-01  0.4676E+00
      8.282  0.3478E-01  0.4704E+00
      8.363  0.3519E-01  0.4732E+00
      8.443  0.3568E-01  0.4761E+00
      8.524  0.2373E-01  0.4780E+00
      8.605  0.2170E-02  0.4782E+00
      8.685  0.7910E-02  0.4788E+00
      8.766  0.1131E-01  0.4798E+00
      8.847  0.3062E-02  0.4800E+00
      8.928  0.3575E-04  0.4800E+00
      9.008  0.6038E-08  0.4800E+00
      9.089  0.1427E-10  0.4800E+00
      9.170  0.8412E-06  0.4800E+00
      9.250  0.3889E-03  0.4800E+00
      9.331  0.2609E-02  0.4802E+00
      9.412  0.9517E-03  0.4803E+00
      9.492  0.3124E-02  0.4806E+00
      9.573  0.6709E-03  0.4806E+00
      9.654  0.9129E-03  0.4807E+00
      9.734  0.7207E-02  0.4813E+00
      9.815  0.4411E-02  0.4816E+00
      9.896  0.9415E-02  0.4824E+00
      9.976  0.9412E-02  0.4832E+00
     10.057  0.3655E-02  0.4835E+00
     10.138  0.1615E-02  0.4836E+00
     10.219  0.6291E-02  0.4841E+00
     10.299  0.1343E-01  0.4852E+00
     10.380  0.9595E-02  0.4859E+00
     10.461  0.6471E-02  0.4865E+00
     10.541  0.1247E-01  0.4875E+00
     10.622  0.1505E-01  0.4887E+00
     10.703  0.1588E-01  0.4900E+00
     10.783  0.1561E-01  0.4912E+00
     10.864  0.1195E-01  0.4922E+00
     10.945  0.7561E-02  0.4928E+00
     11.025  0.1558E-01  0.4941E+00
     11.106  0.1736E-01  0.4955E+00
     11.187  0.2081E-01  0.4971E+00
     11.268  0.1928E-01  0.4987E+00
     11.348  0.1943E-01  0.5003E+00
     11.429  0.1914E-01  0.5018E+00
     11.510  0.1607E-01  0.5031E+00
     11.590  0.1428E-01  0.5043E+00
     11.671  0.1463E-01  0.5054E+00
     11.752  0.2441E-01  0.5074E+00
     11.832  0.2215E-01  0.5092E+00
     11.913  0.2405E-01  0.5111E+00
     11.994  0.3325E-01  0.5138E+00
     12.074  0.2964E-01  0.5162E+00
     12.155  0.2844E-01  0.5185E+00
     12.236  0.2591E-01  0.5206E+00
     12.317  0.4188E-01  0.5240E+00
     12.397  0.3151E-01  0.5265E+00
     12.478  0.2685E-01  0.5287E+00
     12.559  0.3294E-01  0.5313E+00
     12.639  0.3492E-01  0.5342E+00
     12.720  0.2499E-01  0.5362E+00
     12.801  0.2701E-01  0.5384E+00
     12.881  0.3502E-01  0.5412E+00
     12.962  0.2427E-01  0.5431E+00
     13.043  0.2682E-01  0.5453E+00
     13.123  0.4454E-01  0.5489E+00
     13.204  0.4339E-01  0.5524E+00
     13.285  0.3209E-01  0.5550E+00
     13.365  0.3000E-01  0.5574E+00
     13.446  0.3284E-01  0.5601E+00
     13.527  0.3377E-01  0.5628E+00
     13.608  0.3598E-01  0.5657E+00
     13.688  0.2807E-01  0.5680E+00
     13.769  0.2041E-01  0.5696E+00
     13.850  0.2532E-01  0.5716E+00
     13.930  0.4111E-01  0.5750E+00
     14.011  0.3532E-01  0.5778E+00
     14.092  0.5124E-01  0.5819E+00
     14.172  0.5459E-01  0.5863E+00
     14.253  0.5688E-01  0.5909E+00
     14.334  0.3788E-01  0.5940E+00
     14.414  0.3540E-01  0.5968E+00
     14.495  0.3972E-01  0.6001E+00
     14.576  0.3483E-01  0.6029E+00
     14.657  0.4284E-01  0.6063E+00
     14.737  0.4010E-01  0.6096E+00
     14.818  0.4524E-01  0.6132E+00
     14.899  0.3754E-01  0.6162E+00
     14.979  0.3972E-01  0.6194E+00
     15.060  0.4607E-01  0.6232E+00
     15.141  0.5492E-01  0.6276E+00
     15.221  0.4896E-01  0.6315E+00
     15.302  0.5135E-01  0.6357E+00
     15.383  0.5335E-01  0.6400E+00
     15.463  0.3907E-01  0.6431E+00
     15.544  0.3371E-01  0.6459E+00
     15.625  0.3211E-01  0.6485E+00
     15.705  0.4078E-01  0.6517E+00
     15.786  0.3165E-01  0.6543E+00
     15.867  0.2305E-01  0.6562E+00
     15.948  0.2389E-01  0.6581E+00
     16.028  0.1484E-01  0.6593E+00
     16.109  0.3492E-02  0.6596E+00
     16.190  0.4027E-02  0.6599E+00
     16.270  0.1277E-02  0.6600E+00
     16.351  0.1032E-03  0.6600E+00
     16.432  0.1324E-06  0.6600E+00
     16.512  0.1252E-11  0.6600E+00
     16.593  0.0000E+00  0.6600E+00
     16.674  0.0000E+00  0.6600E+00
     16.754  0.0000E+00  0.6600E+00
     16.835  0.0000E+00  0.6600E+00
     16.916  0.0000E+00  0.6600E+00
     16.997  0.0000E+00  0.6600E+00
     17.077  0.0000E+00  0.6600E+00
     17.158  0.0000E+00  0.6600E+00
     17.239  0.0000E+00  0.6600E+00
     17.319  0.0000E+00  0.6600E+00
