       N       E                     dE             d eps       ncg     rms          rms(c)
DAV:   1    -0.200980989550E+03   -0.20098E+03   -0.13849E+02  8328   0.321E+01    0.304E+01
DAV:   2    -0.168616681716E+03    0.32364E+02   -0.98055E+01  8076   0.274E+01    0.966E+00
DAV:   3    -0.167790541689E+03    0.82614E+00   -0.10962E+01  8190   0.100E+01    0.558E+00
DAV:   4    -0.167692022181E+03    0.98520E-01   -0.85926E-01  8202   0.308E+00    0.175E+00
DAV:   5    -0.167658941830E+03    0.33080E-01   -0.14515E-01  8532   0.136E+00    0.491E-01
DAV:   6    -0.167657266594E+03    0.16752E-02   -0.20808E-02  8580   0.507E-01    0.237E-01
DAV:   7    -0.167657726725E+03   -0.46013E-03   -0.25440E-03  8544   0.180E-01    0.120E-01
DAV:   8    -0.167657885463E+03   -0.15874E-03   -0.11041E-03  8556   0.983E-02    0.577E-02
DAV:   9    -0.167657825795E+03    0.59668E-04   -0.31136E-04  8340   0.526E-02    0.976E-03
DAV:  10    -0.167657827079E+03   -0.12842E-05   -0.15146E-05  4620   0.166E-02
   1 F= -.11674821E+03 E0= -.11674821E+03  d E =-.116748E+03
       N       E                     dE             d eps       ncg     rms          rms(c)
DAV:   1    -0.172547911700E+03   -0.48901E+01   -0.19792E+01  7998   0.175E+01    0.476E+00
DAV:   2    -0.171966352482E+03    0.58156E+00   -0.15660E+00  8418   0.383E+00    0.196E+00
DAV:   3    -0.171928847403E+03    0.37505E-01   -0.25275E-01  8394   0.141E+00    0.628E-01
DAV:   4    -0.171921558598E+03    0.72888E-02   -0.28101E-02  8400   0.468E-01    0.252E-01
DAV:   5    -0.171919919843E+03    0.16388E-02   -0.57588E-03  8484   0.213E-01    0.129E-01
DAV:   6    -0.171919672223E+03    0.24762E-03   -0.64890E-04  8394   0.779E-02    0.291E-02
DAV:   7    -0.171919662373E+03    0.98504E-05   -0.39816E-05  8214   0.274E-02
   2 F= -.11642317E+03 E0= -.11642317E+03  d E =0.325044E+00
       N       E                     dE             d eps       ncg     rms          rms(c)
DAV:   1    -0.169993410330E+03    0.19263E+01   -0.72625E+00  7926   0.109E+01    0.283E+00
DAV:   2    -0.169790395787E+03    0.20301E+00   -0.54607E-01  8406   0.228E+00    0.119E+00
DAV:   3    -0.169776314393E+03    0.14081E-01   -0.86898E-02  8418   0.847E-01    0.375E-01
DAV:   4    -0.169773926590E+03    0.23878E-02   -0.82812E-03  8460   0.263E-01    0.147E-01
DAV:   5    -0.169773481741E+03    0.44485E-03   -0.14587E-03  8430   0.111E-01    0.792E-02
DAV:   6    -0.169773437932E+03    0.43809E-04   -0.17855E-04  8448   0.417E-02    0.161E-02
DAV:   7    -0.169773431658E+03    0.62734E-05   -0.10501E-05  4722   0.161E-02
   3 F= -.11703976E+03 E0= -.11703976E+03  d E =-.291551E+00
       N       E                     dE             d eps       ncg     rms          rms(c)
DAV:   1    -0.169751738538E+03    0.21699E-01   -0.53528E-04  8136   0.922E-02    0.248E-02
DAV:   2    -0.169751726062E+03    0.12475E-04   -0.42820E-05  7728   0.207E-02    0.995E-03
DAV:   3    -0.169751726842E+03   -0.77960E-06   -0.72941E-06  4278   0.820E-03
   4 F= -.11703981E+03 E0= -.11703981E+03  d E =-.291602E+00
       N       E                     dE             d eps       ncg     rms          rms(c)
DAV:   1    -0.169749727740E+03    0.19983E-02   -0.44336E-06  4260   0.793E-03    0.232E-03
DAV:   2    -0.169749728035E+03   -0.29556E-06   -0.41023E-07  4140   0.259E-03
   5 F= -.11703981E+03 E0= -.11703981E+03  d E =-.291604E+00
       N       E                     dE             d eps       ncg     rms          rms(c)
DAV:   1    -0.169768481716E+03   -0.18754E-01   -0.16455E-01  7158   0.163E+00    0.829E-02
DAV:   2    -0.169768509414E+03   -0.27698E-04   -0.39431E-03  8796   0.225E-01    0.564E-02
DAV:   3    -0.169768416453E+03    0.92962E-04   -0.23204E-04  8622   0.611E-02    0.270E-02
DAV:   4    -0.169768410605E+03    0.58478E-05   -0.10635E-04  8316   0.320E-02    0.918E-03
DAV:   5    -0.169768410425E+03    0.17963E-06   -0.43155E-06  4494   0.105E-02
   6 F= -.11704255E+03 E0= -.11704255E+03  d E =-.273932E-02
       N       E                     dE             d eps       ncg     rms          rms(c)
DAV:   1    -0.169769532738E+03   -0.11221E-02   -0.80722E-04  7626   0.114E-01    0.596E-03
DAV:   2    -0.169769533274E+03   -0.53625E-06   -0.20206E-05  6714   0.165E-02
   7 F= -.11704257E+03 E0= -.11704257E+03  d E =-.275249E-02
       N       E                     dE             d eps       ncg     rms          rms(c)
DAV:   1    -0.169776148652E+03   -0.66159E-02   -0.12188E-01  7128   0.141E+00    0.562E-02
DAV:   2    -0.169776118977E+03    0.29675E-04   -0.14312E-03  8772   0.141E-01    0.377E-02
DAV:   3    -0.169776058145E+03    0.60832E-04   -0.14304E-04  8700   0.485E-02    0.108E-02
DAV:   4    -0.169776060813E+03   -0.26680E-05   -0.48892E-05  5442   0.206E-02
   8 F= -.11704334E+03 E0= -.11704334E+03  d E =-.776988E-03
       N       E                     dE             d eps       ncg     rms          rms(c)
DAV:   1    -0.169777258349E+03   -0.12002E-02   -0.50600E-03  7284   0.286E-01    0.121E-02
DAV:   2    -0.169777257318E+03    0.10309E-05   -0.58280E-05  8640   0.283E-02
   9 F= -.11704337E+03 E0= -.11704337E+03  d E =-.804675E-03
       N       E                     dE             d eps       ncg     rms          rms(c)
DAV:   1    -0.169776951476E+03    0.30687E-03   -0.61494E-02  7128   0.998E-01    0.443E-02
DAV:   2    -0.169776946113E+03    0.53627E-05   -0.89623E-04  8712   0.111E-01    0.297E-02
DAV:   3    -0.169776913004E+03    0.33110E-04   -0.78327E-05  8562   0.370E-02    0.107E-02
DAV:   4    -0.169776914290E+03   -0.12861E-05   -0.32042E-05  5118   0.182E-02
  10 F= -.11704382E+03 E0= -.11704382E+03  d E =-.446245E-03
       N       E                     dE             d eps       ncg     rms          rms(c)
DAV:   1    -0.169776689680E+03    0.22332E-03   -0.67344E-03  7200   0.330E-01    0.152E-02
DAV:   2    -0.169776690512E+03   -0.83167E-06   -0.10254E-04  8742   0.372E-02    0.103E-02
DAV:   3    -0.169776687058E+03    0.34539E-05   -0.70007E-06  4548   0.119E-02
  11 F= -.11704385E+03 E0= -.11704385E+03  d E =-.479023E-03
       N       E                     dE             d eps       ncg     rms          rms(c)
DAV:   1    -0.169780784652E+03   -0.40941E-02   -0.18204E-02  7128   0.555E-01    0.274E-02
DAV:   2    -0.169780787977E+03   -0.33250E-05   -0.22948E-04  8856   0.583E-02    0.183E-02
DAV:   3    -0.169780783735E+03    0.42419E-05   -0.18413E-05  5304   0.178E-02
  12 F= -.11704407E+03 E0= -.11704407E+03  d E =-.220653E-03
       N       E                     dE             d eps       ncg     rms          rms(c)
DAV:   1    -0.169780398715E+03    0.38926E-03   -0.19985E-04  7332   0.579E-02    0.394E-03
DAV:   2    -0.169780398782E+03   -0.66993E-07   -0.37934E-06  4194   0.755E-03
  13 F= -.11704407E+03 E0= -.11704407E+03  d E =-.223856E-03
       N       E                     dE             d eps       ncg     rms          rms(c)
DAV:   1    -0.169780726544E+03   -0.32783E-03   -0.92495E-03  7128   0.373E-01    0.191E-02
DAV:   2    -0.169780720076E+03    0.64684E-05   -0.18132E-04  8580   0.505E-02    0.130E-02
DAV:   3    -0.169780714395E+03    0.56807E-05   -0.14840E-05  5256   0.173E-02
  14 F= -.11704411E+03 E0= -.11704411E+03  d E =-.401655E-04
