Al4C3 Fd-3m polymorph (findsym-output) -
   1.00000000000000     
     8.0026030024068611    0.0000000000000000    0.0000000000000000
     0.0000000000000000    8.0026030024068611    0.0000000000000000
     0.0000000000000000    0.0000000000000000    8.0026030024068611
   Al   C 
    32    24
Direct
  0.7603621415956777  0.7603621415956777  0.7603621415956777
  0.2396378584043221  0.2396378584043221  0.2396378584043221
  0.9896378584043223  0.4896378584043221  0.2603621415956779
  0.0103621415956779  0.5103621415956777  0.7396378584043223
  0.4896378584043221  0.2603621415956779  0.9896378584043223
  0.5103621415956777  0.7396378584043223  0.0103621415956779
  0.2603621415956779  0.9896378584043223  0.4896378584043221
  0.7396378584043223  0.0103621415956779  0.5103621415956777
  0.5103621415956777  0.0103621415956779  0.7396378584043223
  0.4896378584043221  0.9896378584043223  0.2603621415956779
  0.0103621415956779  0.7396378584043223  0.5103621415956777
  0.9896378584043223  0.2603621415956779  0.4896378584043221
  0.7396378584043223  0.5103621415956777  0.0103621415956779
  0.2603621415956779  0.4896378584043221  0.9896378584043223
  0.7603621415956777  0.2603621415956779  0.2603621415956779
  0.2396378584043221  0.7396378584043223  0.7396378584043223
  0.9896378584043223  0.9896378584043223  0.7603621415956777
  0.0103621415956779  0.0103621415956779  0.2396378584043221
  0.4896378584043221  0.7603621415956777  0.4896378584043221
  0.5103621415956777  0.2396378584043221  0.5103621415956777
  0.5103621415956777  0.5103621415956777  0.2396378584043221
  0.4896378584043221  0.4896378584043221  0.7603621415956777
  0.0103621415956779  0.2396378584043221  0.0103621415956779
  0.9896378584043223  0.7603621415956777  0.9896378584043223
  0.2603621415956779  0.7603621415956777  0.2603621415956779
  0.7396378584043223  0.2396378584043221  0.7396378584043223
  0.7603621415956777  0.9896378584043223  0.9896378584043223
  0.2396378584043221  0.0103621415956779  0.0103621415956779
  0.2396378584043221  0.5103621415956777  0.5103621415956777
  0.7603621415956777  0.4896378584043221  0.4896378584043221
  0.2603621415956779  0.2603621415956779  0.7603621415956777
  0.7396378584043223  0.7396378584043223  0.2396378584043221
  0.0000000000000000 -0.0000000000000000  0.0000000000000000
  0.7500000000000000  0.2500000000000000  0.5000000000000000
  0.2500000000000000  0.7500000000000000  0.5000000000000000
  0.2500000000000000  0.5000000000000000  0.7500000000000000
  0.7500000000000000  0.5000000000000000  0.2500000000000000
  0.5000000000000000  0.7500000000000000  0.2500000000000000
  0.5000000000000000  0.2500000000000000  0.7500000000000000
  0.0000000000000000  0.5000000000000000  0.5000000000000000
  0.7500000000000000  0.7500000000000000  0.0000000000000000
  0.2500000000000000  0.2500000000000000  0.0000000000000000
  0.2500000000000000 -0.0000000000000000  0.2500000000000000
  0.7500000000000000 -0.0000000000000000  0.7500000000000000
  0.5000000000000000 -0.0000000000000000  0.5000000000000000
  0.0000000000000000  0.7500000000000000  0.7500000000000000
  0.0000000000000000  0.2500000000000000  0.2500000000000000
  0.5000000000000000  0.5000000000000000  0.0000000000000000
  0.3750000000000000  0.3750000000000000  0.3750000000000000
  0.6250000000000000  0.6250000000000000  0.6250000000000000
  0.3750000000000000  0.8750000000000000  0.8750000000000000
  0.6250000000000000  0.1250000000000000  0.1250000000000000
  0.8750000000000000  0.8750000000000000  0.3750000000000000
  0.1250000000000000  0.1250000000000000  0.6250000000000000
  0.8750000000000000  0.3750000000000000  0.8750000000000000
  0.1250000000000000  0.6250000000000000  0.1250000000000000
 
  0.00000000E+00  0.00000000E+00  0.00000000E+00
  0.00000000E+00  0.00000000E+00  0.00000000E+00
  0.00000000E+00  0.00000000E+00  0.00000000E+00
  0.00000000E+00  0.00000000E+00  0.00000000E+00
  0.00000000E+00  0.00000000E+00  0.00000000E+00
  0.00000000E+00  0.00000000E+00  0.00000000E+00
  0.00000000E+00  0.00000000E+00  0.00000000E+00
  0.00000000E+00  0.00000000E+00  0.00000000E+00
  0.00000000E+00  0.00000000E+00  0.00000000E+00
  0.00000000E+00  0.00000000E+00  0.00000000E+00
  0.00000000E+00  0.00000000E+00  0.00000000E+00
  0.00000000E+00  0.00000000E+00  0.00000000E+00
  0.00000000E+00  0.00000000E+00  0.00000000E+00
  0.00000000E+00  0.00000000E+00  0.00000000E+00
  0.00000000E+00  0.00000000E+00  0.00000000E+00
  0.00000000E+00  0.00000000E+00  0.00000000E+00
  0.00000000E+00  0.00000000E+00  0.00000000E+00
  0.00000000E+00  0.00000000E+00  0.00000000E+00
  0.00000000E+00  0.00000000E+00  0.00000000E+00
  0.00000000E+00  0.00000000E+00  0.00000000E+00
  0.00000000E+00  0.00000000E+00  0.00000000E+00
  0.00000000E+00  0.00000000E+00  0.00000000E+00
  0.00000000E+00  0.00000000E+00  0.00000000E+00
  0.00000000E+00  0.00000000E+00  0.00000000E+00
  0.00000000E+00  0.00000000E+00  0.00000000E+00
  0.00000000E+00  0.00000000E+00  0.00000000E+00
  0.00000000E+00  0.00000000E+00  0.00000000E+00
  0.00000000E+00  0.00000000E+00  0.00000000E+00
  0.00000000E+00  0.00000000E+00  0.00000000E+00
  0.00000000E+00  0.00000000E+00  0.00000000E+00
  0.00000000E+00  0.00000000E+00  0.00000000E+00
  0.00000000E+00  0.00000000E+00  0.00000000E+00
  0.00000000E+00  0.00000000E+00  0.00000000E+00
  0.00000000E+00  0.00000000E+00  0.00000000E+00
  0.00000000E+00  0.00000000E+00  0.00000000E+00
  0.00000000E+00  0.00000000E+00  0.00000000E+00
  0.00000000E+00  0.00000000E+00  0.00000000E+00
  0.00000000E+00  0.00000000E+00  0.00000000E+00
  0.00000000E+00  0.00000000E+00  0.00000000E+00
  0.00000000E+00  0.00000000E+00  0.00000000E+00
  0.00000000E+00  0.00000000E+00  0.00000000E+00
  0.00000000E+00  0.00000000E+00  0.00000000E+00
  0.00000000E+00  0.00000000E+00  0.00000000E+00
  0.00000000E+00  0.00000000E+00  0.00000000E+00
  0.00000000E+00  0.00000000E+00  0.00000000E+00
  0.00000000E+00  0.00000000E+00  0.00000000E+00
  0.00000000E+00  0.00000000E+00  0.00000000E+00
  0.00000000E+00  0.00000000E+00  0.00000000E+00
  0.00000000E+00  0.00000000E+00  0.00000000E+00
  0.00000000E+00  0.00000000E+00  0.00000000E+00
  0.00000000E+00  0.00000000E+00  0.00000000E+00
  0.00000000E+00  0.00000000E+00  0.00000000E+00
  0.00000000E+00  0.00000000E+00  0.00000000E+00
  0.00000000E+00  0.00000000E+00  0.00000000E+00
  0.00000000E+00  0.00000000E+00  0.00000000E+00
  0.00000000E+00  0.00000000E+00  0.00000000E+00
