  56  56   0   0
  0.9430624E+01  0.8083066E-09  0.8083066E-09  0.8083066E-09  0.5000000E-15
  1.000000000000000E-004
  CAR 
 Al4C3 Fd-3m - r2SCAN H(P) scan @ 50 GPa 
     18.29681130     -7.48499540  301     10.22388308      1.00000000
     -7.485  0.0000E+00  0.0000E+00
     -7.399  0.0000E+00  0.0000E+00
     -7.313  0.0000E+00  0.0000E+00
     -7.227  0.0000E+00  0.0000E+00
     -7.141  0.0000E+00  0.0000E+00
     -7.055  0.0000E+00  0.0000E+00
     -6.969  0.0000E+00  0.0000E+00
     -6.883  0.0000E+00  0.0000E+00
     -6.797  0.0000E+00  0.0000E+00
     -6.712  0.0000E+00  0.0000E+00
     -6.626  0.0000E+00  0.0000E+00
     -6.540  0.1338E-12  0.1150E-13
     -6.454  0.6329E-07  0.5440E-08
     -6.368  0.1108E-03  0.9525E-05
     -6.282  0.1462E-02  0.1352E-03
     -6.196  0.5988E-02  0.6498E-03
     -6.110  0.1044E-01  0.1547E-02
     -6.024  0.1694E-01  0.3002E-02
     -5.938  0.1226E-01  0.4056E-02
     -5.852  0.8402E-02  0.4778E-02
     -5.766  0.2116E-01  0.6597E-02
     -5.680  0.3847E-01  0.9903E-02
     -5.594  0.3065E-01  0.1254E-01
     -5.508  0.3146E-02  0.1281E-01
     -5.422  0.2871E-01  0.1528E-01
     -5.337  0.4026E-01  0.1873E-01
     -5.251  0.2884E-01  0.2121E-01
     -5.165  0.6069E-01  0.2643E-01
     -5.079  0.4998E-01  0.3072E-01
     -4.993  0.3842E-01  0.3403E-01
     -4.907  0.9496E-02  0.3484E-01
     -4.821  0.2270E-02  0.3504E-01
     -4.735  0.1692E-01  0.3649E-01
     -4.649  0.6926E-02  0.3709E-01
     -4.563  0.4706E-01  0.4113E-01
     -4.477  0.2470E-01  0.4325E-01
     -4.391  0.1031E-01  0.4414E-01
     -4.305  0.1449E-01  0.4538E-01
     -4.219  0.2476E-01  0.4751E-01
     -4.133  0.4456E-01  0.5134E-01
     -4.047  0.7536E-01  0.5782E-01
     -3.961  0.3723E-01  0.6102E-01
     -3.876  0.3504E-01  0.6403E-01
     -3.790  0.1605E-01  0.6541E-01
     -3.704  0.1375E-01  0.6659E-01
     -3.618  0.3801E-01  0.6986E-01
     -3.532  0.1431E-01  0.7109E-01
     -3.446  0.8742E-04  0.7109E-01
     -3.360  0.4727E-03  0.7113E-01
     -3.274  0.2577E-01  0.7335E-01
     -3.188  0.6439E-01  0.7888E-01
     -3.102  0.3221E-01  0.8165E-01
     -3.016  0.4526E-01  0.8554E-01
     -2.930  0.7604E-01  0.9208E-01
     -2.844  0.5514E-01  0.9681E-01
     -2.758  0.5245E-01  0.1013E+00
     -2.672  0.3639E-01  0.1044E+00
     -2.586  0.6632E-01  0.1101E+00
     -2.501  0.8169E-01  0.1172E+00
     -2.415  0.5671E-01  0.1220E+00
     -2.329  0.9154E-01  0.1299E+00
     -2.243  0.8314E-01  0.1371E+00
     -2.157  0.1079E+00  0.1463E+00
     -2.071  0.1216E+00  0.1568E+00
     -1.985  0.7839E-01  0.1635E+00
     -1.899  0.7070E-01  0.1696E+00
     -1.813  0.3203E-01  0.1723E+00
     -1.727  0.8384E-01  0.1795E+00
     -1.641  0.1939E+00  0.1962E+00
     -1.555  0.1312E+00  0.2075E+00
     -1.469  0.8741E-01  0.2150E+00
     -1.383  0.1612E+00  0.2288E+00
     -1.297  0.8532E-01  0.2362E+00
     -1.211  0.3871E-01  0.2395E+00
     -1.125  0.5743E-02  0.2400E+00
     -1.040  0.1850E-04  0.2400E+00
     -0.954  0.4491E-09  0.2400E+00
     -0.868  0.4845E-16  0.2400E+00
     -0.782  0.0000E+00  0.2400E+00
     -0.696  0.0000E+00  0.2400E+00
     -0.610  0.0000E+00  0.2400E+00
     -0.524  0.0000E+00  0.2400E+00
     -0.438  0.0000E+00  0.2400E+00
     -0.352  0.0000E+00  0.2400E+00
     -0.266  0.0000E+00  0.2400E+00
     -0.180  0.0000E+00  0.2400E+00
     -0.094  0.0000E+00  0.2400E+00
     -0.008  0.0000E+00  0.2400E+00
      0.078  0.0000E+00  0.2400E+00
      0.164  0.0000E+00  0.2400E+00
      0.250  0.0000E+00  0.2400E+00
      0.335  0.0000E+00  0.2400E+00
      0.421  0.0000E+00  0.2400E+00
      0.507  0.0000E+00  0.2400E+00
      0.593  0.3981E-14  0.2400E+00
      0.679  0.6365E-08  0.2400E+00
      0.765  0.3556E-04  0.2400E+00
      0.851  0.1134E-02  0.2401E+00
      0.937  0.6435E-03  0.2402E+00
      1.023  0.4681E-05  0.2402E+00
      1.109  0.1291E-03  0.2402E+00
      1.195  0.6057E-02  0.2407E+00
      1.281  0.7285E-02  0.2413E+00
      1.367  0.1697E-01  0.2428E+00
      1.453  0.4908E-02  0.2432E+00
      1.539  0.1098E-01  0.2441E+00
      1.625  0.9368E-03  0.2442E+00
      1.711  0.1445E-03  0.2442E+00
      1.796  0.1680E-01  0.2457E+00
      1.882  0.3655E-01  0.2488E+00
      1.968  0.5176E-01  0.2533E+00
      2.054  0.3217E-01  0.2560E+00
      2.140  0.2854E-01  0.2585E+00
      2.226  0.5632E-01  0.2633E+00
      2.312  0.7059E-01  0.2694E+00
      2.398  0.9121E-01  0.2772E+00
      2.484  0.9508E-01  0.2854E+00
      2.570  0.8185E-01  0.2924E+00
      2.656  0.9608E-01  0.3007E+00
      2.742  0.4150E-01  0.3043E+00
      2.828  0.6130E-01  0.3095E+00
      2.914  0.1649E+00  0.3237E+00
      3.000  0.8124E-01  0.3307E+00
      3.086  0.7299E-01  0.3369E+00
      3.171  0.1184E+00  0.3471E+00
      3.257  0.1387E+00  0.3590E+00
      3.343  0.5557E-01  0.3638E+00
      3.429  0.1131E+00  0.3735E+00
      3.515  0.8329E-01  0.3807E+00
      3.601  0.2546E-01  0.3829E+00
      3.687  0.5926E-01  0.3880E+00
      3.773  0.6560E-01  0.3936E+00
      3.859  0.9996E-01  0.4022E+00
      3.945  0.1058E+00  0.4113E+00
      4.031  0.4690E-01  0.4153E+00
      4.117  0.6580E-01  0.4210E+00
      4.203  0.5978E-01  0.4261E+00
      4.289  0.5339E-01  0.4307E+00
      4.375  0.8517E-01  0.4380E+00
      4.461  0.5731E-01  0.4429E+00
      4.547  0.6911E-01  0.4489E+00
      4.632  0.5789E-01  0.4539E+00
      4.718  0.8065E-01  0.4608E+00
      4.804  0.5667E-01  0.4657E+00
      4.890  0.2034E-01  0.4674E+00
      4.976  0.5438E-01  0.4721E+00
      5.062  0.1532E+00  0.4852E+00
      5.148  0.6314E-01  0.4907E+00
      5.234  0.6318E-01  0.4961E+00
      5.320  0.1011E+00  0.5048E+00
      5.406  0.6731E-01  0.5106E+00
      5.492  0.7867E-01  0.5173E+00
      5.578  0.5298E-01  0.5219E+00
      5.664  0.2451E-01  0.5240E+00
      5.750  0.4707E-01  0.5280E+00
      5.836  0.1576E-01  0.5294E+00
      5.922  0.7372E-01  0.5357E+00
      6.007  0.8842E-01  0.5433E+00
      6.093  0.1174E+00  0.5534E+00
      6.179  0.1217E+00  0.5639E+00
      6.265  0.1144E+00  0.5737E+00
      6.351  0.1775E+00  0.5890E+00
      6.437  0.7801E-01  0.5957E+00
      6.523  0.1571E-01  0.5970E+00
      6.609  0.1034E+00  0.6059E+00
      6.695  0.4939E-01  0.6101E+00
      6.781  0.1217E+00  0.6206E+00
      6.867  0.1014E+00  0.6293E+00
      6.953  0.9520E-01  0.6375E+00
      7.039  0.1443E+00  0.6499E+00
      7.125  0.9573E-01  0.6581E+00
      7.211  0.1682E+00  0.6726E+00
      7.297  0.1344E+00  0.6841E+00
      7.383  0.1595E+00  0.6978E+00
      7.468  0.1904E+00  0.7142E+00
      7.554  0.1590E+00  0.7279E+00
      7.640  0.9775E-01  0.7363E+00
      7.726  0.1626E+00  0.7502E+00
      7.812  0.2137E+00  0.7686E+00
      7.898  0.1681E+00  0.7830E+00
      7.984  0.1462E+00  0.7956E+00
      8.070  0.1602E+00  0.8094E+00
      8.156  0.2143E+00  0.8278E+00
      8.242  0.2005E+00  0.8450E+00
      8.328  0.1595E+00  0.8587E+00
      8.414  0.1107E+00  0.8682E+00
      8.500  0.1306E+00  0.8795E+00
      8.586  0.2548E-01  0.8816E+00
      8.672  0.3246E-01  0.8844E+00
      8.758  0.6147E-01  0.8897E+00
      8.843  0.5844E-01  0.8947E+00
      8.929  0.4956E-01  0.8990E+00
      9.015  0.1073E+00  0.9082E+00
      9.101  0.9351E-01  0.9163E+00
      9.187  0.7216E-01  0.9225E+00
      9.273  0.5313E-01  0.9270E+00
      9.359  0.9586E-01  0.9353E+00
      9.445  0.1030E+00  0.9441E+00
      9.531  0.6179E-01  0.9494E+00
      9.617  0.2236E-01  0.9514E+00
      9.703  0.1941E-01  0.9530E+00
      9.789  0.3944E-01  0.9564E+00
      9.875  0.2724E-01  0.9588E+00
      9.961  0.1013E-01  0.9596E+00
     10.047  0.4117E-02  0.9600E+00
     10.133  0.2924E-03  0.9600E+00
     10.219  0.1449E-06  0.9600E+00
     10.304  0.2636E-12  0.9600E+00
     10.390  0.0000E+00  0.9600E+00
     10.476  0.0000E+00  0.9600E+00
     10.562  0.0000E+00  0.9600E+00
     10.648  0.0000E+00  0.9600E+00
     10.734  0.0000E+00  0.9600E+00
     10.820  0.0000E+00  0.9600E+00
     10.906  0.0000E+00  0.9600E+00
     10.992  0.0000E+00  0.9600E+00
     11.078  0.0000E+00  0.9600E+00
     11.164  0.0000E+00  0.9600E+00
     11.250  0.0000E+00  0.9600E+00
     11.336  0.0000E+00  0.9600E+00
     11.422  0.3301E-12  0.9600E+00
     11.508  0.1126E-06  0.9600E+00
     11.594  0.1446E-03  0.9600E+00
     11.679  0.1395E-02  0.9601E+00
     11.765  0.2779E-03  0.9602E+00
     11.851  0.5024E-06  0.9602E+00
     11.937  0.3629E-11  0.9602E+00
     12.023  0.4617E-08  0.9602E+00
     12.109  0.6897E-04  0.9602E+00
     12.195  0.5112E-02  0.9606E+00
     12.281  0.5630E-02  0.9611E+00
     12.367  0.9758E-04  0.9611E+00
     12.453  0.1034E-07  0.9611E+00
     12.539  0.5183E-04  0.9611E+00
     12.625  0.7539E-02  0.9617E+00
     12.711  0.1684E-01  0.9632E+00
     12.797  0.7953E-02  0.9639E+00
     12.883  0.1875E-02  0.9640E+00
     12.969  0.1920E-01  0.9657E+00
     13.055  0.4872E-01  0.9699E+00
     13.140  0.4167E-01  0.9735E+00
     13.226  0.1059E+00  0.9826E+00
     13.312  0.6946E-01  0.9885E+00
     13.398  0.5410E-01  0.9932E+00
     13.484  0.5642E-01  0.9980E+00
     13.570  0.6161E-01  0.1003E+01
     13.656  0.1546E-01  0.1005E+01
     13.742  0.3634E-01  0.1008E+01
     13.828  0.1145E+00  0.1018E+01
     13.914  0.1114E+00  0.1027E+01
     14.000  0.3061E-01  0.1030E+01
     14.086  0.6633E-01  0.1036E+01
     14.172  0.1785E+00  0.1051E+01
     14.258  0.7024E-01  0.1057E+01
     14.344  0.4044E-01  0.1060E+01
     14.430  0.1493E+00  0.1073E+01
     14.515  0.1834E+00  0.1089E+01
     14.601  0.1367E+00  0.1101E+01
     14.687  0.3181E-01  0.1103E+01
     14.773  0.1999E-01  0.1105E+01
     14.859  0.2522E-01  0.1107E+01
     14.945  0.6651E-01  0.1113E+01
     15.031  0.4843E-01  0.1117E+01
     15.117  0.3430E-01  0.1120E+01
     15.203  0.7225E-01  0.1126E+01
     15.289  0.5308E-01  0.1131E+01
     15.375  0.8566E-01  0.1138E+01
     15.461  0.6162E-01  0.1144E+01
     15.547  0.9300E-01  0.1152E+01
     15.633  0.1066E+00  0.1161E+01
     15.719  0.7709E-01  0.1167E+01
     15.805  0.1522E+00  0.1180E+01
     15.891  0.1049E+00  0.1189E+01
     15.976  0.1935E+00  0.1206E+01
     16.062  0.1051E+00  0.1215E+01
     16.148  0.8379E-01  0.1222E+01
     16.234  0.7613E-01  0.1229E+01
     16.320  0.1118E+00  0.1238E+01
     16.406  0.9147E-01  0.1246E+01
     16.492  0.6092E-01  0.1252E+01
     16.578  0.2574E-01  0.1254E+01
     16.664  0.1286E-01  0.1255E+01
     16.750  0.3266E-01  0.1258E+01
     16.836  0.1695E-01  0.1259E+01
     16.922  0.6343E-02  0.1260E+01
     17.008  0.3333E-04  0.1260E+01
     17.094  0.6834E-03  0.1260E+01
     17.180  0.2730E-02  0.1260E+01
     17.266  0.2215E-03  0.1260E+01
     17.351  0.1265E-06  0.1260E+01
     17.437  0.2674E-12  0.1260E+01
     17.523  0.0000E+00  0.1260E+01
     17.609  0.0000E+00  0.1260E+01
     17.695  0.0000E+00  0.1260E+01
     17.781  0.0000E+00  0.1260E+01
     17.867  0.0000E+00  0.1260E+01
     17.953  0.0000E+00  0.1260E+01
     18.039  0.0000E+00  0.1260E+01
     18.125  0.0000E+00  0.1260E+01
     18.211  0.0000E+00  0.1260E+01
     18.297  0.0000E+00  0.1260E+01
