       N       E                     dE             d eps       ncg     rms          rms(c)
DAV:   1    -0.487418654342E+03   -0.48742E+03   -0.53984E+00  2520   0.780E+00    0.426E+00
DAV:   2    -0.455549118536E+03    0.31870E+02   -0.36948E+00  2520   0.675E+00    0.796E-01
DAV:   3    -0.456137762102E+03   -0.58864E+00   -0.51703E-01  2556   0.242E+00    0.124E+00
DAV:   4    -0.456185352090E+03   -0.47590E-01   -0.41525E-02  2772   0.610E-01    0.130E+00
DAV:   5    -0.456187721757E+03   -0.23697E-02   -0.58129E-03  2826   0.191E-01    0.945E-01
DAV:   6    -0.456186902043E+03    0.81971E-03   -0.11823E-02  2844   0.242E-01    0.246E-01
DAV:   7    -0.456187143052E+03   -0.24101E-03   -0.74070E-04  2940   0.693E-02    0.991E-02
DAV:   8    -0.456187127822E+03    0.15231E-04   -0.88578E-05  2952   0.249E-02    0.571E-02
DAV:   9    -0.456187102308E+03    0.25514E-04   -0.11024E-05  1338   0.102E-02    0.154E-02
DAV:  10    -0.456187096619E+03    0.56891E-05   -0.23590E-06  1314   0.496E-03
   1 F= -.29137547E+03 E0= -.29137547E+03  d E =-.291375E+03
       N       E                     dE             d eps       ncg     rms          rms(c)
DAV:   1    -0.441868294950E+03    0.14319E+02   -0.36356E+01  2580   0.191E+01    0.669E+00
DAV:   2    -0.441199692675E+03    0.66860E+00   -0.28375E+00  2790   0.412E+00    0.332E+00
DAV:   3    -0.441177708246E+03    0.21984E-01   -0.43306E-01  2778   0.151E+00    0.993E-01
DAV:   4    -0.441184651635E+03   -0.69434E-02   -0.20612E-02  2808   0.451E-01    0.688E-01
DAV:   5    -0.441186478745E+03   -0.18271E-02   -0.18704E-03  2796   0.161E-01    0.582E-01
DAV:   6    -0.441187400087E+03   -0.92134E-03   -0.28576E-03  2802   0.185E-01    0.944E-02
DAV:   7    -0.441187103282E+03    0.29681E-03   -0.56145E-04  2766   0.689E-02    0.335E-02
DAV:   8    -0.441187075968E+03    0.27314E-04   -0.31630E-04  2874   0.424E-02    0.142E-02
DAV:   9    -0.441187079336E+03   -0.33684E-05   -0.27914E-05  2058   0.141E-02
   2 F= -.29001184E+03 E0= -.29001184E+03  d E =0.136363E+01
       N       E                     dE             d eps       ncg     rms          rms(c)
DAV:   1    -0.452171229203E+03   -0.10984E+02   -0.15180E+01  2580   0.118E+01    0.441E+00
DAV:   2    -0.451943163171E+03    0.22807E+00   -0.12735E+00  2796   0.267E+00    0.211E+00
DAV:   3    -0.451937130657E+03    0.60325E-02   -0.18026E-01  2760   0.962E-01    0.639E-01
DAV:   4    -0.451939979442E+03   -0.28488E-02   -0.97011E-03  2832   0.308E-01    0.439E-01
DAV:   5    -0.451940705582E+03   -0.72614E-03   -0.97146E-04  2784   0.117E-01    0.371E-01
DAV:   6    -0.451940628111E+03    0.77471E-04   -0.13998E-03  2880   0.125E-01    0.586E-02
DAV:   7    -0.451940519270E+03    0.10884E-03   -0.28278E-04  2844   0.488E-02    0.238E-02
DAV:   8    -0.451940516944E+03    0.23259E-05   -0.18133E-04  2970   0.315E-02    0.118E-02
DAV:   9    -0.451940511153E+03    0.57914E-05   -0.16224E-05  1380   0.113E-02
   3 F= -.29186531E+03 E0= -.29186531E+03  d E =-.489849E+00
       N       E                     dE             d eps       ncg     rms          rms(c)
DAV:   1    -0.451854687076E+03    0.85830E-01   -0.14291E-03  2616   0.116E-01    0.439E-02
DAV:   2    -0.451854641459E+03    0.45617E-04   -0.12026E-04  2754   0.260E-02    0.219E-02
DAV:   3    -0.451854629811E+03    0.11648E-04   -0.15908E-05  1332   0.932E-03    0.849E-03
DAV:   4    -0.451854627030E+03    0.27811E-05   -0.16372E-06  1290   0.424E-03
   4 F= -.29186545E+03 E0= -.29186545E+03  d E =-.489987E+00
       N       E                     dE             d eps       ncg     rms          rms(c)
DAV:   1    -0.451741136114E+03    0.11349E+00   -0.20943E-01  2730   0.141E+00    0.160E-01
DAV:   2    -0.451745185301E+03   -0.40492E-02   -0.31375E-02  2868   0.471E-01    0.202E-01
DAV:   3    -0.451745363055E+03   -0.17775E-03   -0.50265E-04  3018   0.601E-02    0.220E-01
DAV:   4    -0.451745080740E+03    0.28231E-03   -0.93197E-05  2802   0.268E-02    0.203E-01
DAV:   5    -0.451744592159E+03    0.48858E-03   -0.36082E-03  2790   0.155E-01    0.185E-01
DAV:   6    -0.451744613372E+03   -0.21213E-04   -0.18506E-04  2844   0.388E-02    0.160E-01
DAV:   7    -0.451744703217E+03   -0.89846E-04   -0.26380E-05  2310   0.219E-02    0.829E-02
DAV:   8    -0.451744856407E+03   -0.15319E-03   -0.56623E-05  2802   0.254E-02    0.352E-02
DAV:   9    -0.451744847120E+03    0.92876E-05   -0.92576E-06  1326   0.920E-03
   5 F= -.29186375E+03 E0= -.29186375E+03  d E =0.170118E-02
       N       E                     dE             d eps       ncg     rms          rms(c)
DAV:   1    -0.451808416855E+03   -0.63560E-01   -0.59203E-02  2718   0.747E-01    0.971E-02
DAV:   2    -0.451809447724E+03   -0.10309E-02   -0.87371E-03  2880   0.250E-01    0.111E-01
DAV:   3    -0.451809485194E+03   -0.37469E-04   -0.13942E-04  2982   0.321E-02    0.119E-01
DAV:   4    -0.451809518645E+03   -0.33451E-04   -0.64360E-06  1722   0.102E-02    0.129E-01
DAV:   5    -0.451809928909E+03   -0.41026E-03   -0.70138E-04  2832   0.803E-02    0.312E-01
DAV:   6    -0.451809750813E+03    0.17810E-03   -0.44954E-05  2688   0.311E-02    0.271E-01
DAV:   7    -0.451809597962E+03    0.15285E-03   -0.80767E-05  2868   0.277E-02    0.229E-01
DAV:   8    -0.451809597069E+03    0.89312E-06   -0.28186E-05  1848   0.130E-02
   6 F= -.29187102E+03 E0= -.29187102E+03  d E =-.556283E-02
