Al4C3 Fd-3m polymorph (findsym-output) -
   1.00000000000000     
     8.0830663742205449    0.0000000000000000    0.0000000000000000
     0.0000000000000000    8.0830663742205449    0.0000000000000000
     0.0000000000000000    0.0000000000000000    8.0830663742205449
   Al   C 
    32    24
Direct
  0.7605382873499054  0.7605382873499054  0.7605382873499054
  0.2394617126500948  0.2394617126500948  0.2394617126500948
  0.9894617126500946  0.4894617126500948  0.2605382873499052
  0.0105382873499052  0.5105382873499054  0.7394617126500946
  0.4894617126500948  0.2605382873499052  0.9894617126500946
  0.5105382873499054  0.7394617126500946  0.0105382873499052
  0.2605382873499052  0.9894617126500946  0.4894617126500948
  0.7394617126500946  0.0105382873499052  0.5105382873499054
  0.5105382873499054  0.0105382873499052  0.7394617126500946
  0.4894617126500948  0.9894617126500946  0.2605382873499052
  0.0105382873499052  0.7394617126500946  0.5105382873499054
  0.9894617126500946  0.2605382873499052  0.4894617126500948
  0.7394617126500946  0.5105382873499054  0.0105382873499052
  0.2605382873499052  0.4894617126500948  0.9894617126500946
  0.7605382873499054  0.2605382873499052  0.2605382873499052
  0.2394617126500948  0.7394617126500946  0.7394617126500946
  0.9894617126500946  0.9894617126500946  0.7605382873499054
  0.0105382873499052  0.0105382873499052  0.2394617126500948
  0.4894617126500948  0.7605382873499054  0.4894617126500948
  0.5105382873499054  0.2394617126500948  0.5105382873499054
  0.5105382873499054  0.5105382873499054  0.2394617126500948
  0.4894617126500948  0.4894617126500948  0.7605382873499054
  0.0105382873499052  0.2394617126500948  0.0105382873499052
  0.9894617126500946  0.7605382873499054  0.9894617126500946
  0.2605382873499052  0.7605382873499054  0.2605382873499052
  0.7394617126500946  0.2394617126500948  0.7394617126500946
  0.7605382873499054  0.9894617126500946  0.9894617126500946
  0.2394617126500948  0.0105382873499052  0.0105382873499052
  0.2394617126500948  0.5105382873499054  0.5105382873499054
  0.7605382873499054  0.4894617126500948  0.4894617126500948
  0.2605382873499052  0.2605382873499052  0.7605382873499054
  0.7394617126500946  0.7394617126500946  0.2394617126500948
  0.0000000000000000 -0.0000000000000000  0.0000000000000000
  0.7500000000000000  0.2500000000000000  0.5000000000000000
  0.2500000000000000  0.7500000000000000  0.5000000000000000
  0.2500000000000000  0.5000000000000000  0.7500000000000000
  0.7500000000000000  0.5000000000000000  0.2500000000000000
  0.5000000000000000  0.7500000000000000  0.2500000000000000
  0.5000000000000000  0.2500000000000000  0.7500000000000000
  0.0000000000000000  0.5000000000000000  0.5000000000000000
  0.7500000000000000  0.7500000000000000  0.0000000000000000
  0.2500000000000000  0.2500000000000000  0.0000000000000000
  0.2500000000000000 -0.0000000000000000  0.2500000000000000
  0.7500000000000000 -0.0000000000000000  0.7500000000000000
  0.5000000000000000 -0.0000000000000000  0.5000000000000000
  0.0000000000000000  0.7500000000000000  0.7500000000000000
  0.0000000000000000  0.2500000000000000  0.2500000000000000
  0.5000000000000000  0.5000000000000000  0.0000000000000000
  0.3750000000000000  0.3750000000000000  0.3750000000000000
  0.6250000000000000  0.6250000000000000  0.6250000000000000
  0.3750000000000000  0.8750000000000000  0.8750000000000000
  0.6250000000000000  0.1250000000000000  0.1250000000000000
  0.8750000000000000  0.8750000000000000  0.3750000000000000
  0.1250000000000000  0.1250000000000000  0.6250000000000000
  0.8750000000000000  0.3750000000000000  0.8750000000000000
  0.1250000000000000  0.6250000000000000  0.1250000000000000
 
  0.00000000E+00  0.00000000E+00  0.00000000E+00
  0.00000000E+00  0.00000000E+00  0.00000000E+00
  0.00000000E+00  0.00000000E+00  0.00000000E+00
  0.00000000E+00  0.00000000E+00  0.00000000E+00
  0.00000000E+00  0.00000000E+00  0.00000000E+00
  0.00000000E+00  0.00000000E+00  0.00000000E+00
  0.00000000E+00  0.00000000E+00  0.00000000E+00
  0.00000000E+00  0.00000000E+00  0.00000000E+00
  0.00000000E+00  0.00000000E+00  0.00000000E+00
  0.00000000E+00  0.00000000E+00  0.00000000E+00
  0.00000000E+00  0.00000000E+00  0.00000000E+00
  0.00000000E+00  0.00000000E+00  0.00000000E+00
  0.00000000E+00  0.00000000E+00  0.00000000E+00
  0.00000000E+00  0.00000000E+00  0.00000000E+00
  0.00000000E+00  0.00000000E+00  0.00000000E+00
  0.00000000E+00  0.00000000E+00  0.00000000E+00
  0.00000000E+00  0.00000000E+00  0.00000000E+00
  0.00000000E+00  0.00000000E+00  0.00000000E+00
  0.00000000E+00  0.00000000E+00  0.00000000E+00
  0.00000000E+00  0.00000000E+00  0.00000000E+00
  0.00000000E+00  0.00000000E+00  0.00000000E+00
  0.00000000E+00  0.00000000E+00  0.00000000E+00
  0.00000000E+00  0.00000000E+00  0.00000000E+00
  0.00000000E+00  0.00000000E+00  0.00000000E+00
  0.00000000E+00  0.00000000E+00  0.00000000E+00
  0.00000000E+00  0.00000000E+00  0.00000000E+00
  0.00000000E+00  0.00000000E+00  0.00000000E+00
  0.00000000E+00  0.00000000E+00  0.00000000E+00
  0.00000000E+00  0.00000000E+00  0.00000000E+00
  0.00000000E+00  0.00000000E+00  0.00000000E+00
  0.00000000E+00  0.00000000E+00  0.00000000E+00
  0.00000000E+00  0.00000000E+00  0.00000000E+00
  0.00000000E+00  0.00000000E+00  0.00000000E+00
  0.00000000E+00  0.00000000E+00  0.00000000E+00
  0.00000000E+00  0.00000000E+00  0.00000000E+00
  0.00000000E+00  0.00000000E+00  0.00000000E+00
  0.00000000E+00  0.00000000E+00  0.00000000E+00
  0.00000000E+00  0.00000000E+00  0.00000000E+00
  0.00000000E+00  0.00000000E+00  0.00000000E+00
  0.00000000E+00  0.00000000E+00  0.00000000E+00
  0.00000000E+00  0.00000000E+00  0.00000000E+00
  0.00000000E+00  0.00000000E+00  0.00000000E+00
  0.00000000E+00  0.00000000E+00  0.00000000E+00
  0.00000000E+00  0.00000000E+00  0.00000000E+00
  0.00000000E+00  0.00000000E+00  0.00000000E+00
  0.00000000E+00  0.00000000E+00  0.00000000E+00
  0.00000000E+00  0.00000000E+00  0.00000000E+00
  0.00000000E+00  0.00000000E+00  0.00000000E+00
  0.00000000E+00  0.00000000E+00  0.00000000E+00
  0.00000000E+00  0.00000000E+00  0.00000000E+00
  0.00000000E+00  0.00000000E+00  0.00000000E+00
  0.00000000E+00  0.00000000E+00  0.00000000E+00
  0.00000000E+00  0.00000000E+00  0.00000000E+00
  0.00000000E+00  0.00000000E+00  0.00000000E+00
  0.00000000E+00  0.00000000E+00  0.00000000E+00
  0.00000000E+00  0.00000000E+00  0.00000000E+00
