Al4C3 Fd-3m - r2SCAN H(P) scan @ 50 GPa 
           1
     8.083066    0.000000    0.000000
     0.000000    8.083066    0.000000
     0.000000    0.000000    8.083066
   Al   C 
    32    24
Direct configuration=     1
   0.76053829  0.76053829  0.76053829
   0.23946171  0.23946171  0.23946171
   0.98946171  0.48946171  0.26053829
   0.01053829  0.51053829  0.73946171
   0.48946171  0.26053829  0.98946171
   0.51053829  0.73946171  0.01053829
   0.26053829  0.98946171  0.48946171
   0.73946171  0.01053829  0.51053829
   0.51053829  0.01053829  0.73946171
   0.48946171  0.98946171  0.26053829
   0.01053829  0.73946171  0.51053829
   0.98946171  0.26053829  0.48946171
   0.73946171  0.51053829  0.01053829
   0.26053829  0.48946171  0.98946171
   0.76053829  0.26053829  0.26053829
   0.23946171  0.73946171  0.73946171
   0.98946171  0.98946171  0.76053829
   0.01053829  0.01053829  0.23946171
   0.48946171  0.76053829  0.48946171
   0.51053829  0.23946171  0.51053829
   0.51053829  0.51053829  0.23946171
   0.48946171  0.48946171  0.76053829
   0.01053829  0.23946171  0.01053829
   0.98946171  0.76053829  0.98946171
   0.26053829  0.76053829  0.26053829
   0.73946171  0.23946171  0.73946171
   0.76053829  0.98946171  0.98946171
   0.23946171  0.01053829  0.01053829
   0.23946171  0.51053829  0.51053829
   0.76053829  0.48946171  0.48946171
   0.26053829  0.26053829  0.76053829
   0.73946171  0.73946171  0.23946171
   0.00000000  0.00000000  0.00000000
   0.75000000  0.25000000  0.50000000
   0.25000000  0.75000000  0.50000000
   0.25000000  0.50000000  0.75000000
   0.75000000  0.50000000  0.25000000
   0.50000000  0.75000000  0.25000000
   0.50000000  0.25000000  0.75000000
   0.00000000  0.50000000  0.50000000
   0.75000000  0.75000000  0.00000000
   0.25000000  0.25000000  0.00000000
   0.25000000  0.00000000  0.25000000
   0.75000000  0.00000000  0.75000000
   0.50000000  0.00000000  0.50000000
   0.00000000  0.75000000  0.75000000
   0.00000000  0.25000000  0.25000000
   0.50000000  0.50000000  0.00000000
   0.37500000  0.37500000  0.37500000
   0.62500000  0.62500000  0.62500000
   0.37500000  0.87500000  0.87500000
   0.62500000  0.12500000  0.12500000
   0.87500000  0.87500000  0.37500000
   0.12500000  0.12500000  0.62500000
   0.87500000  0.37500000  0.87500000
   0.12500000  0.62500000  0.12500000
Al4C3 Fd-3m - r2SCAN H(P) scan @ 50 GPa 
           1
     7.853690    0.000000    0.000000
     0.000000    7.853690    0.000000
     0.000000    0.000000    7.853690
   Al   C 
    32    24
Direct configuration=     2
   0.76054981  0.76054981  0.76054981
   0.23945019  0.23945019  0.23945019
   0.98945019  0.48945019  0.26054981
   0.01054981  0.51054981  0.73945019
   0.48945019  0.26054981  0.98945019
   0.51054981  0.73945019  0.01054981
   0.26054981  0.98945019  0.48945019
   0.73945019  0.01054981  0.51054981
   0.51054981  0.01054981  0.73945019
   0.48945019  0.98945019  0.26054981
   0.01054981  0.73945019  0.51054981
   0.98945019  0.26054981  0.48945019
   0.73945019  0.51054981  0.01054981
   0.26054981  0.48945019  0.98945019
   0.76054981  0.26054981  0.26054981
   0.23945019  0.73945019  0.73945019
   0.98945019  0.98945019  0.76054981
   0.01054981  0.01054981  0.23945019
   0.48945019  0.76054981  0.48945019
   0.51054981  0.23945019  0.51054981
   0.51054981  0.51054981  0.23945019
   0.48945019  0.48945019  0.76054981
   0.01054981  0.23945019  0.01054981
   0.98945019  0.76054981  0.98945019
   0.26054981  0.76054981  0.26054981
   0.73945019  0.23945019  0.73945019
   0.76054981  0.98945019  0.98945019
   0.23945019  0.01054981  0.01054981
   0.23945019  0.51054981  0.51054981
   0.76054981  0.48945019  0.48945019
   0.26054981  0.26054981  0.76054981
   0.73945019  0.73945019  0.23945019
  -0.00000000  0.00000000 -0.00000000
   0.75000000  0.25000000  0.50000000
   0.25000000  0.75000000  0.50000000
   0.25000000  0.50000000  0.75000000
   0.75000000  0.50000000  0.25000000
   0.50000000  0.75000000  0.25000000
   0.50000000  0.25000000  0.75000000
  -0.00000000  0.50000000  0.50000000
   0.75000000  0.75000000 -0.00000000
   0.25000000  0.25000000 -0.00000000
   0.25000000  0.00000000  0.25000000
   0.75000000  0.00000000  0.75000000
   0.50000000  0.00000000  0.50000000
  -0.00000000  0.75000000  0.75000000
  -0.00000000  0.25000000  0.25000000
   0.50000000  0.50000000 -0.00000000
   0.37500000  0.37500000  0.37500000
   0.62500000  0.62500000  0.62500000
   0.37500000  0.87500000  0.87500000
   0.62500000  0.12500000  0.12500000
   0.87500000  0.87500000  0.37500000
   0.12500000  0.12500000  0.62500000
   0.87500000  0.37500000  0.87500000
   0.12500000  0.62500000  0.12500000
Al4C3 Fd-3m - r2SCAN H(P) scan @ 50 GPa 
           1
     8.004881    0.000000    0.000000
     0.000000    8.004881    0.000000
     0.000000    0.000000    8.004881
   Al   C 
    32    24
Direct configuration=     3
   0.76054199  0.76054199  0.76054199
   0.23945801  0.23945801  0.23945801
   0.98945801  0.48945801  0.26054199
   0.01054199  0.51054199  0.73945801
   0.48945801  0.26054199  0.98945801
   0.51054199  0.73945801  0.01054199
   0.26054199  0.98945801  0.48945801
   0.73945801  0.01054199  0.51054199
   0.51054199  0.01054199  0.73945801
   0.48945801  0.98945801  0.26054199
   0.01054199  0.73945801  0.51054199
   0.98945801  0.26054199  0.48945801
   0.73945801  0.51054199  0.01054199
   0.26054199  0.48945801  0.98945801
   0.76054199  0.26054199  0.26054199
   0.23945801  0.73945801  0.73945801
   0.98945801  0.98945801  0.76054199
   0.01054199  0.01054199  0.23945801
   0.48945801  0.76054199  0.48945801
   0.51054199  0.23945801  0.51054199
   0.51054199  0.51054199  0.23945801
   0.48945801  0.48945801  0.76054199
   0.01054199  0.23945801  0.01054199
   0.98945801  0.76054199  0.98945801
   0.26054199  0.76054199  0.26054199
   0.73945801  0.23945801  0.73945801
   0.76054199  0.98945801  0.98945801
   0.23945801  0.01054199  0.01054199
   0.23945801  0.51054199  0.51054199
   0.76054199  0.48945801  0.48945801
   0.26054199  0.26054199  0.76054199
   0.73945801  0.73945801  0.23945801
  -0.00000000  0.00000000 -0.00000000
   0.75000000  0.25000000  0.50000000
   0.25000000  0.75000000  0.50000000
   0.25000000  0.50000000  0.75000000
   0.75000000  0.50000000  0.25000000
   0.50000000  0.75000000  0.25000000
   0.50000000  0.25000000  0.75000000
  -0.00000000  0.50000000  0.50000000
   0.75000000  0.75000000 -0.00000000
   0.25000000  0.25000000 -0.00000000
   0.25000000  0.00000000  0.25000000
   0.75000000  0.00000000  0.75000000
   0.50000000  0.00000000  0.50000000
  -0.00000000  0.75000000  0.75000000
  -0.00000000  0.25000000  0.25000000
   0.50000000  0.50000000 -0.00000000
   0.37500000  0.37500000  0.37500000
   0.62500000  0.62500000  0.62500000
   0.37500000  0.87500000  0.87500000
   0.62500000  0.12500000  0.12500000
   0.87500000  0.87500000  0.37500000
   0.12500000  0.12500000  0.62500000
   0.87500000  0.37500000  0.87500000
   0.12500000  0.62500000  0.12500000
Al4C3 Fd-3m - r2SCAN H(P) scan @ 50 GPa 
           1
     8.003447    0.000000    0.000000
     0.000000    8.003447    0.000000
     0.000000    0.000000    8.003447
   Al   C 
    32    24
Direct configuration=     4
   0.76054206  0.76054206  0.76054206
   0.23945794  0.23945794  0.23945794
   0.98945794  0.48945794  0.26054206
   0.01054206  0.51054206  0.73945794
   0.48945794  0.26054206  0.98945794
   0.51054206  0.73945794  0.01054206
   0.26054206  0.98945794  0.48945794
   0.73945794  0.01054206  0.51054206
   0.51054206  0.01054206  0.73945794
   0.48945794  0.98945794  0.26054206
   0.01054206  0.73945794  0.51054206
   0.98945794  0.26054206  0.48945794
   0.73945794  0.51054206  0.01054206
   0.26054206  0.48945794  0.98945794
   0.76054206  0.26054206  0.26054206
   0.23945794  0.73945794  0.73945794
   0.98945794  0.98945794  0.76054206
   0.01054206  0.01054206  0.23945794
   0.48945794  0.76054206  0.48945794
   0.51054206  0.23945794  0.51054206
   0.51054206  0.51054206  0.23945794
   0.48945794  0.48945794  0.76054206
   0.01054206  0.23945794  0.01054206
   0.98945794  0.76054206  0.98945794
   0.26054206  0.76054206  0.26054206
   0.73945794  0.23945794  0.73945794
   0.76054206  0.98945794  0.98945794
   0.23945794  0.01054206  0.01054206
   0.23945794  0.51054206  0.51054206
   0.76054206  0.48945794  0.48945794
   0.26054206  0.26054206  0.76054206
   0.73945794  0.73945794  0.23945794
  -0.00000000  0.00000000 -0.00000000
   0.75000000  0.25000000  0.50000000
   0.25000000  0.75000000  0.50000000
   0.25000000  0.50000000  0.75000000
   0.75000000  0.50000000  0.25000000
   0.50000000  0.75000000  0.25000000
   0.50000000  0.25000000  0.75000000
  -0.00000000  0.50000000  0.50000000
   0.75000000  0.75000000 -0.00000000
   0.25000000  0.25000000 -0.00000000
   0.25000000  0.00000000  0.25000000
   0.75000000  0.00000000  0.75000000
   0.50000000  0.00000000  0.50000000
  -0.00000000  0.75000000  0.75000000
  -0.00000000  0.25000000  0.25000000
   0.50000000  0.50000000 -0.00000000
   0.37500000  0.37500000  0.37500000
   0.62500000  0.62500000  0.62500000
   0.37500000  0.87500000  0.87500000
   0.62500000  0.12500000  0.12500000
   0.87500000  0.87500000  0.37500000
   0.12500000  0.12500000  0.62500000
   0.87500000  0.37500000  0.87500000
   0.12500000  0.62500000  0.12500000
Al4C3 Fd-3m - r2SCAN H(P) scan @ 50 GPa 
           1
     8.001644    0.000000    0.000000
     0.000000    8.001644    0.000000
     0.000000    0.000000    8.001644
   Al   C 
    32    24
Direct configuration=     5
   0.76015756  0.76015756  0.76015756
   0.23984244  0.23984244  0.23984244
   0.98984244  0.48984244  0.26015756
   0.01015756  0.51015756  0.73984244
   0.48984244  0.26015756  0.98984244
   0.51015756  0.73984244  0.01015756
   0.26015756  0.98984244  0.48984244
   0.73984244  0.01015756  0.51015756
   0.51015756  0.01015756  0.73984244
   0.48984244  0.98984244  0.26015756
   0.01015756  0.73984244  0.51015756
   0.98984244  0.26015756  0.48984244
   0.73984244  0.51015756  0.01015756
   0.26015756  0.48984244  0.98984244
   0.76015756  0.26015756  0.26015756
   0.23984244  0.73984244  0.73984244
   0.98984244  0.98984244  0.76015756
   0.01015756  0.01015756  0.23984244
   0.48984244  0.76015756  0.48984244
   0.51015756  0.23984244  0.51015756
   0.51015756  0.51015756  0.23984244
   0.48984244  0.48984244  0.76015756
   0.01015756  0.23984244  0.01015756
   0.98984244  0.76015756  0.98984244
   0.26015756  0.76015756  0.26015756
   0.73984244  0.23984244  0.73984244
   0.76015756  0.98984244  0.98984244
   0.23984244  0.01015756  0.01015756
   0.23984244  0.51015756  0.51015756
   0.76015756  0.48984244  0.48984244
   0.26015756  0.26015756  0.76015756
   0.73984244  0.73984244  0.23984244
   0.00000000 -0.00000000  0.00000000
   0.75000000  0.25000000  0.50000000
   0.25000000  0.75000000  0.50000000
   0.25000000  0.50000000  0.75000000
   0.75000000  0.50000000  0.25000000
   0.50000000  0.75000000  0.25000000
   0.50000000  0.25000000  0.75000000
   0.00000000  0.50000000  0.50000000
   0.75000000  0.75000000  0.00000000
   0.25000000  0.25000000  0.00000000
   0.25000000 -0.00000000  0.25000000
   0.75000000 -0.00000000  0.75000000
   0.50000000 -0.00000000  0.50000000
   0.00000000  0.75000000  0.75000000
   0.00000000  0.25000000  0.25000000
   0.50000000  0.50000000  0.00000000
   0.37500000  0.37500000  0.37500000
   0.62500000  0.62500000  0.62500000
   0.37500000  0.87500000  0.87500000
   0.62500000  0.12500000  0.12500000
   0.87500000  0.87500000  0.37500000
   0.12500000  0.12500000  0.62500000
   0.87500000  0.37500000  0.87500000
   0.12500000  0.62500000  0.12500000
Al4C3 Fd-3m - r2SCAN H(P) scan @ 50 GPa 
           1
     8.002603    0.000000    0.000000
     0.000000    8.002603    0.000000
     0.000000    0.000000    8.002603
   Al   C 
    32    24
Direct configuration=     6
   0.76036214  0.76036214  0.76036214
   0.23963786  0.23963786  0.23963786
   0.98963786  0.48963786  0.26036214
   0.01036214  0.51036214  0.73963786
   0.48963786  0.26036214  0.98963786
   0.51036214  0.73963786  0.01036214
   0.26036214  0.98963786  0.48963786
   0.73963786  0.01036214  0.51036214
   0.51036214  0.01036214  0.73963786
   0.48963786  0.98963786  0.26036214
   0.01036214  0.73963786  0.51036214
   0.98963786  0.26036214  0.48963786
   0.73963786  0.51036214  0.01036214
   0.26036214  0.48963786  0.98963786
   0.76036214  0.26036214  0.26036214
   0.23963786  0.73963786  0.73963786
   0.98963786  0.98963786  0.76036214
   0.01036214  0.01036214  0.23963786
   0.48963786  0.76036214  0.48963786
   0.51036214  0.23963786  0.51036214
   0.51036214  0.51036214  0.23963786
   0.48963786  0.48963786  0.76036214
   0.01036214  0.23963786  0.01036214
   0.98963786  0.76036214  0.98963786
   0.26036214  0.76036214  0.26036214
   0.73963786  0.23963786  0.73963786
   0.76036214  0.98963786  0.98963786
   0.23963786  0.01036214  0.01036214
   0.23963786  0.51036214  0.51036214
   0.76036214  0.48963786  0.48963786
   0.26036214  0.26036214  0.76036214
   0.73963786  0.73963786  0.23963786
   0.00000000 -0.00000000  0.00000000
   0.75000000  0.25000000  0.50000000
   0.25000000  0.75000000  0.50000000
   0.25000000  0.50000000  0.75000000
   0.75000000  0.50000000  0.25000000
   0.50000000  0.75000000  0.25000000
   0.50000000  0.25000000  0.75000000
   0.00000000  0.50000000  0.50000000
   0.75000000  0.75000000  0.00000000
   0.25000000  0.25000000  0.00000000
   0.25000000 -0.00000000  0.25000000
   0.75000000 -0.00000000  0.75000000
   0.50000000 -0.00000000  0.50000000
   0.00000000  0.75000000  0.75000000
   0.00000000  0.25000000  0.25000000
   0.50000000  0.50000000  0.00000000
   0.37500000  0.37500000  0.37500000
   0.62500000  0.62500000  0.62500000
   0.37500000  0.87500000  0.87500000
   0.62500000  0.12500000  0.12500000
   0.87500000  0.87500000  0.37500000
   0.12500000  0.12500000  0.62500000
   0.87500000  0.37500000  0.87500000
   0.12500000  0.62500000  0.12500000
