  14  14   0   0
  0.7662291E+01  0.8159096E-09  0.4711133E-09  0.2790740E-09  0.5000000E-15
  1.000000000000000E-004
  CAR 
 Al4C3 Pbam - r2SCAN H(P) scan @ 100 GPa 
     24.47399440     -6.56075408  301     12.97293890      1.00000000
     -6.561  0.0000E+00  0.0000E+00
     -6.457  0.0000E+00  0.0000E+00
     -6.354  0.0000E+00  0.0000E+00
     -6.250  0.0000E+00  0.0000E+00
     -6.147  0.0000E+00  0.0000E+00
     -6.044  0.0000E+00  0.0000E+00
     -5.940  0.0000E+00  0.0000E+00
     -5.837  0.0000E+00  0.0000E+00
     -5.733  0.0000E+00  0.0000E+00
     -5.630  0.0000E+00  0.0000E+00
     -5.526  0.0000E+00  0.0000E+00
     -5.423  0.1757E-17  0.1817E-18
     -5.319  0.2423E-09  0.2507E-10
     -5.216  0.9005E-05  0.9316E-06
     -5.112  0.2531E-03  0.2712E-04
     -5.009  0.1264E-02  0.1578E-03
     -4.906  0.2320E-02  0.3979E-03
     -4.802  0.2415E-02  0.6477E-03
     -4.699  0.1853E-02  0.8394E-03
     -4.595  0.2084E-02  0.1055E-02
     -4.492  0.6177E-02  0.1694E-02
     -4.388  0.6170E-02  0.2332E-02
     -4.285  0.7893E-03  0.2414E-02
     -4.181  0.2394E-02  0.2662E-02
     -4.078  0.5926E-02  0.3275E-02
     -3.975  0.6985E-02  0.3997E-02
     -3.871  0.6221E-02  0.4641E-02
     -3.768  0.4856E-02  0.5143E-02
     -3.664  0.3945E-02  0.5551E-02
     -3.561  0.8094E-02  0.6388E-02
     -3.457  0.1021E-01  0.7444E-02
     -3.354  0.2901E-02  0.7744E-02
     -3.250  0.5567E-02  0.8320E-02
     -3.147  0.8214E-02  0.9170E-02
     -3.043  0.6136E-02  0.9805E-02
     -2.940  0.9243E-02  0.1076E-01
     -2.837  0.5146E-02  0.1129E-01
     -2.733  0.5029E-02  0.1181E-01
     -2.630  0.8572E-02  0.1270E-01
     -2.526  0.6139E-02  0.1334E-01
     -2.423  0.6651E-02  0.1402E-01
     -2.319  0.4024E-02  0.1444E-01
     -2.216  0.9962E-02  0.1547E-01
     -2.112  0.1536E-01  0.1706E-01
     -2.009  0.9134E-02  0.1800E-01
     -1.906  0.6383E-02  0.1866E-01
     -1.802  0.9300E-02  0.1963E-01
     -1.699  0.1564E-01  0.2124E-01
     -1.595  0.7888E-02  0.2206E-01
     -1.492  0.4840E-02  0.2256E-01
     -1.388  0.8964E-02  0.2349E-01
     -1.285  0.1259E-01  0.2479E-01
     -1.181  0.1197E-01  0.2603E-01
     -1.078  0.1254E-01  0.2733E-01
     -0.974  0.1329E-01  0.2870E-01
     -0.871  0.1415E-01  0.3017E-01
     -0.768  0.1275E-01  0.3148E-01
     -0.664  0.1520E-01  0.3306E-01
     -0.561  0.1614E-01  0.3473E-01
     -0.457  0.1987E-01  0.3678E-01
     -0.354  0.1438E-01  0.3827E-01
     -0.250  0.2247E-01  0.4059E-01
     -0.147  0.2580E-01  0.4326E-01
     -0.043  0.2141E-01  0.4548E-01
      0.060  0.9177E-02  0.4643E-01
      0.163  0.1636E-01  0.4812E-01
      0.267  0.1435E-01  0.4960E-01
      0.370  0.5427E-02  0.5016E-01
      0.474  0.7924E-02  0.5098E-01
      0.577  0.1361E-01  0.5239E-01
      0.681  0.8948E-02  0.5332E-01
      0.784  0.7181E-02  0.5406E-01
      0.888  0.5335E-02  0.5461E-01
      0.991  0.7757E-02  0.5542E-01
      1.094  0.8537E-02  0.5630E-01
      1.198  0.6078E-02  0.5693E-01
      1.301  0.2043E-02  0.5714E-01
      1.405  0.4162E-02  0.5757E-01
      1.508  0.3500E-02  0.5793E-01
      1.612  0.3868E-02  0.5833E-01
      1.715  0.3041E-02  0.5865E-01
      1.819  0.2649E-02  0.5892E-01
      1.922  0.1579E-02  0.5908E-01
      2.026  0.1507E-02  0.5924E-01
      2.129  0.1877E-02  0.5943E-01
      2.232  0.1024E-02  0.5954E-01
      2.336  0.2150E-02  0.5976E-01
      2.439  0.7191E-03  0.5984E-01
      2.543  0.7419E-03  0.5991E-01
      2.646  0.5387E-03  0.5997E-01
      2.750  0.8340E-04  0.5998E-01
      2.853  0.7435E-03  0.6005E-01
      2.957  0.1856E-02  0.6025E-01
      3.060  0.2738E-02  0.6053E-01
      3.163  0.2346E-02  0.6077E-01
      3.267  0.4238E-02  0.6121E-01
      3.370  0.8221E-02  0.6206E-01
      3.474  0.6203E-02  0.6270E-01
      3.577  0.1394E-01  0.6414E-01
      3.681  0.1859E-01  0.6607E-01
      3.784  0.1491E-01  0.6761E-01
      3.888  0.1815E-01  0.6949E-01
      3.991  0.1101E-01  0.7063E-01
      4.095  0.1423E-01  0.7210E-01
      4.198  0.1904E-01  0.7407E-01
      4.301  0.2045E-01  0.7618E-01
      4.405  0.2058E-01  0.7831E-01
      4.508  0.2453E-01  0.8085E-01
      4.612  0.1708E-01  0.8262E-01
      4.715  0.1375E-01  0.8404E-01
      4.819  0.1313E-01  0.8540E-01
      4.922  0.1107E-01  0.8654E-01
      5.026  0.1078E-01  0.8766E-01
      5.129  0.1477E-01  0.8919E-01
      5.232  0.1278E-01  0.9051E-01
      5.336  0.2117E-01  0.9270E-01
      5.439  0.1750E-01  0.9451E-01
      5.543  0.1857E-01  0.9643E-01
      5.646  0.1842E-01  0.9834E-01
      5.750  0.1901E-01  0.1003E+00
      5.853  0.1580E-01  0.1019E+00
      5.957  0.1280E-01  0.1033E+00
      6.060  0.1773E-01  0.1051E+00
      6.163  0.1634E-01  0.1068E+00
      6.267  0.1950E-01  0.1088E+00
      6.370  0.1463E-01  0.1103E+00
      6.474  0.1385E-01  0.1117E+00
      6.577  0.1772E-01  0.1136E+00
      6.681  0.1495E-01  0.1151E+00
      6.784  0.2299E-01  0.1175E+00
      6.888  0.2068E-01  0.1196E+00
      6.991  0.1640E-01  0.1213E+00
      7.095  0.1998E-01  0.1234E+00
      7.198  0.1775E-01  0.1252E+00
      7.301  0.1652E-01  0.1270E+00
      7.405  0.1718E-01  0.1287E+00
      7.508  0.2118E-01  0.1309E+00
      7.612  0.1966E-01  0.1330E+00
      7.715  0.2123E-01  0.1352E+00
      7.819  0.2069E-01  0.1373E+00
      7.922  0.1880E-01  0.1392E+00
      8.026  0.1939E-01  0.1412E+00
      8.129  0.2192E-01  0.1435E+00
      8.232  0.2188E-01  0.1458E+00
      8.336  0.2137E-01  0.1480E+00
      8.439  0.2220E-01  0.1503E+00
      8.543  0.2209E-01  0.1526E+00
      8.646  0.1018E-01  0.1536E+00
      8.750  0.1157E-01  0.1548E+00
      8.853  0.2212E-01  0.1571E+00
      8.957  0.2649E-01  0.1598E+00
      9.060  0.2330E-01  0.1623E+00
      9.164  0.2328E-01  0.1647E+00
      9.267  0.1574E-01  0.1663E+00
      9.370  0.1511E-01  0.1679E+00
      9.474  0.2359E-01  0.1703E+00
      9.577  0.2535E-01  0.1729E+00
      9.681  0.2034E-01  0.1750E+00
      9.784  0.2051E-01  0.1771E+00
      9.888  0.2003E-01  0.1792E+00
      9.991  0.2321E-01  0.1816E+00
     10.095  0.1802E-01  0.1835E+00
     10.198  0.1967E-01  0.1855E+00
     10.301  0.2333E-01  0.1879E+00
     10.405  0.2424E-01  0.1904E+00
     10.508  0.2920E-01  0.1935E+00
     10.612  0.2268E-01  0.1958E+00
     10.715  0.1773E-01  0.1976E+00
     10.819  0.2567E-01  0.2003E+00
     10.922  0.3052E-01  0.2035E+00
     11.026  0.2208E-01  0.2057E+00
     11.129  0.2391E-01  0.2082E+00
     11.233  0.2166E-01  0.2105E+00
     11.336  0.2029E-01  0.2126E+00
     11.439  0.2096E-01  0.2147E+00
     11.543  0.2044E-01  0.2168E+00
     11.646  0.2743E-01  0.2197E+00
     11.750  0.2968E-01  0.2227E+00
     11.853  0.2642E-01  0.2255E+00
     11.957  0.2946E-01  0.2285E+00
     12.060  0.2425E-01  0.2310E+00
     12.164  0.2201E-01  0.2333E+00
     12.267  0.1858E-01  0.2352E+00
     12.370  0.1179E-01  0.2364E+00
     12.474  0.1094E-01  0.2376E+00
     12.577  0.6288E-02  0.2382E+00
     12.681  0.7826E-02  0.2390E+00
     12.784  0.3779E-02  0.2394E+00
     12.888  0.3572E-02  0.2398E+00
     12.991  0.2349E-02  0.2400E+00
     13.095  0.1471E-02  0.2402E+00
     13.198  0.7671E-03  0.2403E+00
     13.301  0.1833E-02  0.2405E+00
     13.405  0.1458E-02  0.2406E+00
     13.508  0.8358E-04  0.2406E+00
     13.612  0.1072E-02  0.2407E+00
     13.715  0.1256E-02  0.2409E+00
     13.819  0.1625E-02  0.2410E+00
     13.922  0.9238E-03  0.2411E+00
     14.026  0.5883E-03  0.2412E+00
     14.129  0.7838E-03  0.2413E+00
     14.233  0.3267E-02  0.2416E+00
     14.336  0.3739E-02  0.2420E+00
     14.439  0.2480E-02  0.2423E+00
     14.543  0.2172E-02  0.2425E+00
     14.646  0.4944E-02  0.2430E+00
     14.750  0.1654E-02  0.2432E+00
     14.853  0.3042E-02  0.2435E+00
     14.957  0.3008E-02  0.2438E+00
     15.060  0.6064E-02  0.2444E+00
     15.164  0.4480E-02  0.2449E+00
     15.267  0.5416E-03  0.2449E+00
     15.370  0.2718E-02  0.2452E+00
     15.474  0.4139E-02  0.2456E+00
     15.577  0.6951E-02  0.2464E+00
     15.681  0.1037E-01  0.2474E+00
     15.784  0.8402E-02  0.2483E+00
     15.888  0.8649E-02  0.2492E+00
     15.991  0.6846E-02  0.2499E+00
     16.095  0.1199E-01  0.2511E+00
     16.198  0.1327E-01  0.2525E+00
     16.302  0.1091E-01  0.2536E+00
     16.405  0.1483E-01  0.2552E+00
     16.508  0.1111E-01  0.2563E+00
     16.612  0.2089E-01  0.2585E+00
     16.715  0.1599E-01  0.2601E+00
     16.819  0.1196E-01  0.2614E+00
     16.922  0.1174E-01  0.2626E+00
     17.026  0.1071E-01  0.2637E+00
     17.129  0.1440E-01  0.2652E+00
     17.233  0.1592E-01  0.2668E+00
     17.336  0.1587E-01  0.2685E+00
     17.439  0.1583E-01  0.2701E+00
     17.543  0.2236E-01  0.2724E+00
     17.646  0.2018E-01  0.2745E+00
     17.750  0.1591E-01  0.2762E+00
     17.853  0.1132E-01  0.2773E+00
     17.957  0.6470E-02  0.2780E+00
     18.060  0.1159E-01  0.2792E+00
     18.164  0.1213E-01  0.2805E+00
     18.267  0.9935E-02  0.2815E+00
     18.370  0.7671E-02  0.2823E+00
     18.474  0.1152E-01  0.2835E+00
     18.577  0.1931E-01  0.2855E+00
     18.681  0.1277E-01  0.2868E+00
     18.784  0.8369E-02  0.2877E+00
     18.888  0.1728E-01  0.2894E+00
     18.991  0.1582E-01  0.2911E+00
     19.095  0.8781E-02  0.2920E+00
     19.198  0.1545E-01  0.2936E+00
     19.302  0.1699E-01  0.2954E+00
     19.405  0.1802E-01  0.2972E+00
     19.508  0.1848E-01  0.2991E+00
     19.612  0.2146E-01  0.3013E+00
     19.715  0.2317E-01  0.3037E+00
     19.819  0.1788E-01  0.3056E+00
     19.922  0.2401E-01  0.3081E+00
     20.026  0.1921E-01  0.3101E+00
     20.129  0.1887E-01  0.3120E+00
     20.233  0.1647E-01  0.3137E+00
     20.336  0.1731E-01  0.3155E+00
     20.439  0.2352E-01  0.3179E+00
     20.543  0.2378E-01  0.3204E+00
     20.646  0.1927E-01  0.3224E+00
     20.750  0.1653E-01  0.3241E+00
     20.853  0.1915E-01  0.3261E+00
     20.957  0.1939E-01  0.3281E+00
     21.060  0.2053E-01  0.3302E+00
     21.164  0.1743E-01  0.3320E+00
     21.267  0.1996E-01  0.3341E+00
     21.371  0.2019E-01  0.3362E+00
     21.474  0.2176E-01  0.3384E+00
     21.577  0.2321E-01  0.3408E+00
     21.681  0.2036E-01  0.3429E+00
     21.784  0.2093E-01  0.3451E+00
     21.888  0.1729E-01  0.3469E+00
     21.991  0.2084E-01  0.3490E+00
     22.095  0.1797E-01  0.3509E+00
     22.198  0.2089E-01  0.3531E+00
     22.302  0.1874E-01  0.3550E+00
     22.405  0.1035E-01  0.3561E+00
     22.508  0.1043E-01  0.3572E+00
     22.612  0.1041E-01  0.3582E+00
     22.715  0.8908E-02  0.3591E+00
     22.819  0.3623E-02  0.3595E+00
     22.922  0.1675E-02  0.3597E+00
     23.026  0.1271E-02  0.3598E+00
     23.129  0.1625E-02  0.3600E+00
     23.233  0.3829E-04  0.3600E+00
     23.336  0.7503E-09  0.3600E+00
     23.440  0.4536E-17  0.3600E+00
     23.543  0.0000E+00  0.3600E+00
     23.646  0.0000E+00  0.3600E+00
     23.750  0.0000E+00  0.3600E+00
     23.853  0.0000E+00  0.3600E+00
     23.957  0.0000E+00  0.3600E+00
     24.060  0.0000E+00  0.3600E+00
     24.164  0.0000E+00  0.3600E+00
     24.267  0.0000E+00  0.3600E+00
     24.371  0.0000E+00  0.3600E+00
     24.474  0.0000E+00  0.3600E+00
