       N       E                     dE             d eps       ncg     rms          rms(c)
DAV:   1    -0.112913948915E+03   -0.11291E+03   -0.23388E+00  6060   0.954E+00    0.668E+00
DAV:   2    -0.105382956739E+03    0.75310E+01   -0.63568E-01  6576   0.579E+00    0.479E+00
DAV:   3    -0.105582538137E+03   -0.19958E+00   -0.89776E-02  7584   0.187E+00    0.365E+00
DAV:   4    -0.105598510391E+03   -0.15972E-01   -0.42090E-02  7392   0.981E-01    0.995E-01
DAV:   5    -0.105600407923E+03   -0.18975E-02   -0.13834E-03  7536   0.226E-01    0.314E-01
DAV:   6    -0.105600631255E+03   -0.22333E-03   -0.49945E-04  7284   0.107E-01    0.166E-01
DAV:   7    -0.105600715834E+03   -0.84579E-04   -0.43201E-05  7332   0.417E-02    0.771E-02
DAV:   8    -0.105600725181E+03   -0.93464E-05   -0.39165E-05  7104   0.353E-02
   1 F= -.38646788E+02 E0= -.38646525E+02  d E =-.386468E+02
       N       E                     dE             d eps       ncg     rms          rms(c)
DAV:   1    -0.103948569548E+03    0.16521E+01   -0.97372E-01  6648   0.558E+00    0.934E-01
DAV:   2    -0.103941557032E+03    0.70125E-02   -0.41939E-02  7692   0.997E-01    0.511E-01
DAV:   3    -0.103941717137E+03   -0.16010E-03   -0.57212E-03  7212   0.328E-01    0.189E-01
DAV:   4    -0.103942047436E+03   -0.33030E-03   -0.21476E-04  7632   0.780E-02    0.108E-01
DAV:   5    -0.103942093072E+03   -0.45636E-04   -0.61785E-05  6912   0.389E-02    0.788E-02
DAV:   6    -0.103942194592E+03   -0.10152E-03   -0.25734E-05  5112   0.371E-02    0.805E-03
DAV:   7    -0.103942192231E+03    0.23608E-05   -0.19592E-06  3648   0.822E-03
   2 F= -.38598417E+02 E0= -.38598106E+02  d E =0.483712E-01
       N       E                     dE             d eps       ncg     rms          rms(c)
DAV:   1    -0.105149862850E+03   -0.12077E+01   -0.48747E-01  6732   0.391E+00    0.675E-01
DAV:   2    -0.105145642631E+03    0.42202E-02   -0.21826E-02  7656   0.712E-01    0.368E-01
DAV:   3    -0.105145228557E+03    0.41407E-03   -0.26874E-03  7296   0.226E-01    0.140E-01
DAV:   4    -0.105145144041E+03    0.84517E-04   -0.10674E-04  7572   0.557E-02    0.776E-02
DAV:   5    -0.105145106900E+03    0.37140E-04   -0.25418E-05  5292   0.259E-02    0.539E-02
DAV:   6    -0.105145039653E+03    0.67247E-04   -0.16368E-05  4200   0.295E-02    0.733E-03
DAV:   7    -0.105145041827E+03   -0.21744E-05   -0.13982E-06  3540   0.683E-03
   3 F= -.38655896E+02 E0= -.38655620E+02  d E =-.910745E-02
       N       E                     dE             d eps       ncg     rms          rms(c)
DAV:   1    -0.105156133550E+03   -0.11094E-01   -0.45391E-05  6744   0.378E-02    0.606E-03
DAV:   2    -0.105156130327E+03    0.32225E-05   -0.19790E-06  3348   0.706E-03
   4 F= -.38655904E+02 E0= -.38655628E+02  d E =-.911571E-02
       N       E                     dE             d eps       ncg     rms          rms(c)
DAV:   1    -0.105178465412E+03   -0.22332E-01   -0.58606E-02  6084   0.126E+00    0.508E-02
DAV:   2    -0.105178402343E+03    0.63069E-04   -0.74725E-04  7836   0.147E-01    0.323E-02
DAV:   3    -0.105178389017E+03    0.13326E-04   -0.46732E-05  7464   0.376E-02    0.193E-02
DAV:   4    -0.105178384458E+03    0.45591E-05   -0.19478E-05  5892   0.247E-02
   5 F= -.38656289E+02 E0= -.38656011E+02  d E =-.385690E-03
       N       E                     dE             d eps       ncg     rms          rms(c)
DAV:   1    -0.105177121562E+03    0.12675E-02   -0.20342E-04  6156   0.753E-02    0.388E-03
DAV:   2    -0.105177121093E+03    0.46891E-06   -0.37639E-06  3312   0.975E-03
   6 F= -.38656291E+02 E0= -.38656013E+02  d E =-.387166E-03
       N       E                     dE             d eps       ncg     rms          rms(c)
DAV:   1    -0.105175380437E+03    0.17411E-02   -0.66122E-03  6048   0.427E-01    0.179E-02
DAV:   2    -0.105175384394E+03   -0.39570E-05   -0.88582E-05  7824   0.542E-02
   7 F= -.38656416E+02 E0= -.38656128E+02  d E =-.124791E-03
       N       E                     dE             d eps       ncg     rms          rms(c)
DAV:   1    -0.105173536366E+03    0.18441E-02   -0.68263E-03  6048   0.434E-01    0.239E-02
DAV:   2    -0.105173534357E+03    0.20089E-05   -0.81733E-05  7872   0.543E-02
   8 F= -.38656462E+02 E0= -.38656164E+02  d E =-.170797E-03
       N       E                     dE             d eps       ncg     rms          rms(c)
DAV:   1    -0.105177204259E+03   -0.36679E-02   -0.18235E-03  6156   0.236E-01    0.137E-02
DAV:   2    -0.105177212397E+03   -0.81377E-05   -0.33622E-05  7788   0.307E-02
   9 F= -.38656533E+02 E0= -.38656225E+02  d E =-.715885E-04
       N       E                     dE             d eps       ncg     rms          rms(c)
DAV:   1    -0.105178136833E+03   -0.93257E-03   -0.12298E-04  6300   0.608E-02    0.848E-03
DAV:   2    -0.105178140003E+03   -0.31699E-05   -0.18417E-06  3600   0.764E-03
  10 F= -.38656542E+02 E0= -.38656231E+02  d E =-.806914E-04
