Al4C3 Pbam - r2SCAN H(P) scan @ 100 GPa 
           1
     8.159096    0.000000    0.000000
     0.000000    4.711133    0.000000
     0.000000    0.000000    2.790740
   Al   C 
     8     6
Direct configuration=     1
   0.78596880  0.16000032  0.00000000
   0.21403120  0.83999968  0.00000000
   0.71403120  0.66000032  0.00000000
   0.28596880  0.33999968  0.00000000
   0.03394210  0.25290237  0.50000000
   0.96605792  0.74709763  0.50000000
   0.46605789  0.75290237  0.50000000
   0.53394208  0.24709763  0.50000000
   0.00000000  0.00000000  0.00000000
   0.50000000  0.50000000  0.00000000
   0.82336595  0.44281708  0.50000000
   0.17663405  0.55718292  0.50000000
   0.67663405  0.94281708  0.50000000
   0.32336595  0.05718292  0.50000000
Al4C3 Pbam - r2SCAN H(P) scan @ 100 GPa 
           1
     8.093159    0.000000    0.000000
     0.000000    4.673060    0.000000
     0.000000    0.000000    2.768187
   Al   C 
     8     6
Direct configuration=     2
   0.78616050  0.16006058  0.00000000
   0.21383950  0.83993942 -0.00000000
   0.71383950  0.66006058  0.00000000
   0.28616050  0.33993942 -0.00000000
   0.03356651  0.25219638  0.50000000
   0.96643351  0.74780362  0.50000000
   0.46643348  0.75219638  0.50000000
   0.53356649  0.24780362  0.50000000
   0.00000000  0.00000000  0.00000000
   0.50000000  0.50000000  0.00000000
   0.82407742  0.44312810  0.50000000
   0.17592258  0.55687190  0.50000000
   0.67592258  0.94312810  0.50000000
   0.32407742  0.05687190  0.50000000
Al4C3 Pbam - r2SCAN H(P) scan @ 100 GPa 
           1
     8.140172    0.000000    0.000000
     0.000000    4.700206    0.000000
     0.000000    0.000000    2.784267
   Al   C 
     8     6
Direct configuration=     3
   0.78602271  0.16001726  0.00000000
   0.21397729  0.83998274 -0.00000000
   0.71397729  0.66001726  0.00000000
   0.28602271  0.33998274 -0.00000000
   0.03383649  0.25270385  0.50000000
   0.96616353  0.74729615  0.50000000
   0.46616350  0.75270385  0.50000000
   0.53383647  0.24729615  0.50000000
   0.00000000  0.00000000  0.00000000
   0.50000000  0.50000000  0.00000000
   0.82356601  0.44290453  0.50000000
   0.17643399  0.55709547  0.50000000
   0.67643399  0.94290453  0.50000000
   0.32356601  0.05709547  0.50000000
Al4C3 Pbam - r2SCAN H(P) scan @ 100 GPa 
           1
     8.140624    0.000000    0.000000
     0.000000    4.700467    0.000000
     0.000000    0.000000    2.784422
   Al   C 
     8     6
Direct configuration=     4
   0.78602139  0.16001685  0.00000000
   0.21397861  0.83998315 -0.00000000
   0.71397861  0.66001685  0.00000000
   0.28602139  0.33998315 -0.00000000
   0.03383907  0.25270870  0.50000000
   0.96616095  0.74729130  0.50000000
   0.46616092  0.75270870  0.50000000
   0.53383905  0.24729130  0.50000000
   0.00000000  0.00000000  0.00000000
   0.50000000  0.50000000  0.00000000
   0.82356112  0.44290240  0.50000000
   0.17643888  0.55709760  0.50000000
   0.67643888  0.94290240  0.50000000
   0.32356112  0.05709760  0.50000000
Al4C3 Pbam - r2SCAN H(P) scan @ 100 GPa 
           1
     8.141517    0.000000    0.000000
     0.000000    4.700982    0.000000
     0.000000    0.000000    2.784727
   Al   C 
     8     6
Direct configuration=     5
   0.78594864  0.16017174  0.00000000
   0.21405136  0.83982826 -0.00000000
   0.71405136  0.66017174  0.00000000
   0.28594864  0.33982826 -0.00000000
   0.03376806  0.25251723  0.50000000
   0.96623197  0.74748277  0.50000000
   0.46623194  0.75251723  0.50000000
   0.53376803  0.24748277  0.50000000
   0.00000000  0.00000000  0.00000000
   0.50000000  0.50000000  0.00000000
   0.82385038  0.44306789  0.50000000
   0.17614962  0.55693211  0.50000000
   0.67614962  0.94306789  0.50000000
   0.32385038  0.05693211  0.50000000
Al4C3 Pbam - r2SCAN H(P) scan @ 100 GPa 
           1
     8.141465    0.000000    0.000000
     0.000000    4.700952    0.000000
     0.000000    0.000000    2.784709
   Al   C 
     8     6
Direct configuration=     6
   0.78595285  0.16016278  0.00000000
   0.21404715  0.83983722 -0.00000000
   0.71404715  0.66016278  0.00000000
   0.28595285  0.33983722 -0.00000000
   0.03377216  0.25252830  0.50000000
   0.96622786  0.74747170  0.50000000
   0.46622783  0.75252830  0.50000000
   0.53377214  0.24747170  0.50000000
   0.00000000  0.00000000  0.00000000
   0.50000000  0.50000000  0.00000000
   0.82383366  0.44305832  0.50000000
   0.17616634  0.55694168  0.50000000
   0.67616634  0.94305832  0.50000000
   0.32383366  0.05694168  0.50000000
Al4C3 Pbam - r2SCAN H(P) scan @ 100 GPa 
           1
     8.141389    0.000000    0.000000
     0.000000    4.700908    0.000000
     0.000000    0.000000    2.784683
   Al   C 
     8     6
Direct configuration=     7
   0.78586122  0.16032220  0.00000000
   0.21413878  0.83967780 -0.00000000
   0.71413878  0.66032220  0.00000000
   0.28586122  0.33967780 -0.00000000
   0.03371597  0.25253701  0.50000000
   0.96628405  0.74746299  0.50000000
   0.46628402  0.75253701  0.50000000
   0.53371595  0.24746299  0.50000000
   0.00000000  0.00000000  0.00000000
   0.50000000  0.50000000  0.00000000
   0.82382569  0.44322593  0.50000000
   0.17617431  0.55677407  0.50000000
   0.67617431  0.94322593  0.50000000
   0.32382569  0.05677407  0.50000000
Al4C3 Pbam - r2SCAN H(P) scan @ 100 GPa 
           1
     8.141312    0.000000    0.000000
     0.000000    4.700864    0.000000
     0.000000    0.000000    2.784657
   Al   C 
     8     6
Direct configuration=     8
   0.78576789  0.16048458  0.00000000
   0.21423211  0.83951542 -0.00000000
   0.71423211  0.66048458  0.00000000
   0.28576789  0.33951542 -0.00000000
   0.03365874  0.25254588  0.50000000
   0.96634128  0.74745412  0.50000000
   0.46634125  0.75254588  0.50000000
   0.53365872  0.24745412  0.50000000
   0.00000000  0.00000000  0.00000000
   0.50000000  0.50000000  0.00000000
   0.82381757  0.44339665  0.50000000
   0.17618243  0.55660335  0.50000000
   0.67618243  0.94339665  0.50000000
   0.32381757  0.05660335  0.50000000
Al4C3 Pbam - r2SCAN H(P) scan @ 100 GPa 
           1
     8.141459    0.000000    0.000000
     0.000000    4.700949    0.000000
     0.000000    0.000000    2.784707
   Al   C 
     8     6
Direct configuration=     9
   0.78576762  0.16066396  0.00000000
   0.21423238  0.83933604 -0.00000000
   0.71423238  0.66066396  0.00000000
   0.28576762  0.33933604 -0.00000000
   0.03355766  0.25251847  0.50000000
   0.96644237  0.74748153  0.50000000
   0.46644234  0.75251847  0.50000000
   0.53355763  0.24748153  0.50000000
   0.00000000  0.00000000  0.00000000
   0.50000000  0.50000000  0.00000000
   0.82379899  0.44347214  0.50000000
   0.17620101  0.55652786  0.50000000
   0.67620101  0.94347214  0.50000000
   0.32379899  0.05652786  0.50000000
Al4C3 Pbam - r2SCAN H(P) scan @ 100 GPa 
           1
     8.141496    0.000000    0.000000
     0.000000    4.700970    0.000000
     0.000000    0.000000    2.784720
   Al   C 
     8     6
Direct configuration=    10
   0.78576756  0.16070964  0.00000000
   0.21423244  0.83929036 -0.00000000
   0.71423244  0.66070964  0.00000000
   0.28576756  0.33929036 -0.00000000
   0.03353191  0.25251150  0.50000000
   0.96646811  0.74748850  0.50000000
   0.46646808  0.75251150  0.50000000
   0.53353189  0.24748850  0.50000000
   0.00000000  0.00000000  0.00000000
   0.50000000  0.50000000  0.00000000
   0.82379426  0.44349136  0.50000000
   0.17620574  0.55650864  0.50000000
   0.67620574  0.94349136  0.50000000
   0.32379426  0.05650864  0.50000000
