Al4C3 anti-CaFe2O4-type, volume pre-scal
   1.00000000000000     
     2.7900451726561628    0.0000000000000000    0.0000000000000000
     0.0000000000000000    8.5236114258706834    0.0000000000000000
     0.0000000000000000    0.0000000000000000    9.8875304351378670
   Al   C 
    16    12
Direct
  0.2500000000000000  0.4245267340863990  0.5873716912218541
  0.7500000000000000  0.5754732659136010  0.4126283087781459
  0.2500000000000000  0.9245267340863990  0.9126283087781459
  0.7500000000000000  0.0754732659136010  0.0873716912218541
  0.2500000000000000  0.4800601400098898  0.2061656728190329
  0.7500000000000000  0.5199398599901102  0.7938343271809671
  0.2500000000000000  0.9800601400098898  0.2938343271809671
  0.7500000000000000  0.0199398599901102  0.7061656728190329
  0.2500000000000000  0.1484441334435687  0.5143475653135141
  0.7500000000000000  0.8515558665564242  0.4856524346864859
  0.2500000000000000  0.6484441334435758  0.9856524346864859
  0.7500000000000000  0.3515558665564313  0.0143475653135141
  0.7500000000000000  0.2662336654069293  0.3000390016478320
  0.2500000000000000  0.7337663345930707  0.6999609983521680
  0.2500000000000000  0.2337663345930707  0.8000390016478320
  0.7500000000000000  0.7662336654069293  0.1999609983521680
  0.7500000000000000  0.7536300515530598  0.8590001755942538
  0.2500000000000000  0.2463699484469402  0.1409998244057462
  0.7500000000000000  0.2536300515530598  0.6409998244057462
  0.2500000000000000  0.7463699484469402  0.3590001755942538
  0.2500000000000000  0.9301796991213749  0.6107702309581455
  0.7500000000000000  0.5698203008786251  0.1107702309581455
  0.2500000000000000  0.4301796991213749  0.8892297690418545
  0.7500000000000000  0.0698203008786251  0.3892297690418545
  0.7500000000000000  0.0968949186839723  0.8893454137177415
  0.2500000000000000  0.9031050813160277  0.1106545862822585
  0.7500000000000000  0.5968949186839723  0.6106545862822585
  0.2500000000000000  0.4031050813160277  0.3893454137177415
 
  0.00000000E+00  0.00000000E+00  0.00000000E+00
  0.00000000E+00  0.00000000E+00  0.00000000E+00
  0.00000000E+00  0.00000000E+00  0.00000000E+00
  0.00000000E+00  0.00000000E+00  0.00000000E+00
  0.00000000E+00  0.00000000E+00  0.00000000E+00
  0.00000000E+00  0.00000000E+00  0.00000000E+00
  0.00000000E+00  0.00000000E+00  0.00000000E+00
  0.00000000E+00  0.00000000E+00  0.00000000E+00
  0.00000000E+00  0.00000000E+00  0.00000000E+00
  0.00000000E+00  0.00000000E+00  0.00000000E+00
  0.00000000E+00  0.00000000E+00  0.00000000E+00
  0.00000000E+00  0.00000000E+00  0.00000000E+00
  0.00000000E+00  0.00000000E+00  0.00000000E+00
  0.00000000E+00  0.00000000E+00  0.00000000E+00
  0.00000000E+00  0.00000000E+00  0.00000000E+00
  0.00000000E+00  0.00000000E+00  0.00000000E+00
  0.00000000E+00  0.00000000E+00  0.00000000E+00
  0.00000000E+00  0.00000000E+00  0.00000000E+00
  0.00000000E+00  0.00000000E+00  0.00000000E+00
  0.00000000E+00  0.00000000E+00  0.00000000E+00
  0.00000000E+00  0.00000000E+00  0.00000000E+00
  0.00000000E+00  0.00000000E+00  0.00000000E+00
  0.00000000E+00  0.00000000E+00  0.00000000E+00
  0.00000000E+00  0.00000000E+00  0.00000000E+00
  0.00000000E+00  0.00000000E+00  0.00000000E+00
  0.00000000E+00  0.00000000E+00  0.00000000E+00
  0.00000000E+00  0.00000000E+00  0.00000000E+00
  0.00000000E+00  0.00000000E+00  0.00000000E+00
