  28  28   0   0
  0.8397784E+01  0.2790045E-09  0.8523612E-09  0.9887531E-09  0.5000000E-15
  1.000000000000000E-004
  CAR 
 Al4C3 anti-CaFe2O4 - H(P) scan @ 50 GPa 
     20.64100770     -5.86613910  301     12.51352993      1.00000000
     -5.866  0.0000E+00  0.0000E+00
     -5.778  0.0000E+00  0.0000E+00
     -5.689  0.0000E+00  0.0000E+00
     -5.601  0.0000E+00  0.0000E+00
     -5.513  0.0000E+00  0.0000E+00
     -5.424  0.0000E+00  0.0000E+00
     -5.336  0.0000E+00  0.0000E+00
     -5.248  0.0000E+00  0.0000E+00
     -5.159  0.0000E+00  0.0000E+00
     -5.071  0.0000E+00  0.0000E+00
     -4.983  0.0000E+00  0.0000E+00
     -4.894  0.1309E-13  0.1156E-14
     -4.806  0.1274E-07  0.1126E-08
     -4.717  0.3299E-04  0.2916E-05
     -4.629  0.5815E-03  0.5430E-04
     -4.541  0.2539E-02  0.2786E-03
     -4.452  0.5076E-02  0.7271E-03
     -4.364  0.5376E-02  0.1202E-02
     -4.276  0.4219E-02  0.1575E-02
     -4.187  0.6517E-02  0.2151E-02
     -4.099  0.1112E-01  0.3134E-02
     -4.011  0.1078E-01  0.4086E-02
     -3.922  0.5816E-02  0.4600E-02
     -3.834  0.7230E-02  0.5239E-02
     -3.746  0.1295E-01  0.6383E-02
     -3.657  0.8138E-02  0.7102E-02
     -3.569  0.7478E-02  0.7763E-02
     -3.480  0.1114E-01  0.8747E-02
     -3.392  0.1572E-01  0.1014E-01
     -3.304  0.1352E-01  0.1133E-01
     -3.215  0.1311E-01  0.1249E-01
     -3.127  0.1026E-01  0.1340E-01
     -3.039  0.1079E-01  0.1435E-01
     -2.950  0.1472E-01  0.1565E-01
     -2.862  0.1820E-01  0.1726E-01
     -2.774  0.1168E-01  0.1829E-01
     -2.685  0.1386E-01  0.1951E-01
     -2.597  0.1018E-01  0.2041E-01
     -2.509  0.2048E-01  0.2222E-01
     -2.420  0.2649E-01  0.2456E-01
     -2.332  0.1781E-01  0.2614E-01
     -2.243  0.1169E-01  0.2717E-01
     -2.155  0.1445E-01  0.2845E-01
     -2.067  0.1560E-01  0.2983E-01
     -1.978  0.1711E-01  0.3134E-01
     -1.890  0.1707E-01  0.3285E-01
     -1.802  0.2526E-01  0.3508E-01
     -1.713  0.2264E-01  0.3708E-01
     -1.625  0.2118E-01  0.3895E-01
     -1.537  0.2401E-01  0.4107E-01
     -1.448  0.3005E-01  0.4373E-01
     -1.360  0.2132E-01  0.4561E-01
     -1.272  0.2063E-01  0.4743E-01
     -1.183  0.1618E-01  0.4886E-01
     -1.095  0.1411E-01  0.5011E-01
     -1.006  0.2529E-01  0.5234E-01
     -0.918  0.3867E-01  0.5576E-01
     -0.830  0.3243E-01  0.5863E-01
     -0.741  0.2978E-01  0.6126E-01
     -0.653  0.3761E-01  0.6458E-01
     -0.565  0.2934E-01  0.6717E-01
     -0.476  0.3506E-01  0.7027E-01
     -0.388  0.3593E-01  0.7345E-01
     -0.300  0.3126E-01  0.7621E-01
     -0.211  0.4128E-01  0.7986E-01
     -0.123  0.3809E-01  0.8322E-01
     -0.035  0.4145E-01  0.8688E-01
      0.054  0.4036E-01  0.9045E-01
      0.142  0.4680E-01  0.9458E-01
      0.231  0.4165E-01  0.9826E-01
      0.319  0.2750E-01  0.1007E+00
      0.407  0.2034E-01  0.1025E+00
      0.496  0.1446E-01  0.1038E+00
      0.584  0.1906E-01  0.1055E+00
      0.672  0.8597E-02  0.1062E+00
      0.761  0.1684E-01  0.1077E+00
      0.849  0.1484E-01  0.1090E+00
      0.937  0.1278E-01  0.1101E+00
      1.026  0.1138E-01  0.1111E+00
      1.114  0.1816E-01  0.1128E+00
      1.202  0.1086E-01  0.1137E+00
      1.291  0.7688E-02  0.1144E+00
      1.379  0.1360E-01  0.1156E+00
      1.468  0.1344E-01  0.1168E+00
      1.556  0.7138E-02  0.1174E+00
      1.644  0.6098E-02  0.1179E+00
      1.733  0.1087E-01  0.1189E+00
      1.821  0.7997E-02  0.1196E+00
      1.909  0.3994E-02  0.1200E+00
      1.998  0.3669E-03  0.1200E+00
      2.086  0.3715E-06  0.1200E+00
      2.174  0.2336E-07  0.1200E+00
      2.263  0.6425E-04  0.1200E+00
      2.351  0.1127E-02  0.1201E+00
      2.439  0.2705E-02  0.1203E+00
      2.528  0.4550E-02  0.1207E+00
      2.616  0.5304E-02  0.1212E+00
      2.705  0.5648E-02  0.1217E+00
      2.793  0.8566E-02  0.1225E+00
      2.881  0.9862E-02  0.1233E+00
      2.970  0.1497E-01  0.1247E+00
      3.058  0.1669E-01  0.1261E+00
      3.146  0.1403E-01  0.1274E+00
      3.235  0.2598E-01  0.1297E+00
      3.323  0.3918E-01  0.1331E+00
      3.411  0.3608E-01  0.1363E+00
      3.500  0.2891E-01  0.1389E+00
      3.588  0.3171E-01  0.1417E+00
      3.676  0.3079E-01  0.1444E+00
      3.765  0.3468E-01  0.1475E+00
      3.853  0.3710E-01  0.1507E+00
      3.942  0.3947E-01  0.1542E+00
      4.030  0.3549E-01  0.1574E+00
      4.118  0.4360E-01  0.1612E+00
      4.207  0.5375E-01  0.1660E+00
      4.295  0.3530E-01  0.1691E+00
      4.383  0.2342E-01  0.1712E+00
      4.472  0.4826E-01  0.1754E+00
      4.560  0.3569E-01  0.1786E+00
      4.648  0.2250E-01  0.1806E+00
      4.737  0.3270E-01  0.1835E+00
      4.825  0.2801E-01  0.1859E+00
      4.913  0.3551E-01  0.1891E+00
      5.002  0.4523E-01  0.1931E+00
      5.090  0.3178E-01  0.1959E+00
      5.179  0.2882E-01  0.1984E+00
      5.267  0.3198E-01  0.2012E+00
      5.355  0.2954E-01  0.2039E+00
      5.444  0.4080E-01  0.2075E+00
      5.532  0.5654E-01  0.2125E+00
      5.620  0.3421E-01  0.2155E+00
      5.709  0.2936E-01  0.2181E+00
      5.797  0.3868E-01  0.2215E+00
      5.885  0.3371E-01  0.2245E+00
      5.974  0.3177E-01  0.2273E+00
      6.062  0.3501E-01  0.2304E+00
      6.150  0.3369E-01  0.2333E+00
      6.239  0.3891E-01  0.2368E+00
      6.327  0.4099E-01  0.2404E+00
      6.416  0.3864E-01  0.2438E+00
      6.504  0.3962E-01  0.2473E+00
      6.592  0.3413E-01  0.2503E+00
      6.681  0.4679E-01  0.2545E+00
      6.769  0.4625E-01  0.2586E+00
      6.857  0.4516E-01  0.2625E+00
      6.946  0.3849E-01  0.2659E+00
      7.034  0.4463E-01  0.2699E+00
      7.122  0.5247E-01  0.2745E+00
      7.211  0.4635E-01  0.2786E+00
      7.299  0.4249E-01  0.2824E+00
      7.387  0.4322E-01  0.2862E+00
      7.476  0.3517E-01  0.2893E+00
      7.564  0.4404E-01  0.2932E+00
      7.653  0.3558E-01  0.2963E+00
      7.741  0.4406E-01  0.3002E+00
      7.829  0.4669E-01  0.3044E+00
      7.918  0.3341E-01  0.3073E+00
      8.006  0.4174E-01  0.3110E+00
      8.094  0.2774E-01  0.3134E+00
      8.183  0.4727E-01  0.3176E+00
      8.271  0.4445E-01  0.3215E+00
      8.359  0.4220E-01  0.3253E+00
      8.448  0.6756E-01  0.3312E+00
      8.536  0.3356E-01  0.3342E+00
      8.624  0.3524E-01  0.3373E+00
      8.713  0.4816E-01  0.3416E+00
      8.801  0.5338E-01  0.3463E+00
      8.890  0.5939E-01  0.3515E+00
      8.978  0.5577E-01  0.3565E+00
      9.066  0.3270E-01  0.3594E+00
      9.155  0.4030E-01  0.3629E+00
      9.243  0.3612E-01  0.3661E+00
      9.331  0.2917E-01  0.3687E+00
      9.420  0.3588E-01  0.3719E+00
      9.508  0.6829E-01  0.3779E+00
      9.596  0.7034E-01  0.3841E+00
      9.685  0.6117E-01  0.3895E+00
      9.773  0.4337E-01  0.3933E+00
      9.861  0.6172E-01  0.3988E+00
      9.950  0.5571E-01  0.4037E+00
     10.038  0.5974E-01  0.4090E+00
     10.127  0.8681E-01  0.4167E+00
     10.215  0.7600E-01  0.4234E+00
     10.303  0.6446E-01  0.4291E+00
     10.392  0.5120E-01  0.4336E+00
     10.480  0.5491E-01  0.4385E+00
     10.568  0.5908E-01  0.4437E+00
     10.657  0.4533E-01  0.4477E+00
     10.745  0.5013E-01  0.4521E+00
     10.833  0.4953E-01  0.4565E+00
     10.922  0.3975E-01  0.4600E+00
     11.010  0.2660E-01  0.4624E+00
     11.098  0.1719E-01  0.4639E+00
     11.187  0.2081E-01  0.4657E+00
     11.275  0.2141E-01  0.4676E+00
     11.364  0.2531E-01  0.4698E+00
     11.452  0.1307E-01  0.4710E+00
     11.540  0.1716E-01  0.4725E+00
     11.629  0.2211E-01  0.4745E+00
     11.717  0.1722E-01  0.4760E+00
     11.805  0.8106E-02  0.4767E+00
     11.894  0.4920E-02  0.4771E+00
     11.982  0.5491E-02  0.4776E+00
     12.070  0.4122E-02  0.4780E+00
     12.159  0.8555E-02  0.4787E+00
     12.247  0.8239E-02  0.4795E+00
     12.335  0.5387E-02  0.4799E+00
     12.424  0.6176E-03  0.4800E+00
     12.512  0.1447E-05  0.4800E+00
     12.601  0.1075E-05  0.4800E+00
     12.689  0.3207E-03  0.4800E+00
     12.777  0.1713E-02  0.4802E+00
     12.866  0.3252E-02  0.4805E+00
     12.954  0.7835E-02  0.4812E+00
     13.042  0.1552E-01  0.4825E+00
     13.131  0.7651E-02  0.4832E+00
     13.219  0.7759E-02  0.4839E+00
     13.307  0.1969E-01  0.4856E+00
     13.396  0.1418E-01  0.4869E+00
     13.484  0.2307E-01  0.4889E+00
     13.572  0.1487E-01  0.4902E+00
     13.661  0.2059E-01  0.4921E+00
     13.749  0.1164E-01  0.4931E+00
     13.838  0.1337E-01  0.4943E+00
     13.926  0.2011E-01  0.4960E+00
     14.014  0.2106E-01  0.4979E+00
     14.103  0.2477E-01  0.5001E+00
     14.191  0.2035E-01  0.5019E+00
     14.279  0.3209E-01  0.5047E+00
     14.368  0.3234E-01  0.5076E+00
     14.456  0.2998E-01  0.5102E+00
     14.544  0.3244E-01  0.5131E+00
     14.633  0.2843E-01  0.5156E+00
     14.721  0.2535E-01  0.5179E+00
     14.809  0.2677E-01  0.5202E+00
     14.898  0.3961E-01  0.5237E+00
     14.986  0.2549E-01  0.5260E+00
     15.075  0.1887E-01  0.5276E+00
     15.163  0.2087E-01  0.5295E+00
     15.251  0.2443E-01  0.5316E+00
     15.340  0.3706E-01  0.5349E+00
     15.428  0.3960E-01  0.5384E+00
     15.516  0.3724E-01  0.5417E+00
     15.605  0.4097E-01  0.5453E+00
     15.693  0.3161E-01  0.5481E+00
     15.781  0.4109E-01  0.5517E+00
     15.870  0.4493E-01  0.5557E+00
     15.958  0.3002E-01  0.5584E+00
     16.046  0.3299E-01  0.5613E+00
     16.135  0.4471E-01  0.5652E+00
     16.223  0.4178E-01  0.5689E+00
     16.312  0.4009E-01  0.5725E+00
     16.400  0.4173E-01  0.5762E+00
     16.488  0.3098E-01  0.5789E+00
     16.577  0.3849E-01  0.5823E+00
     16.665  0.3574E-01  0.5855E+00
     16.753  0.3883E-01  0.5889E+00
     16.842  0.3762E-01  0.5922E+00
     16.930  0.3140E-01  0.5950E+00
     17.018  0.3410E-01  0.5980E+00
     17.107  0.4037E-01  0.6016E+00
     17.195  0.5046E-01  0.6060E+00
     17.283  0.2860E-01  0.6085E+00
     17.372  0.3557E-01  0.6117E+00
     17.460  0.3317E-01  0.6146E+00
     17.549  0.2858E-01  0.6171E+00
     17.637  0.5112E-01  0.6217E+00
     17.725  0.2948E-01  0.6243E+00
     17.814  0.2998E-01  0.6269E+00
     17.902  0.2367E-01  0.6290E+00
     17.990  0.2142E-01  0.6309E+00
     18.079  0.2393E-01  0.6330E+00
     18.167  0.2828E-01  0.6355E+00
     18.255  0.2608E-01  0.6378E+00
     18.344  0.2430E-01  0.6400E+00
     18.432  0.2844E-01  0.6425E+00
     18.520  0.2632E-01  0.6448E+00
     18.609  0.2907E-01  0.6474E+00
     18.697  0.2200E-01  0.6493E+00
     18.786  0.1688E-01  0.6508E+00
     18.874  0.2397E-01  0.6529E+00
     18.962  0.2050E-01  0.6547E+00
     19.051  0.2095E-01  0.6566E+00
     19.139  0.1647E-01  0.6580E+00
     19.227  0.1648E-01  0.6595E+00
     19.316  0.3823E-02  0.6598E+00
     19.404  0.1294E-02  0.6599E+00
     19.492  0.5354E-03  0.6600E+00
     19.581  0.3297E-04  0.6600E+00
     19.669  0.1274E-07  0.6600E+00
     19.757  0.1309E-13  0.6600E+00
     19.846  0.0000E+00  0.6600E+00
     19.934  0.0000E+00  0.6600E+00
     20.023  0.0000E+00  0.6600E+00
     20.111  0.0000E+00  0.6600E+00
     20.199  0.0000E+00  0.6600E+00
     20.288  0.0000E+00  0.6600E+00
     20.376  0.0000E+00  0.6600E+00
     20.464  0.0000E+00  0.6600E+00
     20.553  0.0000E+00  0.6600E+00
     20.641  0.0000E+00  0.6600E+00
