Al4C3 anti-CaFe2O4-type, volume pre-scal
   1.00000000000000     
     2.7900451726561628    0.0000000000000000    0.0000000000000000
     0.0000000000000000    8.5236114258706834    0.0000000000000000
     0.0000000000000000    0.0000000000000000    9.8875304351378670
   Al   C 
    16    12
Direct
  0.2500000000000000  0.4245267340864008  0.5873716912218575
  0.7500000000000000  0.5754732659135990  0.4126283087781428
  0.2500000000000000  0.9245267340864010  0.9126283087781425
  0.7500000000000000  0.0754732659135993  0.0873716912218572
  0.2500000000000000  0.4800601400098901  0.2061656728190349
  0.7500000000000000  0.5199398599901098  0.7938343271809647
  0.2500000000000000 -0.0199398599901099  0.2938343271809649
  0.7500000000000000  0.0199398599901100  0.7061656728190353
  0.2500000000000000  0.1484441334435671  0.5143475653135133
  0.7500000000000000  0.8515558665564259  0.4856524346864864
  0.2500000000000000  0.6484441334435741  0.9856524346864867
  0.7500000000000000  0.3515558665564331  0.0143475653135135
  0.7500000000000000  0.2662336654069265  0.3000390016478345
  0.2500000000000000  0.7337663345930738  0.6999609983521652
  0.2500000000000000  0.2337663345930738  0.8000390016478348
  0.7500000000000000  0.7662336654069262  0.1999609983521654
  0.7500000000000000  0.7536300515530585  0.8590001755942531
  0.2500000000000000  0.2463699484469415  0.1409998244057470
  0.7500000000000000  0.2536300515530582  0.6409998244057469
  0.2500000000000000  0.7463699484469415  0.3590001755942530
  0.2500000000000000  0.9301796991213729  0.6107702309581483
  0.7500000000000000  0.5698203008786271  0.1107702309581485
  0.2500000000000000  0.4301796991213729  0.8892297690418517
  0.7500000000000000  0.0698203008786271  0.3892297690418515
  0.7500000000000000  0.0968949186839720  0.8893454137177431
  0.2500000000000000  0.9031050813160283  0.1106545862822568
  0.7500000000000000  0.5968949186839717  0.6106545862822569
  0.2500000000000000  0.4031050813160279  0.3893454137177432
 
  0.00000000E+00  0.00000000E+00  0.00000000E+00
  0.00000000E+00  0.00000000E+00  0.00000000E+00
  0.00000000E+00  0.00000000E+00  0.00000000E+00
  0.00000000E+00  0.00000000E+00  0.00000000E+00
  0.00000000E+00  0.00000000E+00  0.00000000E+00
  0.00000000E+00  0.00000000E+00  0.00000000E+00
  0.00000000E+00  0.00000000E+00  0.00000000E+00
  0.00000000E+00  0.00000000E+00  0.00000000E+00
  0.00000000E+00  0.00000000E+00  0.00000000E+00
  0.00000000E+00  0.00000000E+00  0.00000000E+00
  0.00000000E+00  0.00000000E+00  0.00000000E+00
  0.00000000E+00  0.00000000E+00  0.00000000E+00
  0.00000000E+00  0.00000000E+00  0.00000000E+00
  0.00000000E+00  0.00000000E+00  0.00000000E+00
  0.00000000E+00  0.00000000E+00  0.00000000E+00
  0.00000000E+00  0.00000000E+00  0.00000000E+00
  0.00000000E+00  0.00000000E+00  0.00000000E+00
  0.00000000E+00  0.00000000E+00  0.00000000E+00
  0.00000000E+00  0.00000000E+00  0.00000000E+00
  0.00000000E+00  0.00000000E+00  0.00000000E+00
  0.00000000E+00  0.00000000E+00  0.00000000E+00
  0.00000000E+00  0.00000000E+00  0.00000000E+00
  0.00000000E+00  0.00000000E+00  0.00000000E+00
  0.00000000E+00  0.00000000E+00  0.00000000E+00
  0.00000000E+00  0.00000000E+00  0.00000000E+00
  0.00000000E+00  0.00000000E+00  0.00000000E+00
  0.00000000E+00  0.00000000E+00  0.00000000E+00
  0.00000000E+00  0.00000000E+00  0.00000000E+00
