Al4C3 anti-CaFe2O4 - H(P) scan @ 50 GPa 
           1
     2.790045    0.000000    0.000000
     0.000000    8.523611    0.000000
     0.000000    0.000000    9.887530
   Al   C 
    16    12
Direct configuration=     1
   0.25000000  0.42452673  0.58737169
   0.75000000  0.57547327  0.41262831
   0.25000000  0.92452673  0.91262831
   0.75000000  0.07547327  0.08737169
   0.25000000  0.48006014  0.20616567
   0.75000000  0.51993986  0.79383433
   0.25000000  0.98006014  0.29383433
   0.75000000  0.01993986  0.70616567
   0.25000000  0.14844413  0.51434757
   0.75000000  0.85155587  0.48565243
   0.25000000  0.64844413  0.98565243
   0.75000000  0.35155587  0.01434757
   0.75000000  0.26623367  0.30003900
   0.25000000  0.73376633  0.69996100
   0.25000000  0.23376633  0.80003900
   0.75000000  0.76623367  0.19996100
   0.75000000  0.75363005  0.85900018
   0.25000000  0.24636995  0.14099982
   0.75000000  0.25363005  0.64099982
   0.25000000  0.74636995  0.35900018
   0.25000000  0.93017970  0.61077023
   0.75000000  0.56982030  0.11077023
   0.25000000  0.43017970  0.88922977
   0.75000000  0.06982030  0.38922977
   0.75000000  0.09689492  0.88934541
   0.25000000  0.90310508  0.11065459
   0.75000000  0.59689492  0.61065459
   0.25000000  0.40310508  0.38934541
