  28  28   0   0
  0.7961479E+01  0.2740865E-09  0.8373365E-09  0.9713242E-09  0.5000000E-15
  1.000000000000000E-004
  CAR 
 Al4C3 anti-CaFe2O4 - r2SCAN H(P) scan @ 
     22.47968871     -6.59198079  301     13.28577323      1.00000000
     -6.592  0.0000E+00  0.0000E+00
     -6.495  0.0000E+00  0.0000E+00
     -6.398  0.0000E+00  0.0000E+00
     -6.301  0.0000E+00  0.0000E+00
     -6.204  0.0000E+00  0.0000E+00
     -6.107  0.0000E+00  0.0000E+00
     -6.011  0.0000E+00  0.0000E+00
     -5.914  0.0000E+00  0.0000E+00
     -5.817  0.0000E+00  0.0000E+00
     -5.720  0.0000E+00  0.0000E+00
     -5.623  0.0000E+00  0.0000E+00
     -5.526  0.1337E-15  0.1295E-16
     -5.429  0.1958E-08  0.1898E-09
     -5.332  0.2181E-04  0.2114E-05
     -5.235  0.5194E-03  0.5245E-04
     -5.138  0.2351E-02  0.2803E-03
     -5.041  0.4693E-02  0.7350E-03
     -4.945  0.4851E-02  0.1205E-02
     -4.848  0.3713E-02  0.1565E-02
     -4.751  0.5974E-02  0.2144E-02
     -4.654  0.1035E-01  0.3147E-02
     -4.557  0.9738E-02  0.4090E-02
     -4.460  0.4621E-02  0.4538E-02
     -4.363  0.7119E-02  0.5228E-02
     -4.266  0.1195E-01  0.6386E-02
     -4.169  0.8023E-02  0.7163E-02
     -4.072  0.6977E-02  0.7839E-02
     -3.976  0.1121E-01  0.8926E-02
     -3.879  0.1444E-01  0.1033E-01
     -3.782  0.1230E-01  0.1152E-01
     -3.685  0.1214E-01  0.1269E-01
     -3.588  0.9215E-02  0.1359E-01
     -3.491  0.9948E-02  0.1455E-01
     -3.394  0.1443E-01  0.1595E-01
     -3.297  0.1596E-01  0.1749E-01
     -3.200  0.1075E-01  0.1854E-01
     -3.103  0.1292E-01  0.1979E-01
     -3.006  0.1339E-01  0.2109E-01
     -2.910  0.1812E-01  0.2284E-01
     -2.813  0.2346E-01  0.2512E-01
     -2.716  0.1493E-01  0.2656E-01
     -2.619  0.9162E-02  0.2745E-01
     -2.522  0.1643E-01  0.2904E-01
     -2.425  0.1380E-01  0.3038E-01
     -2.328  0.1649E-01  0.3198E-01
     -2.231  0.1819E-01  0.3374E-01
     -2.134  0.2490E-01  0.3615E-01
     -2.037  0.2037E-01  0.3813E-01
     -1.941  0.1993E-01  0.4006E-01
     -1.844  0.2499E-01  0.4248E-01
     -1.747  0.2277E-01  0.4469E-01
     -1.650  0.1937E-01  0.4656E-01
     -1.553  0.1689E-01  0.4820E-01
     -1.456  0.1545E-01  0.4970E-01
     -1.359  0.1725E-01  0.5137E-01
     -1.262  0.3452E-01  0.5471E-01
     -1.165  0.3360E-01  0.5797E-01
     -1.068  0.2741E-01  0.6063E-01
     -0.971  0.3220E-01  0.6375E-01
     -0.875  0.2851E-01  0.6651E-01
     -0.778  0.3412E-01  0.6982E-01
     -0.681  0.3215E-01  0.7293E-01
     -0.584  0.2939E-01  0.7578E-01
     -0.487  0.4110E-01  0.7976E-01
     -0.390  0.3533E-01  0.8319E-01
     -0.293  0.3672E-01  0.8674E-01
     -0.196  0.3938E-01  0.9056E-01
     -0.099  0.4114E-01  0.9455E-01
     -0.002  0.3879E-01  0.9831E-01
      0.095  0.2808E-01  0.1010E+00
      0.191  0.1726E-01  0.1027E+00
      0.288  0.1794E-01  0.1044E+00
      0.385  0.1421E-01  0.1058E+00
      0.482  0.1057E-01  0.1068E+00
      0.579  0.1548E-01  0.1083E+00
      0.676  0.1469E-01  0.1098E+00
      0.773  0.8093E-02  0.1105E+00
      0.870  0.1519E-01  0.1120E+00
      0.967  0.1503E-01  0.1135E+00
      1.064  0.6391E-02  0.1141E+00
      1.160  0.9742E-02  0.1150E+00
      1.257  0.1417E-01  0.1164E+00
      1.354  0.7727E-02  0.1172E+00
      1.451  0.5988E-02  0.1177E+00
      1.548  0.7680E-02  0.1185E+00
      1.645  0.9777E-02  0.1194E+00
      1.742  0.4727E-02  0.1199E+00
      1.839  0.1126E-02  0.1200E+00
      1.936  0.4508E-05  0.1200E+00
      2.033  0.3489E-10  0.1200E+00
      2.130  0.1264E-14  0.1200E+00
      2.226  0.1046E-07  0.1200E+00
      2.323  0.6781E-04  0.1200E+00
      2.420  0.1026E-02  0.1201E+00
      2.517  0.2593E-02  0.1204E+00
      2.614  0.4256E-02  0.1208E+00
      2.711  0.5860E-02  0.1213E+00
      2.808  0.4929E-02  0.1218E+00
      2.905  0.8014E-02  0.1226E+00
      3.002  0.1017E-01  0.1236E+00
      3.099  0.1379E-01  0.1249E+00
      3.195  0.1590E-01  0.1265E+00
      3.292  0.1211E-01  0.1276E+00
      3.389  0.2882E-01  0.1304E+00
      3.486  0.3768E-01  0.1341E+00
      3.583  0.3096E-01  0.1371E+00
      3.680  0.3076E-01  0.1401E+00
      3.777  0.2788E-01  0.1428E+00
      3.874  0.2941E-01  0.1456E+00
      3.971  0.3487E-01  0.1490E+00
      4.068  0.3481E-01  0.1524E+00
      4.165  0.3292E-01  0.1555E+00
      4.261  0.3460E-01  0.1589E+00
      4.358  0.5261E-01  0.1640E+00
      4.455  0.4118E-01  0.1680E+00
      4.552  0.2425E-01  0.1703E+00
      4.649  0.3537E-01  0.1738E+00
      4.746  0.4026E-01  0.1777E+00
      4.843  0.2524E-01  0.1801E+00
      4.940  0.2496E-01  0.1825E+00
      5.037  0.2959E-01  0.1854E+00
      5.134  0.2964E-01  0.1883E+00
      5.230  0.4138E-01  0.1923E+00
      5.327  0.3091E-01  0.1953E+00
      5.424  0.2934E-01  0.1981E+00
      5.521  0.2904E-01  0.2009E+00
      5.618  0.2668E-01  0.2035E+00
      5.715  0.3471E-01  0.2069E+00
      5.812  0.5230E-01  0.2120E+00
      5.909  0.3270E-01  0.2151E+00
      6.006  0.3186E-01  0.2182E+00
      6.103  0.3267E-01  0.2214E+00
      6.200  0.3403E-01  0.2247E+00
      6.296  0.2540E-01  0.2271E+00
      6.393  0.3581E-01  0.2306E+00
      6.490  0.3120E-01  0.2336E+00
      6.587  0.3612E-01  0.2371E+00
      6.684  0.3599E-01  0.2406E+00
      6.781  0.4163E-01  0.2446E+00
      6.878  0.3343E-01  0.2479E+00
      6.975  0.3775E-01  0.2515E+00
      7.072  0.4236E-01  0.2557E+00
      7.169  0.4179E-01  0.2597E+00
      7.266  0.3988E-01  0.2636E+00
      7.362  0.3839E-01  0.2673E+00
      7.459  0.4380E-01  0.2715E+00
      7.556  0.4756E-01  0.2761E+00
      7.653  0.4148E-01  0.2802E+00
      7.750  0.4001E-01  0.2840E+00
      7.847  0.3186E-01  0.2871E+00
      7.944  0.3429E-01  0.2904E+00
      8.041  0.4079E-01  0.2944E+00
      8.138  0.3118E-01  0.2974E+00
      8.235  0.4585E-01  0.3019E+00
      8.331  0.3618E-01  0.3054E+00
      8.428  0.3768E-01  0.3090E+00
      8.525  0.3246E-01  0.3122E+00
      8.622  0.2929E-01  0.3150E+00
      8.719  0.4809E-01  0.3197E+00
      8.816  0.3958E-01  0.3235E+00
      8.913  0.5870E-01  0.3292E+00
      9.010  0.4058E-01  0.3331E+00
      9.107  0.2872E-01  0.3359E+00
      9.204  0.4078E-01  0.3399E+00
      9.301  0.4980E-01  0.3447E+00
      9.397  0.5072E-01  0.3496E+00
      9.494  0.5299E-01  0.3547E+00
      9.591  0.3572E-01  0.3582E+00
      9.688  0.3560E-01  0.3616E+00
      9.785  0.3494E-01  0.3650E+00
      9.882  0.3010E-01  0.3679E+00
      9.979  0.3005E-01  0.3709E+00
     10.076  0.5515E-01  0.3762E+00
     10.173  0.7320E-01  0.3833E+00
     10.270  0.5831E-01  0.3889E+00
     10.366  0.4794E-01  0.3936E+00
     10.463  0.4694E-01  0.3981E+00
     10.560  0.5685E-01  0.4036E+00
     10.657  0.5336E-01  0.4088E+00
     10.754  0.7944E-01  0.4165E+00
     10.851  0.6924E-01  0.4232E+00
     10.948  0.5652E-01  0.4287E+00
     11.045  0.5808E-01  0.4343E+00
     11.142  0.4459E-01  0.4387E+00
     11.239  0.5206E-01  0.4437E+00
     11.336  0.4673E-01  0.4482E+00
     11.432  0.4094E-01  0.4522E+00
     11.529  0.3923E-01  0.4560E+00
     11.626  0.4042E-01  0.4599E+00
     11.723  0.2533E-01  0.4624E+00
     11.820  0.1428E-01  0.4638E+00
     11.917  0.1986E-01  0.4657E+00
     12.014  0.1812E-01  0.4674E+00
     12.111  0.2375E-01  0.4697E+00
     12.208  0.1420E-01  0.4711E+00
     12.305  0.2175E-01  0.4732E+00
     12.402  0.2044E-01  0.4752E+00
     12.498  0.1270E-01  0.4764E+00
     12.595  0.3488E-02  0.4768E+00
     12.692  0.4708E-02  0.4772E+00
     12.789  0.5118E-02  0.4777E+00
     12.886  0.6432E-02  0.4783E+00
     12.983  0.8556E-02  0.4792E+00
     13.080  0.7163E-02  0.4799E+00
     13.177  0.1381E-02  0.4800E+00
     13.274  0.3986E-05  0.4800E+00
     13.371  0.2387E-10  0.4800E+00
     13.467  0.1193E-18  0.4800E+00
     13.564  0.0000E+00  0.4800E+00
     13.661  0.5967E-19  0.4800E+00
     13.758  0.1840E-10  0.4800E+00
     13.855  0.4293E-05  0.4800E+00
     13.952  0.1290E-02  0.4801E+00
     14.049  0.4797E-02  0.4806E+00
     14.146  0.1254E-01  0.4818E+00
     14.243  0.1094E-01  0.4829E+00
     14.340  0.9525E-02  0.4838E+00
     14.437  0.1533E-01  0.4853E+00
     14.533  0.1647E-01  0.4869E+00
     14.630  0.1489E-01  0.4883E+00
     14.727  0.1886E-01  0.4901E+00
     14.824  0.2255E-01  0.4923E+00
     14.921  0.8860E-02  0.4932E+00
     15.018  0.1180E-01  0.4943E+00
     15.115  0.1324E-01  0.4956E+00
     15.212  0.1768E-01  0.4973E+00
     15.309  0.1744E-01  0.4990E+00
     15.406  0.2902E-01  0.5018E+00
     15.502  0.3360E-01  0.5051E+00
     15.599  0.2535E-01  0.5075E+00
     15.696  0.2470E-01  0.5099E+00
     15.793  0.3346E-01  0.5132E+00
     15.890  0.2047E-01  0.5152E+00
     15.987  0.2534E-01  0.5176E+00
     16.084  0.2662E-01  0.5202E+00
     16.181  0.2915E-01  0.5230E+00
     16.278  0.3291E-01  0.5262E+00
     16.375  0.1672E-01  0.5278E+00
     16.472  0.1532E-01  0.5293E+00
     16.568  0.2292E-01  0.5315E+00
     16.665  0.2698E-01  0.5341E+00
     16.762  0.2663E-01  0.5367E+00
     16.859  0.3553E-01  0.5402E+00
     16.956  0.2997E-01  0.5431E+00
     17.053  0.3035E-01  0.5460E+00
     17.150  0.4020E-01  0.5499E+00
     17.247  0.2733E-01  0.5526E+00
     17.344  0.3779E-01  0.5562E+00
     17.441  0.4324E-01  0.5604E+00
     17.538  0.2861E-01  0.5632E+00
     17.634  0.3193E-01  0.5663E+00
     17.731  0.3432E-01  0.5696E+00
     17.828  0.4154E-01  0.5736E+00
     17.925  0.3338E-01  0.5769E+00
     18.022  0.4037E-01  0.5808E+00
     18.119  0.3407E-01  0.5841E+00
     18.216  0.3195E-01  0.5872E+00
     18.313  0.2478E-01  0.5896E+00
     18.410  0.3105E-01  0.5926E+00
     18.507  0.3226E-01  0.5957E+00
     18.603  0.2990E-01  0.5986E+00
     18.700  0.2456E-01  0.6010E+00
     18.797  0.4056E-01  0.6049E+00
     18.894  0.3041E-01  0.6079E+00
     18.991  0.3419E-01  0.6112E+00
     19.088  0.2665E-01  0.6138E+00
     19.185  0.3073E-01  0.6167E+00
     19.282  0.4755E-01  0.6214E+00
     19.379  0.1555E-01  0.6229E+00
     19.476  0.2313E-01  0.6251E+00
     19.573  0.2734E-01  0.6278E+00
     19.669  0.2229E-01  0.6299E+00
     19.766  0.2281E-01  0.6321E+00
     19.863  0.2819E-01  0.6349E+00
     19.960  0.2028E-01  0.6368E+00
     20.057  0.2501E-01  0.6392E+00
     20.154  0.2200E-01  0.6414E+00
     20.251  0.2568E-01  0.6439E+00
     20.348  0.3019E-01  0.6468E+00
     20.445  0.1675E-01  0.6484E+00
     20.542  0.2032E-01  0.6504E+00
     20.638  0.1534E-01  0.6519E+00
     20.735  0.1776E-01  0.6536E+00
     20.832  0.2184E-01  0.6557E+00
     20.929  0.1604E-01  0.6573E+00
     21.026  0.1385E-01  0.6586E+00
     21.123  0.1148E-01  0.6597E+00
     21.220  0.2927E-02  0.6600E+00
     21.317  0.7409E-04  0.6600E+00
     21.414  0.4716E-08  0.6600E+00
     21.511  0.2831E-15  0.6600E+00
     21.608  0.0000E+00  0.6600E+00
     21.704  0.0000E+00  0.6600E+00
     21.801  0.0000E+00  0.6600E+00
     21.898  0.0000E+00  0.6600E+00
     21.995  0.0000E+00  0.6600E+00
     22.092  0.0000E+00  0.6600E+00
     22.189  0.0000E+00  0.6600E+00
     22.286  0.0000E+00  0.6600E+00
     22.383  0.0000E+00  0.6600E+00
     22.480  0.0000E+00  0.6600E+00
