       N       E                     dE             d eps       ncg     rms          rms(c)
DAV:   1    -0.123879324559E+03   -0.12388E+03   -0.10696E-05  3180   0.240E-02    0.867E-03
DAV:   2    -0.123879324581E+03   -0.22274E-07   -0.53351E-06  2640   0.102E-02
   1 F= -.49578539E+02 E0= -.49578539E+02  d E =-.495785E+02
       N       E                     dE             d eps       ncg     rms          rms(c)
DAV:   1    -0.117592681042E+03    0.62866E+01   -0.15384E+01  4320   0.196E+01    0.421E+00
DAV:   2    -0.117179550536E+03    0.41313E+00   -0.10834E+00  4260   0.395E+00    0.187E+00
DAV:   3    -0.117143658933E+03    0.35892E-01   -0.20117E-01  4344   0.156E+00    0.533E-01
DAV:   4    -0.117139094133E+03    0.45648E-02   -0.14514E-02  4392   0.457E-01    0.192E-01
DAV:   5    -0.117138391162E+03    0.70297E-03   -0.14414E-03  4464   0.148E-01    0.125E-01
DAV:   6    -0.117138265163E+03    0.12600E-03   -0.31259E-04  4440   0.637E-02    0.221E-02
DAV:   7    -0.117138254288E+03    0.10875E-04   -0.29036E-05  3696   0.289E-02    0.965E-03
DAV:   8    -0.117138255852E+03   -0.15647E-05   -0.21623E-05  2688   0.189E-02
   2 F= -.48997976E+02 E0= -.48997976E+02  d E =0.580563E+00
       N       E                     dE             d eps       ncg     rms          rms(c)
DAV:   1    -0.122213331613E+03   -0.50751E+01   -0.67133E+00  4284   0.125E+01    0.282E+00
DAV:   2    -0.122023149872E+03    0.19018E+00   -0.49536E-01  4284   0.264E+00    0.123E+00
DAV:   3    -0.122007555539E+03    0.15594E-01   -0.91714E-02  4380   0.102E+00    0.362E-01
DAV:   4    -0.122005202267E+03    0.23533E-02   -0.78577E-03  4344   0.320E-01    0.129E-01
DAV:   5    -0.122004774851E+03    0.42742E-03   -0.96986E-04  4428   0.115E-01    0.800E-02
DAV:   6    -0.122004669010E+03    0.10584E-03   -0.15082E-04  4452   0.441E-02    0.120E-02
DAV:   7    -0.122004662847E+03    0.61636E-05   -0.12557E-05  2952   0.185E-02
   3 F= -.49756349E+02 E0= -.49756349E+02  d E =-.177810E+00
       N       E                     dE             d eps       ncg     rms          rms(c)
DAV:   1    -0.121967554638E+03    0.37114E-01   -0.51358E-04  4356   0.110E-01    0.238E-02
DAV:   2    -0.121967543647E+03    0.10991E-04   -0.36106E-05  3984   0.227E-02    0.117E-02
DAV:   3    -0.121967544663E+03   -0.10163E-05   -0.66004E-06  2088   0.951E-03
   4 F= -.49756415E+02 E0= -.49756415E+02  d E =-.177875E+00
       N       E                     dE             d eps       ncg     rms          rms(c)
DAV:   1    -0.121966605788E+03    0.93786E-03   -0.10048E-06  2064   0.419E-03    0.139E-03
DAV:   2    -0.121966606029E+03   -0.24148E-06   -0.81318E-08  2064   0.137E-03
   5 F= -.49756416E+02 E0= -.49756416E+02  d E =-.177877E+00
       N       E                     dE             d eps       ncg     rms          rms(c)
DAV:   1    -0.121956349176E+03    0.10257E-01   -0.45759E-02  3852   0.101E+00    0.610E-02
DAV:   2    -0.121956237597E+03    0.11158E-03   -0.15034E-03  4800   0.180E-01    0.463E-02
DAV:   3    -0.121956201014E+03    0.36583E-04   -0.17438E-04  4488   0.580E-02    0.242E-02
DAV:   4    -0.121956192139E+03    0.88750E-05   -0.45763E-05  3876   0.265E-02
   6 F= -.49755931E+02 E0= -.49755931E+02  d E =0.484248E-03
       N       E                     dE             d eps       ncg     rms          rms(c)
DAV:   1    -0.121963114156E+03   -0.69131E-02   -0.17034E-02  3780   0.614E-01    0.372E-02
DAV:   2    -0.121963067624E+03    0.46532E-04   -0.53240E-04  4752   0.108E-01    0.277E-02
DAV:   3    -0.121963054079E+03    0.13545E-04   -0.65516E-05  4464   0.355E-02    0.140E-02
DAV:   4    -0.121963051575E+03    0.25036E-05   -0.15790E-05  3156   0.153E-02
   7 F= -.49756738E+02 E0= -.49756738E+02  d E =-.322458E-03
       N       E                     dE             d eps       ncg     rms          rms(c)
DAV:   1    -0.121962260688E+03    0.79339E-03   -0.47246E-03  3648   0.283E-01    0.202E-02
DAV:   2    -0.121962246170E+03    0.14518E-04   -0.17764E-04  4188   0.603E-02    0.110E-02
DAV:   3    -0.121962242541E+03    0.36283E-05   -0.18671E-05  3024   0.199E-02
   8 F= -.49756834E+02 E0= -.49756834E+02  d E =-.958996E-04
