Al4C3 R-3m - H(P) scan @ 60 GPa (ISIF=8)
           1
     3.129326    0.000000    0.000000
    -1.564663    2.710076    0.000000
     0.000000    0.000000   23.394856
   Al   C 
    12     9
Direct configuration=     1
   0.00000000  0.00000000  0.62950503
   0.00000000  0.00000000  0.37049497
   0.66666669  0.33333334  0.96283834
   0.66666669  0.33333334  0.70382828
   0.33333334  0.66666669  0.29617169
   0.33333334  0.66666669  0.03716164
   0.00000000  0.00000000  0.20608266
   0.00000000  0.00000000  0.79391734
   0.66666669  0.33333334  0.53941597
   0.66666669  0.33333334  0.12725067
   0.33333334  0.66666669  0.87274934
   0.33333334  0.66666669  0.46058400
   0.00000000  0.00000000  0.71668628
   0.00000000  0.00000000  0.28331372
   0.66666669  0.33333334  0.05001961
   0.66666669  0.33333334  0.61664704
   0.33333334  0.66666669  0.38335293
   0.33333334  0.66666669  0.94998041
   0.00000000  0.00000000  0.50000000
   0.66666669  0.33333334  0.83333331
   0.33333334  0.66666669  0.16666667
Al4C3 R-3m - H(P) scan @ 60 GPa (ISIF=8)
           1
     3.040332    0.000000    0.000000
    -1.520166    2.633005    0.000000
     0.000000    0.000000   22.729535
   Al   C 
    12     9
Direct configuration=     2
  -0.00000000  0.00000000  0.62950083
   0.00000000  0.00000000  0.37049917
   0.66666669  0.33333334  0.96283415
   0.66666669  0.33333334  0.70383248
   0.33333334  0.66666669  0.29616749
   0.33333334  0.66666669  0.03716583
  -0.00000000  0.00000000  0.20608527
  -0.00000000 -0.00000000  0.79391473
   0.66666669  0.33333334  0.53941858
   0.66666669  0.33333334  0.12724806
   0.33333334  0.66666669  0.87275196
   0.33333334  0.66666669  0.46058139
  -0.00000000 -0.00000000  0.71669278
   0.00000000  0.00000000  0.28330722
   0.66666669  0.33333334  0.05002611
   0.66666669  0.33333334  0.61664053
   0.33333334  0.66666669  0.38335944
   0.33333334  0.66666669  0.94997391
  -0.00000000 -0.00000000  0.50000000
   0.66666669  0.33333334  0.83333331
   0.33333334  0.66666669  0.16666667
Al4C3 R-3m - H(P) scan @ 60 GPa (ISIF=8)
           1
     3.100242    0.000000    0.000000
    -1.550121    2.684889    0.000000
     0.000000    0.000000   23.177423
   Al   C 
    12     9
Direct configuration=     3
  -0.00000000  0.00000000  0.62950374
   0.00000000  0.00000000  0.37049626
   0.66666669  0.33333334  0.96283705
   0.66666669  0.33333334  0.70382957
   0.33333334  0.66666669  0.29617040
   0.33333334  0.66666669  0.03716293
  -0.00000000  0.00000000  0.20608346
  -0.00000000 -0.00000000  0.79391654
   0.66666669  0.33333334  0.53941677
   0.66666669  0.33333334  0.12724987
   0.33333334  0.66666669  0.87275015
   0.33333334  0.66666669  0.46058320
  -0.00000000 -0.00000000  0.71668828
   0.00000000  0.00000000  0.28331172
   0.66666669  0.33333334  0.05002161
   0.66666669  0.33333334  0.61664504
   0.33333334  0.66666669  0.38335493
   0.33333334  0.66666669  0.94997841
  -0.00000000 -0.00000000  0.50000000
   0.66666669  0.33333334  0.83333331
   0.33333334  0.66666669  0.16666667
Al4C3 R-3m - H(P) scan @ 60 GPa (ISIF=8)
           1
     3.099710    0.000000    0.000000
    -1.549855    2.684428    0.000000
     0.000000    0.000000   23.173447
   Al   C 
    12     9
Direct configuration=     4
  -0.00000000  0.00000000  0.62950372
   0.00000000  0.00000000  0.37049628
   0.66666669  0.33333334  0.96283703
   0.66666669  0.33333334  0.70382960
   0.33333334  0.66666669  0.29617037
   0.33333334  0.66666669  0.03716295
  -0.00000000  0.00000000  0.20608347
  -0.00000000 -0.00000000  0.79391653
   0.66666669  0.33333334  0.53941679
   0.66666669  0.33333334  0.12724985
   0.33333334  0.66666669  0.87275016
   0.33333334  0.66666669  0.46058318
  -0.00000000 -0.00000000  0.71668831
   0.00000000  0.00000000  0.28331169
   0.66666669  0.33333334  0.05002165
   0.66666669  0.33333334  0.61664500
   0.33333334  0.66666669  0.38335497
   0.33333334  0.66666669  0.94997837
  -0.00000000 -0.00000000  0.50000000
   0.66666669  0.33333334  0.83333331
   0.33333334  0.66666669  0.16666667
Al4C3 R-3m - H(P) scan @ 60 GPa (ISIF=8)
           1
     3.099697    0.000000    0.000000
    -1.549848    2.684416    0.000000
     0.000000    0.000000   23.173346
   Al   C 
    12     9
Direct configuration=     5
  -0.00000000  0.00000000  0.62950372
   0.00000000  0.00000000  0.37049628
   0.66666669  0.33333334  0.96283703
   0.66666669  0.33333334  0.70382960
   0.33333334  0.66666669  0.29617037
   0.33333334  0.66666669  0.03716295
  -0.00000000  0.00000000  0.20608347
  -0.00000000 -0.00000000  0.79391653
   0.66666669  0.33333334  0.53941679
   0.66666669  0.33333334  0.12724985
   0.33333334  0.66666669  0.87275016
   0.33333334  0.66666669  0.46058318
  -0.00000000 -0.00000000  0.71668832
   0.00000000  0.00000000  0.28331168
   0.66666669  0.33333334  0.05002165
   0.66666669  0.33333334  0.61664500
   0.33333334  0.66666669  0.38335497
   0.33333334  0.66666669  0.94997837
  -0.00000000 -0.00000000  0.50000000
   0.66666669  0.33333334  0.83333331
   0.33333334  0.66666669  0.16666667
Al4C3 R-3m - H(P) scan @ 60 GPa (ISIF=8)
           1
     3.099555    0.000000    0.000000
    -1.549777    2.684293    0.000000
     0.000000    0.000000   23.172284
   Al   C 
    12     9
Direct configuration=     6
  -0.00000000  0.00000000  0.62943834
  -0.00000000  0.00000000  0.37056166
   0.66666669  0.33333334  0.96277166
   0.66666669  0.33333334  0.70389497
   0.33333334  0.66666669  0.29610500
   0.33333334  0.66666669  0.03722832
  -0.00000000  0.00000000  0.20596934
   0.00000000 -0.00000000  0.79403066
   0.66666669  0.33333334  0.53930265
   0.66666669  0.33333334  0.12736399
   0.33333334  0.66666669  0.87263602
   0.33333334  0.66666669  0.46069732
  -0.00000000 -0.00000000  0.71662207
   0.00000000  0.00000000  0.28337793
   0.66666669  0.33333334  0.04995540
   0.66666669  0.33333334  0.61671124
   0.33333334  0.66666669  0.38328873
   0.33333334  0.66666669  0.95004461
  -0.00000000 -0.00000000  0.50000000
   0.66666669  0.33333334  0.83333331
   0.33333334  0.66666669  0.16666667
Al4C3 R-3m - H(P) scan @ 60 GPa (ISIF=8)
           1
     3.099641    0.000000    0.000000
    -1.549821    2.684368    0.000000
     0.000000    0.000000   23.172931
   Al   C 
    12     9
Direct configuration=     7
  -0.00000000  0.00000000  0.62947820
  -0.00000000  0.00000000  0.37052180
   0.66666669  0.33333334  0.96281151
   0.66666669  0.33333334  0.70385512
   0.33333334  0.66666669  0.29614485
   0.33333334  0.66666669  0.03718847
  -0.00000000  0.00000000  0.20603891
   0.00000000 -0.00000000  0.79396109
   0.66666669  0.33333334  0.53937223
   0.66666669  0.33333334  0.12729441
   0.33333334  0.66666669  0.87270560
   0.33333334  0.66666669  0.46062774
  -0.00000000 -0.00000000  0.71666245
   0.00000000  0.00000000  0.28333755
   0.66666669  0.33333334  0.04999579
   0.66666669  0.33333334  0.61667086
   0.33333334  0.66666669  0.38332911
   0.33333334  0.66666669  0.95000423
  -0.00000000 -0.00000000  0.50000000
   0.66666669  0.33333334  0.83333331
   0.33333334  0.66666669  0.16666667
Al4C3 R-3m - H(P) scan @ 60 GPa (ISIF=8)
           1
     3.099628    0.000000    0.000000
    -1.549814    2.684357    0.000000
     0.000000    0.000000   23.172834
   Al   C 
    12     9
Direct configuration=     8
  -0.00000000  0.00000000  0.62943027
   0.00000000  0.00000000  0.37056973
   0.66666669  0.33333334  0.96276358
   0.66666669  0.33333334  0.70390305
   0.33333334  0.66666669  0.29609692
   0.33333334  0.66666669  0.03723640
  -0.00000000  0.00000000  0.20603514
  -0.00000000 -0.00000000  0.79396486
   0.66666669  0.33333334  0.53936846
   0.66666669  0.33333334  0.12729819
   0.33333334  0.66666669  0.87270183
   0.33333334  0.66666669  0.46063151
  -0.00000000 -0.00000000  0.71667766
   0.00000000  0.00000000  0.28332234
   0.66666669  0.33333334  0.05001099
   0.66666669  0.33333334  0.61665566
   0.33333334  0.66666669  0.38334431
   0.33333334  0.66666669  0.94998903
  -0.00000000 -0.00000000  0.50000000
   0.66666669  0.33333334  0.83333331
   0.33333334  0.66666669  0.16666667
