  56  56   0   0
  0.9522404E+01  0.8109204E-09  0.8109204E-09  0.8109204E-09  0.5000000E-15
  1.000000000000000E-004
  CAR 
 Al4C3 Fd-3m - H(P) scan @ 50 GPa (ISIF=8
     17.59681005     -6.57460716  301     10.26984921      1.00000000
     -6.575  0.0000E+00  0.0000E+00
     -6.494  0.0000E+00  0.0000E+00
     -6.413  0.0000E+00  0.0000E+00
     -6.333  0.0000E+00  0.0000E+00
     -6.252  0.0000E+00  0.0000E+00
     -6.172  0.0000E+00  0.0000E+00
     -6.091  0.0000E+00  0.0000E+00
     -6.011  0.0000E+00  0.0000E+00
     -5.930  0.0000E+00  0.0000E+00
     -5.849  0.0000E+00  0.0000E+00
     -5.769  0.1077E-18  0.8674E-20
     -5.688  0.1821E-11  0.1467E-12
     -5.608  0.1863E-06  0.1501E-07
     -5.527  0.1424E-03  0.1149E-04
     -5.447  0.1519E-02  0.1339E-03
     -5.366  0.5902E-02  0.6094E-03
     -5.285  0.1040E-01  0.1448E-02
     -5.205  0.1794E-01  0.2893E-02
     -5.124  0.1273E-01  0.3918E-02
     -5.044  0.8543E-02  0.4607E-02
     -4.963  0.1624E-01  0.5915E-02
     -4.883  0.3910E-01  0.9065E-02
     -4.802  0.3799E-01  0.1213E-01
     -4.721  0.6875E-02  0.1268E-01
     -4.641  0.1445E-01  0.1384E-01
     -4.560  0.4491E-01  0.1746E-01
     -4.480  0.2910E-01  0.1981E-01
     -4.399  0.4766E-01  0.2365E-01
     -4.319  0.5793E-01  0.2831E-01
     -4.238  0.4376E-01  0.3184E-01
     -4.157  0.3446E-01  0.3462E-01
     -4.077  0.2843E-02  0.3485E-01
     -3.996  0.5497E-02  0.3529E-01
     -3.916  0.1646E-01  0.3662E-01
     -3.835  0.1165E-01  0.3755E-01
     -3.755  0.5207E-01  0.4175E-01
     -3.674  0.1916E-01  0.4329E-01
     -3.593  0.1431E-01  0.4445E-01
     -3.513  0.1757E-01  0.4586E-01
     -3.432  0.3407E-01  0.4861E-01
     -3.352  0.3935E-01  0.5178E-01
     -3.271  0.8942E-01  0.5898E-01
     -3.191  0.2413E-01  0.6093E-01
     -3.110  0.3206E-01  0.6351E-01
     -3.029  0.2210E-01  0.6529E-01
     -2.949  0.1379E-01  0.6640E-01
     -2.868  0.4301E-01  0.6987E-01
     -2.788  0.1509E-01  0.7108E-01
     -2.707  0.1381E-03  0.7109E-01
     -2.627  0.1010E-03  0.7110E-01
     -2.546  0.2192E-01  0.7287E-01
     -2.465  0.8458E-01  0.7968E-01
     -2.385  0.2260E-01  0.8150E-01
     -2.304  0.4949E-01  0.8549E-01
     -2.224  0.7603E-01  0.9162E-01
     -2.143  0.6425E-01  0.9679E-01
     -2.063  0.5427E-01  0.1012E+00
     -1.982  0.1652E-01  0.1025E+00
     -1.901  0.6428E-01  0.1077E+00
     -1.821  0.8339E-01  0.1144E+00
     -1.740  0.5929E-01  0.1192E+00
     -1.660  0.5265E-01  0.1234E+00
     -1.579  0.9640E-01  0.1312E+00
     -1.499  0.8082E-01  0.1377E+00
     -1.418  0.7919E-01  0.1441E+00
     -1.337  0.1429E+00  0.1556E+00
     -1.257  0.1020E+00  0.1638E+00
     -1.176  0.8950E-01  0.1710E+00
     -1.096  0.1794E-01  0.1725E+00
     -1.015  0.8173E-01  0.1790E+00
     -0.935  0.2247E+00  0.1971E+00
     -0.854  0.1307E+00  0.2077E+00
     -0.773  0.8473E-01  0.2145E+00
     -0.693  0.1024E+00  0.2228E+00
     -0.612  0.1370E+00  0.2338E+00
     -0.532  0.7099E-01  0.2395E+00
     -0.451  0.5984E-02  0.2400E+00
     -0.371  0.1706E-04  0.2400E+00
     -0.290  0.5634E-09  0.2400E+00
     -0.209  0.1361E-15  0.2400E+00
     -0.129  0.0000E+00  0.2400E+00
     -0.048  0.0000E+00  0.2400E+00
      0.032  0.0000E+00  0.2400E+00
      0.113  0.0000E+00  0.2400E+00
      0.193  0.0000E+00  0.2400E+00
      0.274  0.0000E+00  0.2400E+00
      0.355  0.0000E+00  0.2400E+00
      0.435  0.0000E+00  0.2400E+00
      0.516  0.0000E+00  0.2400E+00
      0.596  0.0000E+00  0.2400E+00
      0.677  0.0000E+00  0.2400E+00
      0.757  0.0000E+00  0.2400E+00
      0.838  0.0000E+00  0.2400E+00
      0.919  0.2153E-18  0.2400E+00
      0.999  0.3145E-11  0.2400E+00
      1.080  0.2645E-06  0.2400E+00
      1.160  0.1680E-03  0.2400E+00
      1.241  0.1423E-02  0.2401E+00
      1.321  0.3464E-03  0.2402E+00
      1.402  0.1431E-05  0.2402E+00
      1.483  0.2299E-03  0.2402E+00
      1.563  0.6699E-02  0.2407E+00
      1.644  0.1299E-01  0.2418E+00
      1.724  0.1439E-01  0.2429E+00
      1.805  0.5543E-02  0.2434E+00
      1.885  0.1002E-01  0.2442E+00
      1.966  0.5485E-03  0.2442E+00
      2.047  0.1995E-02  0.2444E+00
      2.127  0.3138E-01  0.2469E+00
      2.208  0.3504E-01  0.2497E+00
      2.288  0.4757E-01  0.2536E+00
      2.369  0.3691E-01  0.2565E+00
      2.449  0.4382E-01  0.2601E+00
      2.530  0.8748E-01  0.2671E+00
      2.611  0.6622E-01  0.2725E+00
      2.691  0.1341E+00  0.2833E+00
      2.772  0.7928E-01  0.2896E+00
      2.852  0.7804E-01  0.2959E+00
      2.933  0.6653E-01  0.3013E+00
      3.013  0.4789E-01  0.3051E+00
      3.094  0.1051E+00  0.3136E+00
      3.175  0.1498E+00  0.3257E+00
      3.255  0.7242E-01  0.3315E+00
      3.336  0.7864E-01  0.3379E+00
      3.416  0.1392E+00  0.3491E+00
      3.497  0.1260E+00  0.3592E+00
      3.577  0.4999E-01  0.3633E+00
      3.658  0.1020E+00  0.3715E+00
      3.739  0.1093E+00  0.3803E+00
      3.819  0.3992E-01  0.3835E+00
      3.900  0.4403E-01  0.3870E+00
      3.980  0.6401E-01  0.3922E+00
      4.061  0.8605E-01  0.3991E+00
      4.141  0.9699E-01  0.4069E+00
      4.222  0.7619E-01  0.4131E+00
      4.303  0.5011E-01  0.4171E+00
      4.383  0.9601E-01  0.4249E+00
      4.464  0.5410E-01  0.4292E+00
      4.544  0.7429E-01  0.4352E+00
      4.625  0.6515E-01  0.4404E+00
      4.705  0.7045E-01  0.4461E+00
      4.786  0.7702E-01  0.4523E+00
      4.867  0.7164E-01  0.4581E+00
      4.947  0.5168E-01  0.4623E+00
      5.028  0.4309E-01  0.4657E+00
      5.108  0.4585E-01  0.4694E+00
      5.189  0.8413E-01  0.4762E+00
      5.269  0.1575E+00  0.4889E+00
      5.350  0.5677E-01  0.4935E+00
      5.431  0.8060E-01  0.5000E+00
      5.511  0.9340E-01  0.5075E+00
      5.592  0.7122E-01  0.5132E+00
      5.672  0.7237E-01  0.5191E+00
      5.753  0.3957E-01  0.5222E+00
      5.833  0.4498E-01  0.5259E+00
      5.914  0.3041E-01  0.5283E+00
      5.995  0.3738E-01  0.5313E+00
      6.075  0.7946E-01  0.5377E+00
      6.156  0.6915E-01  0.5433E+00
      6.236  0.1564E+00  0.5559E+00
      6.317  0.1051E+00  0.5644E+00
      6.397  0.1771E+00  0.5786E+00
      6.478  0.1587E+00  0.5914E+00
      6.559  0.5805E-01  0.5961E+00
      6.639  0.2006E-01  0.5977E+00
      6.720  0.8259E-01  0.6044E+00
      6.800  0.9478E-01  0.6120E+00
      6.881  0.1227E+00  0.6219E+00
      6.961  0.1051E+00  0.6304E+00
      7.042  0.8323E-01  0.6371E+00
      7.123  0.1487E+00  0.6491E+00
      7.203  0.1104E+00  0.6580E+00
      7.284  0.1742E+00  0.6720E+00
      7.364  0.1235E+00  0.6819E+00
      7.445  0.1480E+00  0.6939E+00
      7.525  0.1789E+00  0.7083E+00
      7.606  0.2075E+00  0.7250E+00
      7.687  0.9536E-01  0.7327E+00
      7.767  0.1465E+00  0.7445E+00
      7.848  0.1967E+00  0.7603E+00
      7.928  0.2001E+00  0.7765E+00
      8.009  0.1514E+00  0.7886E+00
      8.089  0.1301E+00  0.7991E+00
      8.170  0.2168E+00  0.8166E+00
      8.251  0.1814E+00  0.8312E+00
      8.331  0.2356E+00  0.8502E+00
      8.412  0.1091E+00  0.8590E+00
      8.492  0.1074E+00  0.8676E+00
      8.573  0.1404E+00  0.8790E+00
      8.653  0.2941E-01  0.8813E+00
      8.734  0.3185E-01  0.8839E+00
      8.815  0.5398E-01  0.8882E+00
      8.895  0.6512E-01  0.8935E+00
      8.976  0.4598E-01  0.8972E+00
      9.056  0.9466E-01  0.9048E+00
      9.137  0.1073E+00  0.9135E+00
      9.217  0.7505E-01  0.9195E+00
      9.298  0.6626E-01  0.9249E+00
      9.379  0.6733E-01  0.9303E+00
      9.459  0.1244E+00  0.9403E+00
      9.540  0.8502E-01  0.9471E+00
      9.620  0.4365E-01  0.9507E+00
      9.701  0.1170E-01  0.9516E+00
      9.781  0.3660E-01  0.9546E+00
      9.862  0.3396E-01  0.9573E+00
      9.943  0.2417E-01  0.9592E+00
     10.023  0.6295E-02  0.9597E+00
     10.104  0.3047E-02  0.9600E+00
     10.184  0.8334E-04  0.9600E+00
     10.265  0.2307E-07  0.9600E+00
     10.345  0.4422E-13  0.9600E+00
     10.426  0.0000E+00  0.9600E+00
     10.507  0.0000E+00  0.9600E+00
     10.587  0.0000E+00  0.9600E+00
     10.668  0.0000E+00  0.9600E+00
     10.748  0.0000E+00  0.9600E+00
     10.829  0.0000E+00  0.9600E+00
     10.909  0.0000E+00  0.9600E+00
     10.990  0.1071E-14  0.9600E+00
     11.071  0.1273E-08  0.9600E+00
     11.151  0.1018E-04  0.9600E+00
     11.232  0.7456E-03  0.9601E+00
     11.312  0.1139E-02  0.9602E+00
     11.393  0.4422E-04  0.9602E+00
     11.473  0.1831E-07  0.9602E+00
     11.554  0.1608E-12  0.9602E+00
     11.635  0.5263E-07  0.9602E+00
     11.715  0.1790E-03  0.9602E+00
     11.796  0.6190E-02  0.9607E+00
     11.876  0.5171E-02  0.9611E+00
     11.957  0.9591E-04  0.9611E+00
     12.037  0.2165E-07  0.9611E+00
     12.118  0.6177E-04  0.9611E+00
     12.199  0.7309E-02  0.9617E+00
     12.279  0.2265E-01  0.9635E+00
     12.360  0.1092E-01  0.9644E+00
     12.440  0.2153E-02  0.9646E+00
     12.521  0.2833E-01  0.9668E+00
     12.601  0.7513E-01  0.9729E+00
     12.682  0.6204E-01  0.9779E+00
     12.763  0.1315E+00  0.9885E+00
     12.843  0.5565E-01  0.9930E+00
     12.924  0.3329E-01  0.9957E+00
     13.004  0.3206E-01  0.9982E+00
     13.085  0.5809E-01  0.1003E+01
     13.165  0.2282E-01  0.1005E+01
     13.246  0.6394E-01  0.1010E+01
     13.327  0.1530E+00  0.1022E+01
     13.407  0.6012E-01  0.1027E+01
     13.488  0.3429E-01  0.1030E+01
     13.568  0.8944E-01  0.1037E+01
     13.649  0.1823E+00  0.1052E+01
     13.729  0.7828E-01  0.1058E+01
     13.810  0.6059E-01  0.1063E+01
     13.891  0.1869E+00  0.1078E+01
     13.971  0.1881E+00  0.1093E+01
     14.052  0.1178E+00  0.1103E+01
     14.132  0.2641E-01  0.1105E+01
     14.213  0.2515E-01  0.1107E+01
     14.293  0.5385E-01  0.1111E+01
     14.374  0.4724E-01  0.1115E+01
     14.455  0.3718E-01  0.1118E+01
     14.535  0.6639E-01  0.1123E+01
     14.616  0.4027E-01  0.1127E+01
     14.696  0.8163E-01  0.1133E+01
     14.777  0.9930E-01  0.1141E+01
     14.857  0.3503E-01  0.1144E+01
     14.938  0.8429E-01  0.1151E+01
     15.019  0.1216E+00  0.1161E+01
     15.099  0.6636E-01  0.1166E+01
     15.180  0.9822E-01  0.1174E+01
     15.260  0.1367E+00  0.1185E+01
     15.341  0.2167E+00  0.1202E+01
     15.421  0.1360E+00  0.1213E+01
     15.502  0.8293E-01  0.1220E+01
     15.583  0.7868E-01  0.1226E+01
     15.663  0.9232E-01  0.1234E+01
     15.744  0.9494E-01  0.1241E+01
     15.824  0.7584E-01  0.1247E+01
     15.905  0.4819E-01  0.1251E+01
     15.985  0.3542E-01  0.1254E+01
     16.066  0.3563E-01  0.1257E+01
     16.147  0.1094E-01  0.1258E+01
     16.227  0.1635E-01  0.1259E+01
     16.308  0.5605E-02  0.1260E+01
     16.388  0.3744E-04  0.1260E+01
     16.469  0.7862E-03  0.1260E+01
     16.549  0.2804E-02  0.1260E+01
     16.630  0.2847E-03  0.1260E+01
     16.711  0.3726E-06  0.1260E+01
     16.791  0.3642E-11  0.1260E+01
     16.872  0.0000E+00  0.1260E+01
     16.952  0.0000E+00  0.1260E+01
     17.033  0.0000E+00  0.1260E+01
     17.113  0.0000E+00  0.1260E+01
     17.194  0.0000E+00  0.1260E+01
     17.275  0.0000E+00  0.1260E+01
     17.355  0.0000E+00  0.1260E+01
     17.436  0.0000E+00  0.1260E+01
     17.516  0.0000E+00  0.1260E+01
     17.597  0.0000E+00  0.1260E+01
