       N       E                     dE             d eps       ncg     rms          rms(c)
DAV:   1    -0.335247482330E+03   -0.33525E+03   -0.11766E-03  3210   0.123E-01    0.692E-02
DAV:   2    -0.335247499281E+03   -0.16951E-04   -0.26935E-04  2802   0.460E-02    0.372E-02
DAV:   3    -0.335247504395E+03   -0.51145E-05   -0.68005E-05  2778   0.240E-02
   1 F= -.16883190E+03 E0= -.16883190E+03  d E =-.168832E+03
       N       E                     dE             d eps       ncg     rms          rms(c)
DAV:   1    -0.321265411063E+03    0.13982E+02   -0.41249E+01  2574   0.200E+01    0.685E+00
DAV:   2    -0.320171900584E+03    0.10935E+01   -0.29278E+00  2760   0.397E+00    0.304E+00
DAV:   3    -0.320083685027E+03    0.88216E-01   -0.47358E-01  2838   0.151E+00    0.919E-01
DAV:   4    -0.320072933709E+03    0.10751E-01   -0.41266E-02  2838   0.463E-01    0.337E-01
DAV:   5    -0.320070870038E+03    0.20637E-02   -0.77331E-03  2868   0.196E-01    0.206E-01
DAV:   6    -0.320070537381E+03    0.33266E-03   -0.14526E-03  2790   0.900E-02    0.943E-02
DAV:   7    -0.320070470740E+03    0.66641E-04   -0.34598E-04  3150   0.578E-02    0.411E-02
DAV:   8    -0.320070469849E+03    0.89091E-06   -0.11161E-04  2652   0.290E-02    0.100E-02
DAV:   9    -0.320070470452E+03   -0.60374E-06   -0.12736E-05  1344   0.943E-03
   2 F= -.16755570E+03 E0= -.16755570E+03  d E =0.127620E+01
       N       E                     dE             d eps       ncg     rms          rms(c)
DAV:   1    -0.331311968425E+03   -0.11241E+02   -0.16769E+01  2568   0.123E+01    0.445E+00
DAV:   2    -0.330842406399E+03    0.46956E+00   -0.12692E+00  2766   0.258E+00    0.192E+00
DAV:   3    -0.330806605790E+03    0.35801E-01   -0.19268E-01  2766   0.948E-01    0.605E-01
DAV:   4    -0.330801648580E+03    0.49572E-02   -0.19140E-02  2850   0.312E-01    0.215E-01
DAV:   5    -0.330800564759E+03    0.10838E-02   -0.42986E-03  2844   0.143E-01    0.127E-01
DAV:   6    -0.330800356898E+03    0.20786E-03   -0.79523E-04  2796   0.659E-02    0.677E-02
DAV:   7    -0.330800316616E+03    0.40281E-04   -0.19946E-04  3186   0.430E-02    0.403E-02
DAV:   8    -0.330800282858E+03    0.33758E-04   -0.11966E-04  2682   0.264E-02    0.124E-02
DAV:   9    -0.330800283844E+03   -0.98525E-06   -0.81900E-06  1332   0.784E-03
   3 F= -.16934786E+03 E0= -.16934786E+03  d E =-.515964E+00
       N       E                     dE             d eps       ncg     rms          rms(c)
DAV:   1    -0.330721054343E+03    0.79229E-01   -0.12973E-03  2586   0.109E-01    0.369E-02
DAV:   2    -0.330721030280E+03    0.24063E-04   -0.84335E-05  2760   0.212E-02    0.171E-02
DAV:   3    -0.330721032377E+03   -0.20976E-05   -0.11622E-05  1284   0.774E-03
   4 F= -.16934802E+03 E0= -.16934802E+03  d E =-.516124E+00
       N       E                     dE             d eps       ncg     rms          rms(c)
DAV:   1    -0.330621568926E+03    0.99461E-01   -0.18235E-01  2754   0.128E+00    0.163E-01
DAV:   2    -0.330623823105E+03   -0.22542E-02   -0.25943E-02  2868   0.443E-01    0.179E-01
DAV:   3    -0.330623865270E+03   -0.42165E-04   -0.48410E-04  3042   0.570E-02    0.186E-01
DAV:   4    -0.330623904180E+03   -0.38910E-04   -0.15379E-05  1938   0.139E-02    0.195E-01
DAV:   5    -0.330627805583E+03   -0.39014E-02   -0.19568E-02  3198   0.492E-01    0.876E-01
DAV:   6    -0.330631177115E+03   -0.33715E-02   -0.13487E-02  2988   0.262E-01    0.122E+00
DAV:   7    -0.330625052292E+03    0.61248E-02   -0.69096E-03  3042   0.274E-01    0.715E-01
DAV:   8    -0.330623984654E+03    0.10676E-02   -0.34288E-03  3198   0.139E-01    0.488E-01
DAV:   9    -0.330624806511E+03   -0.82186E-03   -0.79453E-04  3072   0.826E-02    0.585E-01
DAV:  10    -0.330623192663E+03    0.16138E-02   -0.18372E-03  3042   0.164E-01    0.220E-01
DAV:  11    -0.330623055194E+03    0.13747E-03   -0.17279E-03  3246   0.102E-01    0.575E-02
DAV:  12    -0.330623088058E+03   -0.32864E-04   -0.25847E-04  2766   0.412E-02    0.827E-02
DAV:  13    -0.330623078040E+03    0.10019E-04   -0.25581E-05  2274   0.219E-02    0.364E-02
DAV:  14    -0.330623079799E+03   -0.17591E-05   -0.75844E-06  1596   0.121E-02
   5 F= -.16934719E+03 E0= -.16934719E+03  d E =0.834070E-03
       N       E                     dE             d eps       ncg     rms          rms(c)
DAV:   1    -0.330678831603E+03   -0.55754E-01   -0.49509E-02  2784   0.666E-01    0.991E-02
DAV:   2    -0.330679479104E+03   -0.64750E-03   -0.71193E-03  2814   0.231E-01    0.993E-02
DAV:   3    -0.330679437019E+03    0.42085E-04   -0.13590E-04  2952   0.328E-02    0.953E-02
DAV:   4    -0.330679302003E+03    0.13502E-03   -0.43986E-04  2880   0.571E-02    0.314E-02
DAV:   5    -0.330679305854E+03   -0.38511E-05   -0.18909E-04  2838   0.341E-02    0.126E-02
DAV:   6    -0.330679308993E+03   -0.31391E-05   -0.91199E-06  1326   0.808E-03
   6 F= -.16935280E+03 E0= -.16935280E+03  d E =-.477616E-02
