  28  28   0   0
  0.8887350E+01  0.8466132E-09  0.2920662E-09  0.1006385E-08  0.5000000E-15
  1.000000000000000E-004
  CAR 
 Al4C3 Pnma - H(P) scan @ 20 GPa (ISIF=8)
     18.31227187     -6.19626672  301     11.04395839      1.00000000
     -6.196  0.0000E+00  0.0000E+00
     -6.115  0.0000E+00  0.0000E+00
     -6.033  0.0000E+00  0.0000E+00
     -5.951  0.0000E+00  0.0000E+00
     -5.869  0.0000E+00  0.0000E+00
     -5.788  0.0000E+00  0.0000E+00
     -5.706  0.0000E+00  0.0000E+00
     -5.624  0.0000E+00  0.0000E+00
     -5.543  0.0000E+00  0.0000E+00
     -5.461  0.0000E+00  0.0000E+00
     -5.379  0.0000E+00  0.0000E+00
     -5.298  0.3882E-12  0.3172E-13
     -5.216  0.5429E-07  0.4435E-08
     -5.134  0.4937E-04  0.4038E-05
     -5.053  0.6797E-03  0.5956E-04
     -4.971  0.2620E-02  0.2736E-03
     -4.889  0.5196E-02  0.6981E-03
     -4.807  0.6225E-02  0.1207E-02
     -4.726  0.5739E-02  0.1676E-02
     -4.644  0.6142E-02  0.2177E-02
     -4.562  0.9458E-02  0.2950E-02
     -4.481  0.1296E-01  0.4009E-02
     -4.399  0.1014E-01  0.4837E-02
     -4.317  0.7740E-02  0.5470E-02
     -4.236  0.1001E-01  0.6287E-02
     -4.154  0.1168E-01  0.7241E-02
     -4.072  0.8274E-02  0.7917E-02
     -3.990  0.7883E-02  0.8561E-02
     -3.909  0.1458E-01  0.9752E-02
     -3.827  0.1907E-01  0.1131E-01
     -3.745  0.1307E-01  0.1238E-01
     -3.664  0.1266E-01  0.1341E-01
     -3.582  0.1213E-01  0.1440E-01
     -3.500  0.1742E-01  0.1583E-01
     -3.419  0.1568E-01  0.1711E-01
     -3.337  0.1984E-01  0.1873E-01
     -3.255  0.1117E-01  0.1964E-01
     -3.174  0.9809E-02  0.2044E-01
     -3.092  0.1558E-01  0.2171E-01
     -3.010  0.2111E-01  0.2344E-01
     -2.928  0.2609E-01  0.2557E-01
     -2.847  0.2189E-01  0.2736E-01
     -2.765  0.1998E-01  0.2899E-01
     -2.683  0.1542E-01  0.3025E-01
     -2.602  0.1794E-01  0.3172E-01
     -2.520  0.1730E-01  0.3313E-01
     -2.438  0.1956E-01  0.3473E-01
     -2.357  0.2728E-01  0.3696E-01
     -2.275  0.1508E-01  0.3819E-01
     -2.193  0.2006E-01  0.3983E-01
     -2.112  0.2987E-01  0.4227E-01
     -2.030  0.3662E-01  0.4526E-01
     -1.948  0.2692E-01  0.4746E-01
     -1.866  0.2886E-01  0.4982E-01
     -1.785  0.2051E-01  0.5149E-01
     -1.703  0.2341E-01  0.5340E-01
     -1.621  0.2422E-01  0.5538E-01
     -1.540  0.3098E-01  0.5791E-01
     -1.458  0.3422E-01  0.6071E-01
     -1.376  0.3550E-01  0.6361E-01
     -1.295  0.4062E-01  0.6693E-01
     -1.213  0.4073E-01  0.7025E-01
     -1.131  0.4355E-01  0.7381E-01
     -1.049  0.3649E-01  0.7679E-01
     -0.968  0.5603E-01  0.8137E-01
     -0.886  0.6022E-01  0.8629E-01
     -0.804  0.4802E-01  0.9021E-01
     -0.723  0.3408E-01  0.9300E-01
     -0.641  0.3440E-01  0.9581E-01
     -0.559  0.2889E-01  0.9817E-01
     -0.478  0.2507E-01  0.1002E+00
     -0.396  0.2232E-01  0.1020E+00
     -0.314  0.1614E-01  0.1034E+00
     -0.233  0.1770E-01  0.1048E+00
     -0.151  0.9525E-02  0.1056E+00
     -0.069  0.1493E-01  0.1068E+00
      0.013  0.2037E-01  0.1085E+00
      0.094  0.1800E-01  0.1099E+00
      0.176  0.1766E-01  0.1114E+00
      0.258  0.1970E-01  0.1130E+00
      0.339  0.1336E-01  0.1141E+00
      0.421  0.9916E-02  0.1149E+00
      0.503  0.8646E-02  0.1156E+00
      0.584  0.1615E-01  0.1169E+00
      0.666  0.9476E-02  0.1177E+00
      0.748  0.9890E-02  0.1185E+00
      0.830  0.1125E-01  0.1194E+00
      0.911  0.6041E-02  0.1199E+00
      0.993  0.1075E-02  0.1200E+00
      1.075  0.6490E-05  0.1200E+00
      1.156  0.3520E-09  0.1200E+00
      1.238  0.1134E-15  0.1200E+00
      1.320  0.0000E+00  0.1200E+00
      1.401  0.0000E+00  0.1200E+00
      1.483  0.9876E-14  0.1200E+00
      1.565  0.4867E-08  0.1200E+00
      1.646  0.1462E-04  0.1200E+00
      1.728  0.4383E-03  0.1200E+00
      1.810  0.1678E-02  0.1202E+00
      1.892  0.3176E-02  0.1204E+00
      1.973  0.4468E-02  0.1208E+00
      2.055  0.4232E-02  0.1211E+00
      2.137  0.9093E-02  0.1219E+00
      2.218  0.1493E-01  0.1231E+00
      2.300  0.2406E-01  0.1251E+00
      2.382  0.3033E-01  0.1276E+00
      2.463  0.1941E-01  0.1291E+00
      2.545  0.3366E-01  0.1319E+00
      2.627  0.3741E-01  0.1349E+00
      2.709  0.3052E-01  0.1374E+00
      2.790  0.4441E-01  0.1411E+00
      2.872  0.3468E-01  0.1439E+00
      2.954  0.3774E-01  0.1470E+00
      3.035  0.3634E-01  0.1499E+00
      3.117  0.3812E-01  0.1531E+00
      3.199  0.4212E-01  0.1565E+00
      3.280  0.4349E-01  0.1601E+00
      3.362  0.3640E-01  0.1630E+00
      3.444  0.3646E-01  0.1660E+00
      3.525  0.3818E-01  0.1691E+00
      3.607  0.4288E-01  0.1726E+00
      3.689  0.4216E-01  0.1761E+00
      3.771  0.6168E-01  0.1811E+00
      3.852  0.3327E-01  0.1838E+00
      3.934  0.1996E-01  0.1855E+00
      4.016  0.3465E-01  0.1883E+00
      4.097  0.3429E-01  0.1911E+00
      4.179  0.2947E-01  0.1935E+00
      4.261  0.3736E-01  0.1966E+00
      4.342  0.3670E-01  0.1996E+00
      4.424  0.3087E-01  0.2021E+00
      4.506  0.3602E-01  0.2050E+00
      4.587  0.5069E-01  0.2092E+00
      4.669  0.4561E-01  0.2129E+00
      4.751  0.4091E-01  0.2162E+00
      4.833  0.3910E-01  0.2194E+00
      4.914  0.3630E-01  0.2224E+00
      4.996  0.3522E-01  0.2253E+00
      5.078  0.3581E-01  0.2282E+00
      5.159  0.3276E-01  0.2309E+00
      5.241  0.2826E-01  0.2332E+00
      5.323  0.3045E-01  0.2357E+00
      5.404  0.3471E-01  0.2385E+00
      5.486  0.4440E-01  0.2421E+00
      5.568  0.4588E-01  0.2459E+00
      5.650  0.4520E-01  0.2496E+00
      5.731  0.5509E-01  0.2541E+00
      5.813  0.5671E-01  0.2587E+00
      5.895  0.4346E-01  0.2623E+00
      5.976  0.4828E-01  0.2662E+00
      6.058  0.4589E-01  0.2699E+00
      6.140  0.3701E-01  0.2730E+00
      6.221  0.4681E-01  0.2768E+00
      6.303  0.4989E-01  0.2809E+00
      6.385  0.4427E-01  0.2845E+00
      6.466  0.4341E-01  0.2880E+00
      6.548  0.5049E-01  0.2922E+00
      6.630  0.3155E-01  0.2947E+00
      6.712  0.4552E-01  0.2985E+00
      6.793  0.4305E-01  0.3020E+00
      6.875  0.3933E-01  0.3052E+00
      6.957  0.5442E-01  0.3096E+00
      7.038  0.4861E-01  0.3136E+00
      7.120  0.4138E-01  0.3170E+00
      7.202  0.3751E-01  0.3200E+00
      7.283  0.4380E-01  0.3236E+00
      7.365  0.4561E-01  0.3273E+00
      7.447  0.5762E-01  0.3321E+00
      7.529  0.5861E-01  0.3368E+00
      7.610  0.6082E-01  0.3418E+00
      7.692  0.4636E-01  0.3456E+00
      7.774  0.3196E-01  0.3482E+00
      7.855  0.3246E-01  0.3509E+00
      7.937  0.6754E-01  0.3564E+00
      8.019  0.5002E-01  0.3605E+00
      8.100  0.3758E-01  0.3635E+00
      8.182  0.4422E-01  0.3671E+00
      8.264  0.4056E-01  0.3705E+00
      8.345  0.5228E-01  0.3747E+00
      8.427  0.6043E-01  0.3797E+00
      8.509  0.5448E-01  0.3841E+00
      8.591  0.6013E-01  0.3890E+00
      8.672  0.6753E-01  0.3945E+00
      8.754  0.5284E-01  0.3989E+00
      8.836  0.5918E-01  0.4037E+00
      8.917  0.5993E-01  0.4086E+00
      8.999  0.5890E-01  0.4134E+00
      9.081  0.5916E-01  0.4182E+00
      9.162  0.7825E-01  0.4246E+00
      9.244  0.8568E-01  0.4316E+00
      9.326  0.6416E-01  0.4369E+00
      9.408  0.5299E-01  0.4412E+00
      9.489  0.7450E-01  0.4473E+00
      9.571  0.6650E-01  0.4527E+00
      9.653  0.4192E-01  0.4561E+00
      9.734  0.4866E-01  0.4601E+00
      9.816  0.5342E-01  0.4645E+00
      9.898  0.4184E-01  0.4679E+00
      9.979  0.2631E-01  0.4701E+00
     10.061  0.2943E-01  0.4725E+00
     10.143  0.2630E-01  0.4746E+00
     10.224  0.1498E-01  0.4758E+00
     10.306  0.9946E-02  0.4766E+00
     10.388  0.1009E-01  0.4775E+00
     10.470  0.9687E-02  0.4783E+00
     10.551  0.7112E-02  0.4788E+00
     10.633  0.5859E-02  0.4793E+00
     10.715  0.4658E-02  0.4797E+00
     10.796  0.3247E-02  0.4800E+00
     10.878  0.4086E-03  0.4800E+00
     10.960  0.2632E-05  0.4800E+00
     11.041  0.1949E-09  0.4800E+00
     11.123  0.8841E-16  0.4800E+00
     11.205  0.9160E-12  0.4800E+00
     11.286  0.1545E-06  0.4800E+00
     11.368  0.1669E-03  0.4800E+00
     11.450  0.1992E-02  0.4802E+00
     11.532  0.1260E-02  0.4803E+00
     11.613  0.4867E-02  0.4807E+00
     11.695  0.8647E-02  0.4814E+00
     11.777  0.5866E-02  0.4819E+00
     11.858  0.9088E-02  0.4826E+00
     11.940  0.1925E-01  0.4842E+00
     12.022  0.2738E-01  0.4864E+00
     12.103  0.2587E-01  0.4885E+00
     12.185  0.1681E-01  0.4899E+00
     12.267  0.1020E-01  0.4907E+00
     12.349  0.1001E-01  0.4916E+00
     12.430  0.1250E-01  0.4926E+00
     12.512  0.1131E-01  0.4935E+00
     12.594  0.3476E-01  0.4963E+00
     12.675  0.2612E-01  0.4985E+00
     12.757  0.3159E-01  0.5011E+00
     12.839  0.3674E-01  0.5041E+00
     12.920  0.2651E-01  0.5062E+00
     13.002  0.2334E-01  0.5081E+00
     13.084  0.3260E-01  0.5108E+00
     13.165  0.2488E-01  0.5128E+00
     13.247  0.2850E-01  0.5152E+00
     13.329  0.3326E-01  0.5179E+00
     13.411  0.2479E-01  0.5199E+00
     13.492  0.2074E-01  0.5216E+00
     13.574  0.2580E-01  0.5237E+00
     13.656  0.2693E-01  0.5259E+00
     13.737  0.1972E-01  0.5275E+00
     13.819  0.1845E-01  0.5290E+00
     13.901  0.1872E-01  0.5305E+00
     13.982  0.2558E-01  0.5326E+00
     14.064  0.5518E-01  0.5371E+00
     14.146  0.5710E-01  0.5418E+00
     14.228  0.4836E-01  0.5458E+00
     14.309  0.4377E-01  0.5493E+00
     14.391  0.3948E-01  0.5526E+00
     14.473  0.4681E-01  0.5564E+00
     14.554  0.4302E-01  0.5599E+00
     14.636  0.3748E-01  0.5630E+00
     14.718  0.3796E-01  0.5661E+00
     14.799  0.4288E-01  0.5696E+00
     14.881  0.4700E-01  0.5734E+00
     14.963  0.4114E-01  0.5768E+00
     15.044  0.4287E-01  0.5803E+00
     15.126  0.4432E-01  0.5839E+00
     15.208  0.3327E-01  0.5866E+00
     15.290  0.3237E-01  0.5892E+00
     15.371  0.4807E-01  0.5932E+00
     15.453  0.4557E-01  0.5969E+00
     15.535  0.4443E-01  0.6005E+00
     15.616  0.3509E-01  0.6034E+00
     15.698  0.4671E-01  0.6072E+00
     15.780  0.4918E-01  0.6112E+00
     15.861  0.4206E-01  0.6147E+00
     15.943  0.3946E-01  0.6179E+00
     16.025  0.4043E-01  0.6212E+00
     16.107  0.4307E-01  0.6247E+00
     16.188  0.4278E-01  0.6282E+00
     16.270  0.4200E-01  0.6316E+00
     16.352  0.2968E-01  0.6341E+00
     16.433  0.2301E-01  0.6359E+00
     16.515  0.4447E-01  0.6396E+00
     16.597  0.3618E-01  0.6425E+00
     16.678  0.3765E-01  0.6456E+00
     16.760  0.3140E-01  0.6482E+00
     16.842  0.1727E-01  0.6496E+00
     16.923  0.2565E-01  0.6517E+00
     17.005  0.3318E-01  0.6544E+00
     17.087  0.3747E-01  0.6575E+00
     17.169  0.2242E-01  0.6593E+00
     17.250  0.8369E-02  0.6600E+00
     17.332  0.4219E-03  0.6600E+00
     17.414  0.3976E-06  0.6600E+00
     17.495  0.2662E-11  0.6600E+00
     17.577  0.0000E+00  0.6600E+00
     17.659  0.0000E+00  0.6600E+00
     17.740  0.0000E+00  0.6600E+00
     17.822  0.0000E+00  0.6600E+00
     17.904  0.0000E+00  0.6600E+00
     17.985  0.0000E+00  0.6600E+00
     18.067  0.0000E+00  0.6600E+00
     18.149  0.0000E+00  0.6600E+00
     18.231  0.0000E+00  0.6600E+00
     18.312  0.0000E+00  0.6600E+00
