       N       E                     dE             d eps       ncg     rms          rms(c)
DAV:   1    -0.163288507409E+03   -0.16329E+03   -0.79472E-02  7128   0.316E+00    0.181E-02
DAV:   2    -0.163288514359E+03   -0.69499E-05   -0.35750E-06  3978   0.103E-02
   1 F= -.13222506E+03 E0= -.13222506E+03  d E =-.132225E+03
       N       E                     dE             d eps       ncg     rms          rms(c)
DAV:   1    -0.166196828903E+03   -0.29083E+01   -0.16601E+01  8292   0.159E+01    0.426E+00
DAV:   2    -0.165773167253E+03    0.42366E+00   -0.12695E+00  8292   0.343E+00    0.177E+00
DAV:   3    -0.165747852717E+03    0.25315E-01   -0.13878E-01  8424   0.110E+00    0.581E-01
DAV:   4    -0.165742430620E+03    0.54221E-02   -0.10901E-02  8502   0.310E-01    0.209E-01
DAV:   5    -0.165741451515E+03    0.97911E-03   -0.17354E-03  8532   0.129E-01    0.106E-01
DAV:   6    -0.165741334449E+03    0.11707E-03   -0.24992E-04  8460   0.505E-02    0.355E-02
DAV:   7    -0.165741325127E+03    0.93225E-05   -0.27040E-05  6222   0.218E-02
   2 F= -.13212065E+03 E0= -.13212065E+03  d E =0.104406E+00
       N       E                     dE             d eps       ncg     rms          rms(c)
DAV:   1    -0.164845608516E+03    0.89573E+00   -0.50707E+00  8220   0.905E+00    0.231E+00
DAV:   2    -0.164722462854E+03    0.12315E+00   -0.36052E-01  8322   0.185E+00    0.984E-01
DAV:   3    -0.164714385237E+03    0.80776E-02   -0.42186E-02  8346   0.613E-01    0.317E-01
DAV:   4    -0.164712870142E+03    0.15151E-02   -0.30232E-03  8460   0.165E-01    0.115E-01
DAV:   5    -0.164712639782E+03    0.23036E-03   -0.44525E-04  8496   0.663E-02    0.605E-02
DAV:   6    -0.164712618724E+03    0.21058E-04   -0.64655E-05  8016   0.257E-02    0.173E-02
DAV:   7    -0.164712618514E+03    0.21008E-06   -0.75817E-06  4434   0.114E-02
   3 F= -.13250116E+03 E0= -.13250116E+03  d E =-.276099E+00
       N       E                     dE             d eps       ncg     rms          rms(c)
DAV:   1    -0.164703493528E+03    0.91252E-02   -0.23996E-04  8406   0.616E-02    0.158E-02
DAV:   2    -0.164703489064E+03    0.44646E-05   -0.16401E-05  4596   0.133E-02
   4 F= -.13250118E+03 E0= -.13250118E+03  d E =-.276120E+00
       N       E                     dE             d eps       ncg     rms          rms(c)
DAV:   1    -0.164735420241E+03   -0.31927E-01   -0.53308E-01  7146   0.297E+00    0.141E-01
DAV:   2    -0.164735570527E+03   -0.15029E-03   -0.98962E-03  8862   0.362E-01    0.982E-02
DAV:   3    -0.164735309159E+03    0.26137E-03   -0.58920E-04  8796   0.993E-02    0.460E-02
DAV:   4    -0.164735287646E+03    0.21513E-04   -0.29201E-04  8544   0.585E-02    0.197E-02
DAV:   5    -0.164735287388E+03    0.25785E-06   -0.28396E-05  5598   0.200E-02
   5 F= -.13250870E+03 E0= -.13250870E+03  d E =-.751693E-02
       N       E                     dE             d eps       ncg     rms          rms(c)
DAV:   1    -0.164744770419E+03   -0.94828E-02   -0.70785E-02  7158   0.108E+00    0.519E-02
DAV:   2    -0.164744792490E+03   -0.22070E-04   -0.13261E-03  8874   0.133E-01    0.367E-02
DAV:   3    -0.164744757294E+03    0.35195E-04   -0.81912E-05  8670   0.369E-02    0.174E-02
DAV:   4    -0.164744754697E+03    0.25973E-05   -0.38137E-05  6432   0.215E-02
   6 F= -.13250933E+03 E0= -.13250933E+03  d E =-.814524E-02
       N       E                     dE             d eps       ncg     rms          rms(c)
DAV:   1    -0.164764557116E+03   -0.19800E-01   -0.62940E-01  7128   0.313E+00    0.139E-01
DAV:   2    -0.164764456659E+03    0.10046E-03   -0.12986E-02  8850   0.423E-01    0.913E-02
DAV:   3    -0.164764192896E+03    0.26376E-03   -0.82921E-04  8418   0.116E-01    0.402E-02
DAV:   4    -0.164764199048E+03   -0.61514E-05   -0.31924E-04  8628   0.540E-02    0.177E-02
DAV:   5    -0.164764200055E+03   -0.10071E-05   -0.12280E-05  5130   0.134E-02
   7 F= -.13251349E+03 E0= -.13251349E+03  d E =-.416708E-02
       N       E                     dE             d eps       ncg     rms          rms(c)
DAV:   1    -0.164766115835E+03   -0.19168E-02   -0.93798E-03  7266   0.383E-01    0.180E-02
DAV:   2    -0.164766113874E+03    0.19613E-05   -0.19343E-04  8874   0.518E-02    0.114E-02
DAV:   3    -0.164766109735E+03    0.41387E-05   -0.11980E-05  4938   0.147E-02
   8 F= -.13251354E+03 E0= -.13251354E+03  d E =-.421761E-02
       N       E                     dE             d eps       ncg     rms          rms(c)
DAV:   1    -0.164777762378E+03   -0.11649E-01   -0.26928E-01  7140   0.210E+00    0.869E-02
DAV:   2    -0.164777915868E+03   -0.15349E-03   -0.56309E-03  8760   0.275E-01    0.624E-02
DAV:   3    -0.164777837186E+03    0.78682E-04   -0.23611E-04  8574   0.634E-02    0.370E-02
DAV:   4    -0.164777818973E+03    0.18213E-04   -0.18964E-04  8580   0.448E-02    0.123E-02
DAV:   5    -0.164777817799E+03    0.11735E-05   -0.16059E-05  5202   0.167E-02
   9 F= -.13251563E+03 E0= -.13251563E+03  d E =-.209113E-02
       N       E                     dE             d eps       ncg     rms          rms(c)
DAV:   1    -0.164780605479E+03   -0.27865E-02   -0.21025E-02  7206   0.586E-01    0.248E-02
DAV:   2    -0.164780622427E+03   -0.16948E-04   -0.46713E-04  8868   0.787E-02    0.184E-02
DAV:   3    -0.164780615709E+03    0.67181E-05   -0.16261E-05  5862   0.178E-02
  10 F= -.13251575E+03 E0= -.13251575E+03  d E =-.220214E-02
       N       E                     dE             d eps       ncg     rms          rms(c)
DAV:   1    -0.164785114019E+03   -0.44916E-02   -0.83784E-02  7128   0.118E+00    0.487E-02
DAV:   2    -0.164785178197E+03   -0.64177E-04   -0.13930E-03  8766   0.138E-01    0.336E-02
DAV:   3    -0.164785145886E+03    0.32311E-04   -0.77936E-05  8778   0.362E-02    0.159E-02
DAV:   4    -0.164785143759E+03    0.21269E-05   -0.39796E-05  6174   0.220E-02
  11 F= -.13251694E+03 E0= -.13251694E+03  d E =-.119106E-02
       N       E                     dE             d eps       ncg     rms          rms(c)
DAV:   1    -0.164790186202E+03   -0.50403E-02   -0.15233E-01  7128   0.159E+00    0.648E-02
DAV:   2    -0.164790316677E+03   -0.13048E-03   -0.25700E-03  8772   0.186E-01    0.446E-02
DAV:   3    -0.164790260814E+03    0.55863E-04   -0.12238E-04  8778   0.461E-02    0.219E-02
DAV:   4    -0.164790256308E+03    0.45065E-05   -0.77237E-05  8004   0.302E-02
  12 F= -.13251756E+03 E0= -.13251756E+03  d E =-.181542E-02
       N       E                     dE             d eps       ncg     rms          rms(c)
DAV:   1    -0.164792483795E+03   -0.22230E-02   -0.10621E-01  7128   0.133E+00    0.502E-02
DAV:   2    -0.164792540739E+03   -0.56944E-04   -0.14142E-03  8916   0.140E-01    0.330E-02
DAV:   3    -0.164792519059E+03    0.21679E-04   -0.90540E-05  8772   0.386E-02    0.162E-02
DAV:   4    -0.164792518682E+03    0.37764E-06   -0.25418E-05  5316   0.174E-02
  13 F= -.13251845E+03 E0= -.13251845E+03  d E =-.893701E-03
       N       E                     dE             d eps       ncg     rms          rms(c)
DAV:   1    -0.164793606561E+03   -0.10875E-02   -0.49386E-02  7140   0.906E-01    0.343E-02
DAV:   2    -0.164793633229E+03   -0.26668E-04   -0.64553E-04  8904   0.951E-02    0.222E-02
DAV:   3    -0.164793623920E+03    0.93087E-05   -0.43359E-05  8226   0.267E-02
  14 F= -.13251862E+03 E0= -.13251862E+03  d E =-.106369E-02
       N       E                     dE             d eps       ncg     rms          rms(c)
DAV:   1    -0.164796680967E+03   -0.30477E-02   -0.96595E-02  7128   0.126E+00    0.498E-02
DAV:   2    -0.164796699448E+03   -0.18481E-04   -0.11601E-03  8856   0.130E-01    0.304E-02
DAV:   3    -0.164796666473E+03    0.32975E-04   -0.10451E-04  8664   0.419E-02    0.110E-02
DAV:   4    -0.164796667818E+03   -0.13453E-05   -0.32668E-05  5244   0.181E-02
  15 F= -.13251926E+03 E0= -.13251926E+03  d E =-.639667E-03
       N       E                     dE             d eps       ncg     rms          rms(c)
DAV:   1    -0.164801184643E+03   -0.45182E-02   -0.27632E-01  7128   0.214E+00    0.825E-02
DAV:   2    -0.164801251309E+03   -0.66666E-04   -0.33671E-03  8880   0.220E-01    0.499E-02
DAV:   3    -0.164801159570E+03    0.91739E-04   -0.29606E-04  8664   0.701E-02    0.176E-02
DAV:   4    -0.164801162722E+03   -0.31525E-05   -0.89958E-05  7068   0.301E-02
  16 F= -.13251970E+03 E0= -.13251970E+03  d E =-.107266E-02
       N       E                     dE             d eps       ncg     rms          rms(c)
DAV:   1    -0.164801335040E+03   -0.17547E-03   -0.31931E-02  7158   0.717E-01    0.327E-02
DAV:   2    -0.164801326871E+03    0.81690E-05   -0.53936E-04  8592   0.861E-02    0.222E-02
DAV:   3    -0.164801313822E+03    0.13049E-04   -0.45843E-05  8334   0.281E-02    0.923E-03
DAV:   4    -0.164801314186E+03   -0.36418E-06   -0.16546E-05  5058   0.133E-02
  17 F= -.13251992E+03 E0= -.13251992E+03  d E =-.227489E-03
       N       E                     dE             d eps       ncg     rms          rms(c)
DAV:   1    -0.164801305207E+03    0.86151E-05   -0.33496E-03  7194   0.232E-01    0.105E-02
DAV:   2    -0.164801304573E+03    0.63367E-06   -0.54656E-05  8478   0.274E-02
  18 F= -.13251994E+03 E0= -.13251994E+03  d E =-.242621E-03
       N       E                     dE             d eps       ncg     rms          rms(c)
DAV:   1    -0.164802670713E+03   -0.13655E-02   -0.35126E-03  7182   0.242E-01    0.139E-02
DAV:   2    -0.164802671786E+03   -0.10734E-05   -0.11694E-04  8724   0.406E-02    0.966E-03
DAV:   3    -0.164802670318E+03    0.14681E-05   -0.62508E-06  4386   0.107E-02
  19 F= -.13251999E+03 E0= -.13251999E+03  d E =-.462307E-04
