Al4C3 Pnma (POSCAR.IV, symmetrized via s
   1.00000000000000     
     8.4661321331230699    0.0000000000000000    0.0000000000000000
     0.0000000000000000    2.9206617320422592    0.0000000000000000
     0.0000000000000000    0.0000000000000000   10.0638470698102083
   Al   C 
    16    12
Direct
  0.2653662756169086  0.2500000000000000  0.2998094253137997
  0.2346337243830914  0.7500000000000000  0.7998094253137998
  0.7346337243830913  0.7500000000000000  0.7001905746862002
  0.7653662756169087  0.2500000000000000  0.2001905746862002
  0.3505683977372345  0.2500000000000000  0.0125082129755329
  0.1494316022627654  0.7500000000000000  0.5125082129755327
  0.6494316022627654  0.7500000000000000  0.9874917870244673
  0.8505683977372346  0.2500000000000000  0.4874917870244672
  0.5210731829282753  0.2500000000000000  0.7944942525692448
  0.9789268170717247  0.7500000000000000  0.2944942525692444
  0.4789268170717247  0.7500000000000000  0.2055057474307555
  0.0210731829282752  0.2500000000000000  0.7055057474307552
  0.0721094711847170  0.2500000000000000  0.0879249057360745
  0.4278905288152900  0.7500000000000000  0.5879249057360745
  0.9278905288152827  0.7500000000000000  0.9120750942639255
  0.5721094711847173  0.2500000000000000  0.4120750942639255
  0.2558457987181843  0.2500000000000000  0.6413013313221800
  0.2441542012818158  0.7500000000000000  0.1413013313221802
  0.7441542012818159  0.7500000000000000  0.3586986686778197
  0.7558457987181841  0.2500000000000000  0.8586986686778200
  0.6001644801890955  0.2500000000000000  0.6097310693268881
  0.8998355198109045  0.7500000000000000  0.1097310693268881
  0.3998355198109117  0.7500000000000000  0.3902689306731119
  0.1001644801890955  0.2500000000000000  0.8902689306731119
  0.0662870991685987  0.2500000000000000  0.3883872872382365
  0.4337129008314014  0.7500000000000000  0.8883872872382365
  0.9337129008314013  0.7500000000000000  0.6116127127617635
  0.5662870991685987  0.2500000000000000  0.1116127127617635
 
  0.00000000E+00  0.00000000E+00  0.00000000E+00
  0.00000000E+00  0.00000000E+00  0.00000000E+00
  0.00000000E+00  0.00000000E+00  0.00000000E+00
  0.00000000E+00  0.00000000E+00  0.00000000E+00
  0.00000000E+00  0.00000000E+00  0.00000000E+00
  0.00000000E+00  0.00000000E+00  0.00000000E+00
  0.00000000E+00  0.00000000E+00  0.00000000E+00
  0.00000000E+00  0.00000000E+00  0.00000000E+00
  0.00000000E+00  0.00000000E+00  0.00000000E+00
  0.00000000E+00  0.00000000E+00  0.00000000E+00
  0.00000000E+00  0.00000000E+00  0.00000000E+00
  0.00000000E+00  0.00000000E+00  0.00000000E+00
  0.00000000E+00  0.00000000E+00  0.00000000E+00
  0.00000000E+00  0.00000000E+00  0.00000000E+00
  0.00000000E+00  0.00000000E+00  0.00000000E+00
  0.00000000E+00  0.00000000E+00  0.00000000E+00
  0.00000000E+00  0.00000000E+00  0.00000000E+00
  0.00000000E+00  0.00000000E+00  0.00000000E+00
  0.00000000E+00  0.00000000E+00  0.00000000E+00
  0.00000000E+00  0.00000000E+00  0.00000000E+00
  0.00000000E+00  0.00000000E+00  0.00000000E+00
  0.00000000E+00  0.00000000E+00  0.00000000E+00
  0.00000000E+00  0.00000000E+00  0.00000000E+00
  0.00000000E+00  0.00000000E+00  0.00000000E+00
  0.00000000E+00  0.00000000E+00  0.00000000E+00
  0.00000000E+00  0.00000000E+00  0.00000000E+00
  0.00000000E+00  0.00000000E+00  0.00000000E+00
  0.00000000E+00  0.00000000E+00  0.00000000E+00
