Al4C3 Pbam polymorph (findsym-output) - 
   1.00000000000000     
     8.3806941383084688    0.0000000000000000    0.0000000000000000
     0.0000000000000000    4.8390852246800868    0.0000000000000000
     0.0000000000000000    0.0000000000000000    2.8665352410719955
   Al   C 
     8     6
Direct
  0.7856291565025830  0.1614679512903831 -0.0000000000000000
  0.2143708434974169  0.8385320487096170  0.0000000000000000
  0.7143708434974170  0.6614679512903830 -0.0000000000000000
  0.2856291565025829  0.3385320487096170  0.0000000000000000
  0.0311659918453403  0.2527020449018861  0.5000000000000000
  0.9688340321546617  0.7472979550981137  0.5000000000000000
  0.4688340021546592  0.7527020449018863  0.5000000000000000
  0.5311659678453383  0.2472979550981137  0.5000000000000000
 -0.0000000000000000 -0.0000000000000000  0.0000000000000000
  0.5000000000000000  0.5000000000000000  0.0000000000000000
  0.8247300225093914  0.4467964426930264  0.5000000000000000
  0.1752699774906087  0.5532035573069736  0.5000000000000000
  0.6752699774906086  0.9467964426930264  0.5000000000000000
  0.3247300225093913  0.0532035573069736  0.5000000000000000
 
  0.00000000E+00  0.00000000E+00  0.00000000E+00
  0.00000000E+00  0.00000000E+00  0.00000000E+00
  0.00000000E+00  0.00000000E+00  0.00000000E+00
  0.00000000E+00  0.00000000E+00  0.00000000E+00
  0.00000000E+00  0.00000000E+00  0.00000000E+00
  0.00000000E+00  0.00000000E+00  0.00000000E+00
  0.00000000E+00  0.00000000E+00  0.00000000E+00
  0.00000000E+00  0.00000000E+00  0.00000000E+00
  0.00000000E+00  0.00000000E+00  0.00000000E+00
  0.00000000E+00  0.00000000E+00  0.00000000E+00
  0.00000000E+00  0.00000000E+00  0.00000000E+00
  0.00000000E+00  0.00000000E+00  0.00000000E+00
  0.00000000E+00  0.00000000E+00  0.00000000E+00
  0.00000000E+00  0.00000000E+00  0.00000000E+00
