  14  14   0   0
  0.8379283E+01  0.8406040E-09  0.4853720E-09  0.2875204E-09  0.5000000E-15
  1.000000000000000E-004
  CAR 
 Al4C3 Pbam - r2SCAN H(P) scan @ 60 GPa (
     22.57324975     -6.89903866  301     11.85788678      1.00000000
     -6.899  0.0000E+00  0.0000E+00
     -6.801  0.0000E+00  0.0000E+00
     -6.703  0.0000E+00  0.0000E+00
     -6.604  0.0000E+00  0.0000E+00
     -6.506  0.0000E+00  0.0000E+00
     -6.408  0.0000E+00  0.0000E+00
     -6.310  0.0000E+00  0.0000E+00
     -6.211  0.0000E+00  0.0000E+00
     -6.113  0.0000E+00  0.0000E+00
     -6.015  0.0000E+00  0.0000E+00
     -5.917  0.0000E+00  0.0000E+00
     -5.818  0.3930E-16  0.3861E-17
     -5.720  0.8995E-09  0.8837E-10
     -5.622  0.1273E-04  0.1250E-05
     -5.524  0.2859E-03  0.2933E-04
     -5.425  0.1318E-02  0.1588E-03
     -5.327  0.2328E-02  0.3875E-03
     -5.229  0.2852E-02  0.6677E-03
     -5.131  0.2408E-02  0.9043E-03
     -5.032  0.1933E-02  0.1094E-02
     -4.934  0.5642E-02  0.1648E-02
     -4.836  0.6834E-02  0.2320E-02
     -4.738  0.3144E-02  0.2629E-02
     -4.639  0.1392E-02  0.2765E-02
     -4.541  0.5083E-02  0.3265E-02
     -4.443  0.8968E-02  0.4146E-02
     -4.345  0.5976E-02  0.4733E-02
     -4.247  0.5471E-02  0.5270E-02
     -4.148  0.6299E-02  0.5889E-02
     -4.050  0.6884E-02  0.6565E-02
     -3.952  0.8771E-02  0.7427E-02
     -3.854  0.9046E-02  0.8316E-02
     -3.755  0.6814E-02  0.8985E-02
     -3.657  0.5263E-02  0.9502E-02
     -3.559  0.3564E-02  0.9852E-02
     -3.461  0.7720E-02  0.1061E-01
     -3.362  0.9206E-02  0.1152E-01
     -3.264  0.7268E-02  0.1223E-01
     -3.166  0.4326E-02  0.1265E-01
     -3.068  0.1048E-01  0.1368E-01
     -2.969  0.1069E-01  0.1473E-01
     -2.871  0.4814E-02  0.1521E-01
     -2.773  0.6116E-02  0.1581E-01
     -2.675  0.1606E-01  0.1739E-01
     -2.576  0.1118E-01  0.1848E-01
     -2.478  0.6493E-02  0.1912E-01
     -2.380  0.7864E-02  0.1989E-01
     -2.282  0.1704E-01  0.2157E-01
     -2.183  0.7666E-02  0.2232E-01
     -2.085  0.1451E-01  0.2375E-01
     -1.987  0.1224E-01  0.2495E-01
     -1.889  0.5670E-02  0.2551E-01
     -1.791  0.1494E-01  0.2697E-01
     -1.692  0.1778E-01  0.2872E-01
     -1.594  0.9895E-02  0.2969E-01
     -1.496  0.1281E-01  0.3095E-01
     -1.398  0.2151E-01  0.3306E-01
     -1.299  0.1604E-01  0.3464E-01
     -1.201  0.2272E-01  0.3687E-01
     -1.103  0.2217E-01  0.3905E-01
     -1.005  0.2116E-01  0.4113E-01
     -0.906  0.2623E-01  0.4370E-01
     -0.808  0.1894E-01  0.4556E-01
     -0.710  0.1227E-01  0.4677E-01
     -0.612  0.1605E-01  0.4835E-01
     -0.513  0.1276E-01  0.4960E-01
     -0.415  0.1094E-01  0.5068E-01
     -0.317  0.5356E-02  0.5120E-01
     -0.219  0.7823E-02  0.5197E-01
     -0.120  0.1360E-01  0.5331E-01
     -0.022  0.9667E-02  0.5426E-01
      0.076  0.8744E-02  0.5511E-01
      0.174  0.5671E-02  0.5567E-01
      0.273  0.4868E-02  0.5615E-01
      0.371  0.6312E-02  0.5677E-01
      0.469  0.9202E-02  0.5767E-01
      0.567  0.2206E-02  0.5789E-01
      0.666  0.1562E-02  0.5804E-01
      0.764  0.2470E-02  0.5829E-01
      0.862  0.4620E-02  0.5874E-01
      0.960  0.2506E-02  0.5899E-01
      1.058  0.3153E-02  0.5930E-01
      1.157  0.5803E-03  0.5935E-01
      1.255  0.1651E-02  0.5952E-01
      1.353  0.1666E-02  0.5968E-01
      1.451  0.1216E-02  0.5980E-01
      1.550  0.1294E-02  0.5993E-01
      1.648  0.2004E-03  0.5995E-01
      1.746  0.5283E-03  0.6000E-01
      1.844  0.2344E-04  0.6000E-01
      1.943  0.1503E-08  0.6000E-01
      2.041  0.1986E-08  0.6000E-01
      2.139  0.2593E-04  0.6000E-01
      2.237  0.1257E-02  0.6013E-01
      2.336  0.2215E-02  0.6034E-01
      2.434  0.3338E-02  0.6067E-01
      2.532  0.3060E-02  0.6097E-01
      2.630  0.6551E-02  0.6162E-01
      2.729  0.1030E-01  0.6263E-01
      2.827  0.1249E-01  0.6385E-01
      2.925  0.1106E-01  0.6494E-01
      3.023  0.1438E-01  0.6635E-01
      3.122  0.1671E-01  0.6800E-01
      3.220  0.2718E-01  0.7067E-01
      3.318  0.1609E-01  0.7225E-01
      3.416  0.2069E-01  0.7428E-01
      3.515  0.1998E-01  0.7624E-01
      3.613  0.1797E-01  0.7801E-01
      3.711  0.2010E-01  0.7998E-01
      3.809  0.1623E-01  0.8158E-01
      3.907  0.1418E-01  0.8297E-01
      4.006  0.1278E-01  0.8423E-01
      4.104  0.1729E-01  0.8592E-01
      4.202  0.1371E-01  0.8727E-01
      4.300  0.1819E-01  0.8906E-01
      4.399  0.1978E-01  0.9100E-01
      4.497  0.1898E-01  0.9287E-01
      4.595  0.2014E-01  0.9484E-01
      4.693  0.1601E-01  0.9642E-01
      4.792  0.1323E-01  0.9772E-01
      4.890  0.2120E-01  0.9980E-01
      4.988  0.1903E-01  0.1017E+00
      5.086  0.1728E-01  0.1034E+00
      5.185  0.1428E-01  0.1048E+00
      5.283  0.1500E-01  0.1062E+00
      5.381  0.1622E-01  0.1078E+00
      5.479  0.1024E-01  0.1088E+00
      5.578  0.2022E-01  0.1108E+00
      5.676  0.2095E-01  0.1129E+00
      5.774  0.2220E-01  0.1151E+00
      5.872  0.2131E-01  0.1172E+00
      5.971  0.2328E-01  0.1194E+00
      6.069  0.2126E-01  0.1215E+00
      6.167  0.1390E-01  0.1229E+00
      6.265  0.8988E-02  0.1238E+00
      6.363  0.1228E-01  0.1250E+00
      6.462  0.2699E-01  0.1276E+00
      6.560  0.3096E-01  0.1307E+00
      6.658  0.2609E-01  0.1332E+00
      6.756  0.1890E-01  0.1351E+00
      6.855  0.1417E-01  0.1365E+00
      6.953  0.1867E-01  0.1383E+00
      7.051  0.1575E-01  0.1399E+00
      7.149  0.2392E-01  0.1422E+00
      7.248  0.2719E-01  0.1449E+00
      7.346  0.2895E-01  0.1477E+00
      7.444  0.1855E-01  0.1496E+00
      7.542  0.1906E-01  0.1514E+00
      7.641  0.1423E-01  0.1528E+00
      7.739  0.1587E-01  0.1544E+00
      7.837  0.1993E-01  0.1564E+00
      7.935  0.2080E-01  0.1584E+00
      8.034  0.2403E-01  0.1608E+00
      8.132  0.2464E-01  0.1632E+00
      8.230  0.2802E-01  0.1659E+00
      8.328  0.2357E-01  0.1682E+00
      8.427  0.2069E-01  0.1703E+00
      8.525  0.1883E-01  0.1721E+00
      8.623  0.2018E-01  0.1741E+00
      8.721  0.2011E-01  0.1761E+00
      8.820  0.2177E-01  0.1782E+00
      8.918  0.2727E-01  0.1809E+00
      9.016  0.1593E-01  0.1825E+00
      9.114  0.2226E-01  0.1847E+00
      9.212  0.2614E-01  0.1872E+00
      9.311  0.2518E-01  0.1897E+00
      9.409  0.3151E-01  0.1928E+00
      9.507  0.2834E-01  0.1956E+00
      9.605  0.2586E-01  0.1981E+00
      9.704  0.2338E-01  0.2004E+00
      9.802  0.2062E-01  0.2024E+00
      9.900  0.2472E-01  0.2049E+00
      9.998  0.2927E-01  0.2077E+00
     10.097  0.2217E-01  0.2099E+00
     10.195  0.2032E-01  0.2119E+00
     10.293  0.2114E-01  0.2140E+00
     10.391  0.1685E-01  0.2157E+00
     10.490  0.3069E-01  0.2187E+00
     10.588  0.3610E-01  0.2222E+00
     10.686  0.2777E-01  0.2249E+00
     10.784  0.2571E-01  0.2275E+00
     10.883  0.2946E-01  0.2304E+00
     10.981  0.2354E-01  0.2327E+00
     11.079  0.2030E-01  0.2347E+00
     11.177  0.1447E-01  0.2361E+00
     11.276  0.1141E-01  0.2372E+00
     11.374  0.5522E-02  0.2378E+00
     11.472  0.7966E-02  0.2385E+00
     11.570  0.6061E-02  0.2391E+00
     11.669  0.2945E-02  0.2394E+00
     11.767  0.3536E-02  0.2398E+00
     11.865  0.2554E-02  0.2400E+00
     11.963  0.2745E-02  0.2403E+00
     12.061  0.3683E-03  0.2403E+00
     12.160  0.2386E-03  0.2403E+00
     12.258  0.2216E-02  0.2406E+00
     12.356  0.1016E-02  0.2407E+00
     12.454  0.9777E-03  0.2408E+00
     12.553  0.1787E-03  0.2408E+00
     12.651  0.3601E-04  0.2408E+00
     12.749  0.2299E-02  0.2410E+00
     12.847  0.3260E-02  0.2413E+00
     12.946  0.1645E-02  0.2415E+00
     13.044  0.2435E-02  0.2417E+00
     13.142  0.3413E-02  0.2421E+00
     13.240  0.3141E-02  0.2424E+00
     13.339  0.3185E-03  0.2424E+00
     13.437  0.1435E-02  0.2425E+00
     13.535  0.6119E-02  0.2431E+00
     13.633  0.4908E-02  0.2436E+00
     13.732  0.3329E-02  0.2440E+00
     13.830  0.6934E-03  0.2440E+00
     13.928  0.2836E-02  0.2443E+00
     14.026  0.2116E-02  0.2445E+00
     14.125  0.6681E-02  0.2452E+00
     14.223  0.8473E-02  0.2460E+00
     14.321  0.1049E-01  0.2470E+00
     14.419  0.3559E-02  0.2474E+00
     14.517  0.5145E-02  0.2479E+00
     14.616  0.9114E-02  0.2488E+00
     14.714  0.1234E-01  0.2500E+00
     14.812  0.1148E-01  0.2511E+00
     14.910  0.1026E-01  0.2521E+00
     15.009  0.1223E-01  0.2533E+00
     15.107  0.1798E-01  0.2551E+00
     15.205  0.1337E-01  0.2564E+00
     15.303  0.1468E-01  0.2579E+00
     15.402  0.1614E-01  0.2594E+00
     15.500  0.1520E-01  0.2609E+00
     15.598  0.1503E-01  0.2624E+00
     15.696  0.1339E-01  0.2637E+00
     15.795  0.8599E-02  0.2646E+00
     15.893  0.1874E-01  0.2664E+00
     15.991  0.2389E-01  0.2688E+00
     16.089  0.1898E-01  0.2706E+00
     16.188  0.1848E-01  0.2724E+00
     16.286  0.1656E-01  0.2741E+00
     16.384  0.1397E-01  0.2754E+00
     16.482  0.1557E-01  0.2770E+00
     16.581  0.1436E-01  0.2784E+00
     16.679  0.9338E-02  0.2793E+00
     16.777  0.9737E-02  0.2802E+00
     16.875  0.1408E-01  0.2816E+00
     16.974  0.1421E-01  0.2830E+00
     17.072  0.1585E-01  0.2846E+00
     17.170  0.1510E-01  0.2861E+00
     17.268  0.1626E-01  0.2877E+00
     17.366  0.8581E-02  0.2885E+00
     17.465  0.1583E-01  0.2901E+00
     17.563  0.1698E-01  0.2917E+00
     17.661  0.1753E-01  0.2935E+00
     17.759  0.1841E-01  0.2953E+00
     17.858  0.2701E-01  0.2979E+00
     17.956  0.2879E-01  0.3007E+00
     18.054  0.1704E-01  0.3024E+00
     18.152  0.2192E-01  0.3046E+00
     18.251  0.2361E-01  0.3069E+00
     18.349  0.2444E-01  0.3093E+00
     18.447  0.2155E-01  0.3114E+00
     18.545  0.1966E-01  0.3133E+00
     18.644  0.1826E-01  0.3151E+00
     18.742  0.2075E-01  0.3172E+00
     18.840  0.2569E-01  0.3197E+00
     18.938  0.2575E-01  0.3222E+00
     19.037  0.2256E-01  0.3244E+00
     19.135  0.2043E-01  0.3265E+00
     19.233  0.2341E-01  0.3288E+00
     19.331  0.2269E-01  0.3310E+00
     19.430  0.1956E-01  0.3329E+00
     19.528  0.2393E-01  0.3353E+00
     19.626  0.2126E-01  0.3373E+00
     19.724  0.2271E-01  0.3396E+00
     19.823  0.2920E-01  0.3424E+00
     19.921  0.1730E-01  0.3441E+00
     20.019  0.1544E-01  0.3457E+00
     20.117  0.2410E-01  0.3480E+00
     20.215  0.1816E-01  0.3498E+00
     20.314  0.2204E-01  0.3520E+00
     20.412  0.1996E-01  0.3539E+00
     20.510  0.1974E-01  0.3559E+00
     20.608  0.9017E-02  0.3568E+00
     20.707  0.8091E-02  0.3576E+00
     20.805  0.9227E-02  0.3585E+00
     20.903  0.9381E-02  0.3594E+00
     21.001  0.2768E-02  0.3597E+00
     21.100  0.1478E-02  0.3598E+00
     21.198  0.4518E-03  0.3598E+00
     21.296  0.1533E-02  0.3600E+00
     21.394  0.6041E-04  0.3600E+00
     21.493  0.3825E-08  0.3600E+00
     21.591  0.1604E-15  0.3600E+00
     21.689  0.0000E+00  0.3600E+00
     21.787  0.0000E+00  0.3600E+00
     21.886  0.0000E+00  0.3600E+00
     21.984  0.0000E+00  0.3600E+00
     22.082  0.0000E+00  0.3600E+00
     22.180  0.0000E+00  0.3600E+00
     22.279  0.0000E+00  0.3600E+00
     22.377  0.0000E+00  0.3600E+00
     22.475  0.0000E+00  0.3600E+00
     22.573  0.0000E+00  0.3600E+00
