       N       E                     dE             d eps       ncg     rms          rms(c)
DAV:   1    -0.117788549892E+03   -0.11779E+03   -0.23603E+00  5184   0.946E+00    0.613E+00
DAV:   2    -0.110122644097E+03    0.76659E+01   -0.62192E-01  5664   0.562E+00    0.453E+00
DAV:   3    -0.110314451639E+03   -0.19181E+00   -0.94743E-02  6552   0.187E+00    0.356E+00
DAV:   4    -0.110330027879E+03   -0.15576E-01   -0.48155E-02  6420   0.103E+00    0.106E+00
DAV:   5    -0.110330989546E+03   -0.96167E-03   -0.18861E-03  6396   0.260E-01    0.277E-01
DAV:   6    -0.110331021944E+03   -0.32398E-04   -0.83463E-04  6396   0.130E-01    0.141E-01
DAV:   7    -0.110331015413E+03    0.65307E-05   -0.48168E-05  6408   0.443E-02
   1 F= -.66399564E+02 E0= -.66399207E+02  d E =-.663996E+02
       N       E                     dE             d eps       ncg     rms          rms(c)
DAV:   1    -0.109091312094E+03    0.12397E+01   -0.11503E+00  6060   0.599E+00    0.106E+00
DAV:   2    -0.109079848063E+03    0.11464E-01   -0.58860E-02  6456   0.114E+00    0.564E-01
DAV:   3    -0.109079782438E+03    0.65626E-04   -0.71476E-03  6360   0.366E-01    0.203E-01
DAV:   4    -0.109079953766E+03   -0.17133E-03   -0.25466E-04  6516   0.874E-02    0.124E-01
DAV:   5    -0.109079969658E+03   -0.15892E-04   -0.53528E-05  6192   0.377E-02    0.919E-02
DAV:   6    -0.109079997232E+03   -0.27574E-04   -0.44437E-05  5964   0.464E-02    0.148E-02
DAV:   7    -0.109079997588E+03   -0.35589E-06   -0.12417E-06  3132   0.692E-03
   2 F= -.66358919E+02 E0= -.66358600E+02  d E =0.406455E-01
       N       E                     dE             d eps       ncg     rms          rms(c)
DAV:   1    -0.109942772430E+03   -0.86278E+00   -0.50228E-01  6036   0.391E+00    0.704E-01
DAV:   2    -0.109938242827E+03    0.45296E-02   -0.26510E-02  6468   0.757E-01    0.372E-01
DAV:   3    -0.109938287712E+03   -0.44885E-04   -0.33212E-03  6420   0.246E-01    0.131E-01
DAV:   4    -0.109938381235E+03   -0.93522E-04   -0.10681E-04  6396   0.565E-02    0.793E-02
DAV:   5    -0.109938380301E+03    0.93380E-06   -0.22734E-05  4476   0.255E-02
   3 F= -.66413026E+02 E0= -.66412683E+02  d E =-.134615E-01
       N       E                     dE             d eps       ncg     rms          rms(c)
DAV:   1    -0.109931054900E+03    0.73263E-02   -0.36903E-05  5700   0.347E-02    0.155E-02
DAV:   2    -0.109931050474E+03    0.44264E-05   -0.29775E-06  3108   0.842E-03
   4 F= -.66413022E+02 E0= -.66412678E+02  d E =-.134573E-01
       N       E                     dE             d eps       ncg     rms          rms(c)
DAV:   1    -0.109932973108E+03   -0.19182E-02   -0.46653E-06  3024   0.114E-02    0.673E-03
DAV:   2    -0.109932971961E+03    0.11472E-05   -0.31528E-07  2928   0.310E-03
   5 F= -.66413019E+02 E0= -.66412676E+02  d E =-.134546E-01
       N       E                     dE             d eps       ncg     rms          rms(c)
DAV:   1    -0.109934006767E+03   -0.10337E-02   -0.72193E-07  2892   0.490E-03    0.129E-03
DAV:   2    -0.109934006650E+03    0.11674E-06   -0.53157E-08  2856   0.140E-03
   6 F= -.66413018E+02 E0= -.66412674E+02  d E =-.134534E-01
       N       E                     dE             d eps       ncg     rms          rms(c)
DAV:   1    -0.109943783654E+03   -0.97769E-02   -0.30217E-02  5220   0.904E-01    0.339E-02
DAV:   2    -0.109943775661E+03    0.79929E-05   -0.41987E-04  6840   0.107E-01    0.227E-02
DAV:   3    -0.109943772647E+03    0.30136E-05   -0.23880E-05  5436   0.268E-02
   7 F= -.66413385E+02 E0= -.66413045E+02  d E =-.366941E-03
       N       E                     dE             d eps       ncg     rms          rms(c)
DAV:   1    -0.109947535748E+03   -0.37601E-02   -0.45592E-03  5304   0.352E-01    0.153E-02
DAV:   2    -0.109947536845E+03   -0.10973E-05   -0.52185E-05  6864   0.386E-02
   8 F= -.66413414E+02 E0= -.66413076E+02  d E =-.396382E-03
       N       E                     dE             d eps       ncg     rms          rms(c)
DAV:   1    -0.109947003925E+03    0.53182E-03   -0.16562E-02  5232   0.678E-01    0.284E-02
DAV:   2    -0.109947015664E+03   -0.11738E-04   -0.25087E-04  6780   0.878E-02    0.179E-02
DAV:   3    -0.109947012209E+03    0.34541E-05   -0.13514E-05  4176   0.239E-02
   9 F= -.66413623E+02 E0= -.66413292E+02  d E =-.209426E-03
       N       E                     dE             d eps       ncg     rms          rms(c)
DAV:   1    -0.109946474073E+03    0.54159E-03   -0.10127E-02  5232   0.529E-01    0.217E-02
DAV:   2    -0.109946484110E+03   -0.10037E-04   -0.13050E-04  6792   0.629E-02    0.134E-02
DAV:   3    -0.109946483549E+03    0.56143E-06   -0.65404E-06  3840   0.167E-02
  10 F= -.66413676E+02 E0= -.66413349E+02  d E =-.262125E-03
       N       E                     dE             d eps       ncg     rms          rms(c)
DAV:   1    -0.109946931917E+03   -0.44781E-03   -0.10706E-02  5208   0.559E-01    0.188E-02
DAV:   2    -0.109946935883E+03   -0.39669E-05   -0.12718E-04  6804   0.585E-02    0.130E-02
DAV:   3    -0.109946935103E+03    0.78036E-06   -0.37680E-06  3696   0.115E-02
  11 F= -.66413772E+02 E0= -.66413447E+02  d E =-.954893E-04
       N       E                     dE             d eps       ncg     rms          rms(c)
DAV:   1    -0.109946892668E+03    0.43215E-04   -0.18170E-04  5328   0.725E-02    0.346E-03
DAV:   2    -0.109946893366E+03   -0.69782E-06   -0.31313E-06  2832   0.929E-03
  12 F= -.66413774E+02 E0= -.66413449E+02  d E =-.975438E-04
       N       E                     dE             d eps       ncg     rms          rms(c)
DAV:   1    -0.109949055988E+03   -0.21633E-02   -0.22283E-04  5352   0.785E-02    0.523E-03
DAV:   2    -0.109949058037E+03   -0.20495E-05   -0.94848E-06  4644   0.163E-02
  13 F= -.66413791E+02 E0= -.66413465E+02  d E =-.170305E-04
