Al4C3 Pbam polymorph (findsym-output) - 
   1.00000000000000     
     8.4060396760901561    0.0000000000000000    0.0000000000000000
     0.0000000000000000    4.8537199572412364    0.0000000000000000
     0.0000000000000000    0.0000000000000000    2.8752044367324161
   Al   C 
     8     6
Direct
  0.7858967897361083  0.1604059420510081 -0.0000000000000000
  0.2141032102638915  0.8395940579489918 -0.0000000000000000
  0.7141032102638917  0.6604059420510082 -0.0000000000000000
  0.2858967897361084  0.3395940579489920  0.0000000000000000
  0.0317671745773615  0.2529790883649222  0.5000000000000000
  0.9682328494226402  0.7470209116350781  0.5000000000000000
  0.4682328194226379  0.7529790883649219  0.5000000000000000
  0.5317671505773598  0.2470209116350778  0.5000000000000000
  0.0000000000000000 -0.0000000000000000  0.0000000000000000
  0.5000000000000000  0.5000000000000000  0.0000000000000000
  0.8243146262810245  0.4459338990597970  0.5000000000000000
  0.1756853737189754  0.5540661009402033  0.5000000000000000
  0.6756853737189755  0.9459338990597967  0.5000000000000000
  0.3243146262810245  0.0540661009402031  0.5000000000000000
 
  0.00000000E+00  0.00000000E+00  0.00000000E+00
  0.00000000E+00  0.00000000E+00  0.00000000E+00
  0.00000000E+00  0.00000000E+00  0.00000000E+00
  0.00000000E+00  0.00000000E+00  0.00000000E+00
  0.00000000E+00  0.00000000E+00  0.00000000E+00
  0.00000000E+00  0.00000000E+00  0.00000000E+00
  0.00000000E+00  0.00000000E+00  0.00000000E+00
  0.00000000E+00  0.00000000E+00  0.00000000E+00
  0.00000000E+00  0.00000000E+00  0.00000000E+00
  0.00000000E+00  0.00000000E+00  0.00000000E+00
  0.00000000E+00  0.00000000E+00  0.00000000E+00
  0.00000000E+00  0.00000000E+00  0.00000000E+00
  0.00000000E+00  0.00000000E+00  0.00000000E+00
  0.00000000E+00  0.00000000E+00  0.00000000E+00
