Al4C3 R-3m polymorph (findsym-output, fr
   1.00000000000000     
     3.2281147004737250    0.0000000000000000    0.0000000000000000
    -1.6140573502368625    2.7956293369761394    0.0000000000000000
     0.0000000000000000    0.0000000000000000   24.1333983656707396
   Al   C 
    12     9
Direct
 -0.0000000000000000 -0.0000000000000000  0.6299637628614586
 -0.0000000000000000 -0.0000000000000000  0.3700362371385414
  0.6666666870000029  0.3333333429999996  0.9632970758614557
  0.6666666870000029  0.3333333429999996  0.7033695511385422
  0.3333333429999996  0.6666666870000029  0.2966304188614554
  0.3333333429999996  0.6666666870000029  0.0367029051385462
 -0.0000000000000000 -0.0000000000000000  0.2062601313155497
 -0.0000000000000000 -0.0000000000000000  0.7937398686844505
  0.6666666870000029  0.3333333429999996  0.5395934453155503
  0.6666666870000029  0.3333333429999996  0.1270731966844523
  0.3333333429999996  0.6666666870000029  0.8729268183155524
  0.3333333429999996  0.6666666870000029  0.4604065246844471
 -0.0000000000000000 -0.0000000000000000  0.7167561878071741
  0.0000000000000000  0.0000000000000000  0.2832438121928261
  0.6666666870000029  0.3333333429999996  0.0500895198071763
  0.6666666870000029  0.3333333429999996  0.6165771251928230
  0.3333333429999996  0.6666666870000029  0.3834228448071743
  0.3333333429999996  0.6666666870000029  0.9499104991928217
 -0.0000000000000000 -0.0000000000000000  0.5000000000000000
  0.6666666870000029  0.3333333429999996  0.8333333129999971
  0.3333333429999996  0.6666666870000029  0.1666666719999981
 
  0.00000000E+00  0.00000000E+00  0.00000000E+00
  0.00000000E+00  0.00000000E+00  0.00000000E+00
  0.00000000E+00  0.00000000E+00  0.00000000E+00
  0.00000000E+00  0.00000000E+00  0.00000000E+00
  0.00000000E+00  0.00000000E+00  0.00000000E+00
  0.00000000E+00  0.00000000E+00  0.00000000E+00
  0.00000000E+00  0.00000000E+00  0.00000000E+00
  0.00000000E+00  0.00000000E+00  0.00000000E+00
  0.00000000E+00  0.00000000E+00  0.00000000E+00
  0.00000000E+00  0.00000000E+00  0.00000000E+00
  0.00000000E+00  0.00000000E+00  0.00000000E+00
  0.00000000E+00  0.00000000E+00  0.00000000E+00
  0.00000000E+00  0.00000000E+00  0.00000000E+00
  0.00000000E+00  0.00000000E+00  0.00000000E+00
  0.00000000E+00  0.00000000E+00  0.00000000E+00
  0.00000000E+00  0.00000000E+00  0.00000000E+00
  0.00000000E+00  0.00000000E+00  0.00000000E+00
  0.00000000E+00  0.00000000E+00  0.00000000E+00
  0.00000000E+00  0.00000000E+00  0.00000000E+00
  0.00000000E+00  0.00000000E+00  0.00000000E+00
  0.00000000E+00  0.00000000E+00  0.00000000E+00
