       N       E                     dE             d eps       ncg     rms          rms(c)
DAV:   1    -0.205956957360E+03   -0.20596E+03   -0.99455E+01  4356   0.330E+01    0.261E+01
DAV:   2    -0.173590149892E+03    0.32367E+02   -0.56236E+01  4092   0.262E+01    0.107E+01
DAV:   3    -0.173902621793E+03   -0.31247E+00   -0.67467E+00  4356   0.104E+01    0.799E+00
DAV:   4    -0.174229281956E+03   -0.32666E+00   -0.10787E+00  5064   0.462E+00    0.476E+00
DAV:   5    -0.174329445283E+03   -0.10016E+00   -0.23034E-01  4464   0.248E+00    0.471E-01
DAV:   6    -0.174333066195E+03   -0.36209E-02   -0.13335E-02  4440   0.474E-01    0.329E-01
DAV:   7    -0.174333676438E+03   -0.61024E-03   -0.71561E-04  4488   0.126E-01    0.241E-01
DAV:   8    -0.174334332262E+03   -0.65582E-03   -0.94670E-04  4392   0.178E-01    0.289E-02
DAV:   9    -0.174334337232E+03   -0.49698E-05   -0.60239E-05  4320   0.350E-02
   1 F= -.14678092E+03 E0= -.14678092E+03  d E =-.146781E+03
       N       E                     dE             d eps       ncg     rms          rms(c)
DAV:   1    -0.173507671869E+03    0.82666E+00   -0.18920E+00  4320   0.670E+00    0.144E+00
DAV:   2    -0.173474151847E+03    0.33520E-01   -0.14743E-01  4344   0.145E+00    0.720E-01
DAV:   3    -0.173473657893E+03    0.49395E-03   -0.20741E-02  4368   0.494E-01    0.273E-01
DAV:   4    -0.173474013670E+03   -0.35578E-03   -0.48354E-04  4488   0.114E-01    0.120E-01
DAV:   5    -0.173474060179E+03   -0.46508E-04   -0.19786E-04  4308   0.636E-02    0.891E-02
DAV:   6    -0.173474098356E+03   -0.38177E-04   -0.53433E-05  4368   0.350E-02    0.293E-02
DAV:   7    -0.173474101665E+03   -0.33091E-05   -0.81730E-06  2448   0.140E-02
   2 F= -.14676035E+03 E0= -.14676035E+03  d E =0.205772E-01
       N       E                     dE             d eps       ncg     rms          rms(c)
DAV:   1    -0.174004328225E+03   -0.53023E+00   -0.58426E-01  4296   0.367E+00    0.809E-01
DAV:   2    -0.173994298070E+03    0.10030E-01   -0.46558E-02  4284   0.804E-01    0.404E-01
DAV:   3    -0.173994060936E+03    0.23713E-03   -0.65277E-03  4368   0.275E-01    0.153E-01
DAV:   4    -0.173994080497E+03   -0.19561E-04   -0.15120E-04  4428   0.635E-02    0.669E-02
DAV:   5    -0.173994063628E+03    0.16869E-04   -0.65368E-05  4404   0.363E-02    0.498E-02
DAV:   6    -0.173994040094E+03    0.23534E-04   -0.16394E-05  2700   0.199E-02    0.141E-02
DAV:   7    -0.173994035115E+03    0.49783E-05   -0.24386E-06  2148   0.919E-03
   3 F= -.14681259E+03 E0= -.14681259E+03  d E =-.316668E-01
       N       E                     dE             d eps       ncg     rms          rms(c)
DAV:   1    -0.173993276005E+03    0.76409E-03   -0.41072E-02  3648   0.848E-01    0.524E-02
DAV:   2    -0.173993213169E+03    0.62836E-04   -0.17792E-03  4476   0.189E-01    0.400E-02
DAV:   3    -0.173993184010E+03    0.29160E-04   -0.16684E-04  4416   0.558E-02    0.273E-02
DAV:   4    -0.173993175446E+03    0.85637E-05   -0.46397E-05  4500   0.295E-02
   4 F= -.14681313E+03 E0= -.14681313E+03  d E =-.535520E-03
       N       E                     dE             d eps       ncg     rms          rms(c)
DAV:   1    -0.173993654291E+03   -0.47028E-03   -0.30418E-03  3696   0.231E-01    0.132E-02
DAV:   2    -0.173993651534E+03    0.27571E-05   -0.14356E-04  4488   0.521E-02    0.108E-02
DAV:   3    -0.173993652636E+03   -0.11025E-05   -0.10196E-05  2388   0.144E-02
   5 F= -.14681322E+03 E0= -.14681322E+03  d E =-.629925E-03
       N       E                     dE             d eps       ncg     rms          rms(c)
DAV:   1    -0.174003225379E+03   -0.95738E-02   -0.76465E-03  3912   0.435E-01    0.306E-02
DAV:   2    -0.174003233863E+03   -0.84832E-05   -0.29294E-04  4632   0.745E-02    0.187E-02
DAV:   3    -0.174003227114E+03    0.67483E-05   -0.13230E-05  3144   0.173E-02
   6 F= -.14681340E+03 E0= -.14681340E+03  d E =-.177336E-03
       N       E                     dE             d eps       ncg     rms          rms(c)
DAV:   1    -0.174000745883E+03    0.24880E-02   -0.57258E-04  3816   0.117E-01    0.778E-03
DAV:   2    -0.174000745602E+03    0.28098E-06   -0.16015E-05  3276   0.180E-02
   7 F= -.14681342E+03 E0= -.14681342E+03  d E =-.202301E-03
