Al4C3 R-3m - r2SCAN H(P) scan @ 20 GPa (
           1
     3.242540    0.000000    0.000000
    -1.621270    2.808122    0.000000
     0.000000    0.000000   24.241238
   Al   C 
    12     9
Direct configuration=     1
   0.00000000  0.00000000  0.62970758
   0.00000000  0.00000000  0.37029242
   0.66666669  0.33333334  0.96304089
   0.66666669  0.33333334  0.70362574
   0.33333334  0.66666669  0.29637423
   0.33333334  0.66666669  0.03695909
   0.00000000  0.00000000  0.20627632
   0.00000000  0.00000000  0.79372368
   0.66666669  0.33333334  0.53960964
   0.66666669  0.33333334  0.12705701
   0.33333334  0.66666669  0.87294301
   0.33333334  0.66666669  0.46039033
   0.00000000  0.00000000  0.71672655
   0.00000000  0.00000000  0.28327345
   0.66666669  0.33333334  0.05005989
   0.66666669  0.33333334  0.61660676
   0.33333334  0.66666669  0.38339321
   0.33333334  0.66666669  0.94994013
   0.00000000  0.00000000  0.50000000
   0.66666669  0.33333334  0.83333331
   0.33333334  0.66666669  0.16666667
Al4C3 R-3m - r2SCAN H(P) scan @ 20 GPa (
           1
     3.209262    0.000000    0.000000
    -1.604631    2.779302    0.000000
     0.000000    0.000000   23.992453
   Al   C 
    12     9
Direct configuration=     2
  -0.00000000 -0.00000000  0.62994830
  -0.00000000 -0.00000000  0.37005170
   0.66666669  0.33333334  0.96328162
   0.66666669  0.33333334  0.70338501
   0.33333334  0.66666669  0.29661496
   0.33333334  0.66666669  0.03671836
  -0.00000000 -0.00000000  0.20632421
   0.00000000  0.00000000  0.79367579
   0.66666669  0.33333334  0.53965753
   0.66666669  0.33333334  0.12700912
   0.33333334  0.66666669  0.87299090
   0.33333334  0.66666669  0.46034244
  -0.00000000 -0.00000000  0.71682078
   0.00000000  0.00000000  0.28317922
   0.66666669  0.33333334  0.05015412
   0.66666669  0.33333334  0.61651253
   0.33333334  0.66666669  0.38348744
   0.33333334  0.66666669  0.94984590
  -0.00000000 -0.00000000  0.50000000
   0.66666669  0.33333334  0.83333331
   0.33333334  0.66666669  0.16666667
Al4C3 R-3m - r2SCAN H(P) scan @ 20 GPa (
           1
     3.227882    0.000000    0.000000
    -1.613941    2.795428    0.000000
     0.000000    0.000000   24.131659
   Al   C 
    12     9
Direct configuration=     3
  -0.00000000 -0.00000000  0.62981221
  -0.00000000 -0.00000000  0.37018779
   0.66666669  0.33333334  0.96314552
   0.66666669  0.33333334  0.70352110
   0.33333334  0.66666669  0.29647887
   0.33333334  0.66666669  0.03685446
  -0.00000000 -0.00000000  0.20629714
   0.00000000  0.00000000  0.79370286
   0.66666669  0.33333334  0.53963045
   0.66666669  0.33333334  0.12703619
   0.33333334  0.66666669  0.87296382
   0.33333334  0.66666669  0.46036952
  -0.00000000 -0.00000000  0.71676751
   0.00000000  0.00000000  0.28323249
   0.66666669  0.33333334  0.05010084
   0.66666669  0.33333334  0.61656580
   0.33333334  0.66666669  0.38343417
   0.33333334  0.66666669  0.94989918
  -0.00000000 -0.00000000  0.50000000
   0.66666669  0.33333334  0.83333331
   0.33333334  0.66666669  0.16666667
Al4C3 R-3m - r2SCAN H(P) scan @ 20 GPa (
           1
     3.227827    0.000000    0.000000
    -1.613913    2.795380    0.000000
     0.000000    0.000000   24.131246
   Al   C 
    12     9
Direct configuration=     4
  -0.00000000 -0.00000000  0.62993092
  -0.00000000 -0.00000000  0.37006908
   0.66666669  0.33333334  0.96326424
   0.66666669  0.33333334  0.70340239
   0.33333334  0.66666669  0.29659758
   0.33333334  0.66666669  0.03673575
  -0.00000000 -0.00000000  0.20621894
  -0.00000000 -0.00000000  0.79378106
   0.66666669  0.33333334  0.53955226
   0.66666669  0.33333334  0.12711439
   0.33333334  0.66666669  0.87288563
   0.33333334  0.66666669  0.46044771
  -0.00000000 -0.00000000  0.71672697
   0.00000000  0.00000000  0.28327303
   0.66666669  0.33333334  0.05006030
   0.66666669  0.33333334  0.61660634
   0.33333334  0.66666669  0.38339363
   0.33333334  0.66666669  0.94993972
   0.00000000 -0.00000000  0.50000000
   0.66666669  0.33333334  0.83333331
   0.33333334  0.66666669  0.16666667
Al4C3 R-3m - r2SCAN H(P) scan @ 20 GPa (
           1
     3.227842    0.000000    0.000000
    -1.613921    2.795393    0.000000
     0.000000    0.000000   24.131359
   Al   C 
    12     9
Direct configuration=     5
  -0.00000000 -0.00000000  0.62989835
  -0.00000000 -0.00000000  0.37010165
   0.66666669  0.33333334  0.96323166
   0.66666669  0.33333334  0.70343496
   0.33333334  0.66666669  0.29656501
   0.33333334  0.66666669  0.03676832
  -0.00000000 -0.00000000  0.20624040
   0.00000000 -0.00000000  0.79375960
   0.66666669  0.33333334  0.53957371
   0.66666669  0.33333334  0.12709293
   0.33333334  0.66666669  0.87290708
   0.33333334  0.66666669  0.46042626
  -0.00000000 -0.00000000  0.71673809
   0.00000000  0.00000000  0.28326191
   0.66666669  0.33333334  0.05007143
   0.66666669  0.33333334  0.61659522
   0.33333334  0.66666669  0.38340475
   0.33333334  0.66666669  0.94992859
   0.00000000 -0.00000000  0.50000000
   0.66666669  0.33333334  0.83333331
   0.33333334  0.66666669  0.16666667
Al4C3 R-3m - r2SCAN H(P) scan @ 20 GPa (
           1
     3.228214    0.000000    0.000000
    -1.614107    2.795715    0.000000
     0.000000    0.000000   24.134140
   Al   C 
    12     9
Direct configuration=     6
  -0.00000000 -0.00000000  0.62998755
  -0.00000000 -0.00000000  0.37001245
   0.66666669  0.33333334  0.96332086
   0.66666669  0.33333334  0.70334576
   0.33333334  0.66666669  0.29665421
   0.33333334  0.66666669  0.03667912
  -0.00000000 -0.00000000  0.20626731
  -0.00000000 -0.00000000  0.79373269
   0.66666669  0.33333334  0.53960062
   0.66666669  0.33333334  0.12706602
   0.33333334  0.66666669  0.87293399
   0.33333334  0.66666669  0.46039935
  -0.00000000 -0.00000000  0.71676277
   0.00000000  0.00000000  0.28323723
   0.66666669  0.33333334  0.05009610
   0.66666669  0.33333334  0.61657055
   0.33333334  0.66666669  0.38342942
   0.33333334  0.66666669  0.94990392
  -0.00000000 -0.00000000  0.50000000
   0.66666669  0.33333334  0.83333331
   0.33333334  0.66666669  0.16666667
Al4C3 R-3m - r2SCAN H(P) scan @ 20 GPa (
           1
     3.228115    0.000000    0.000000
    -1.614057    2.795629    0.000000
     0.000000    0.000000   24.133398
   Al   C 
    12     9
Direct configuration=     7
  -0.00000000 -0.00000000  0.62996376
  -0.00000000 -0.00000000  0.37003624
   0.66666669  0.33333334  0.96329708
   0.66666669  0.33333334  0.70336955
   0.33333334  0.66666669  0.29663042
   0.33333334  0.66666669  0.03670291
  -0.00000000 -0.00000000  0.20626013
  -0.00000000 -0.00000000  0.79373987
   0.66666669  0.33333334  0.53959345
   0.66666669  0.33333334  0.12707320
   0.33333334  0.66666669  0.87292682
   0.33333334  0.66666669  0.46040652
  -0.00000000 -0.00000000  0.71675619
   0.00000000  0.00000000  0.28324381
   0.66666669  0.33333334  0.05008952
   0.66666669  0.33333334  0.61657713
   0.33333334  0.66666669  0.38342284
   0.33333334  0.66666669  0.94991050
  -0.00000000 -0.00000000  0.50000000
   0.66666669  0.33333334  0.83333331
   0.33333334  0.66666669  0.16666667
