Al4C3 Pnma (CIF findsym, P21/n21/m21/a) 
   1.00000000000000     
     9.5847112623957127    0.0000000000000000    0.0000000000000000
     0.0000000000000000    3.2931809631582283    0.0000000000000000
     0.0000000000000000    0.0000000000000000   10.1040458692466295
   Al   C 
    16    12
Direct
  0.2641463284144726  0.2500000000000000  0.2676743105028149
  0.7641463284144726  0.2500000000000000  0.2323256894971853
  0.7358536715855274  0.7500000000000000  0.7323256894971854
  0.2358536715855274  0.7500000000000000  0.7676743105028146
  0.4692046215897516  0.2500000000000000  0.8922027118663154
  0.9692046215897514  0.2500000000000000  0.6077972881336846
  0.5307953784102486  0.7500000000000000  0.1077972881336845
  0.0307953784102484  0.7500000000000000  0.3922027118663154
  0.5074344005446030  0.2500000000000000  0.6018421967615891
  0.0074344005446029  0.2500000000000000  0.8981578032384109
  0.4925655994553970  0.7500000000000000  0.3981578032384110
  0.9925655994553970  0.7500000000000000  0.1018421967615890
  0.2415756707457474  0.2500000000000000  0.5611807234172227
  0.7415756707457474  0.2500000000000000  0.9388192765827773
  0.7584243292542526  0.7500000000000000  0.4388192765827773
  0.2584243292542526  0.7500000000000000  0.0611807234172227
  0.3845034718537437  0.2500000000000000  0.4243985362756736
  0.8845034718537436  0.2500000000000000  0.0756014637243264
  0.6154965281462564  0.7500000000000000  0.5756014637243264
  0.1154965281462564  0.7500000000000000  0.9243985362756736
  0.3901947975771083  0.2500000000000000  0.0832333549491182
  0.8901947975771082  0.2500000000000000  0.4167666450508817
  0.6098052024228918  0.7500000000000000  0.9167666450508817
  0.1098052024228916  0.7500000000000000  0.5832333549491183
  0.3497997678048592  0.2500000000000000  0.7348630005035075
  0.8497997678048590  0.2500000000000000  0.7651369994964925
  0.6502002321951410  0.7500000000000000  0.2651369994964924
  0.1502002321951409  0.7500000000000000  0.2348630005035076
 
  0.00000000E+00  0.00000000E+00  0.00000000E+00
  0.00000000E+00  0.00000000E+00  0.00000000E+00
  0.00000000E+00  0.00000000E+00  0.00000000E+00
  0.00000000E+00  0.00000000E+00  0.00000000E+00
  0.00000000E+00  0.00000000E+00  0.00000000E+00
  0.00000000E+00  0.00000000E+00  0.00000000E+00
  0.00000000E+00  0.00000000E+00  0.00000000E+00
  0.00000000E+00  0.00000000E+00  0.00000000E+00
  0.00000000E+00  0.00000000E+00  0.00000000E+00
  0.00000000E+00  0.00000000E+00  0.00000000E+00
  0.00000000E+00  0.00000000E+00  0.00000000E+00
  0.00000000E+00  0.00000000E+00  0.00000000E+00
  0.00000000E+00  0.00000000E+00  0.00000000E+00
  0.00000000E+00  0.00000000E+00  0.00000000E+00
  0.00000000E+00  0.00000000E+00  0.00000000E+00
  0.00000000E+00  0.00000000E+00  0.00000000E+00
  0.00000000E+00  0.00000000E+00  0.00000000E+00
  0.00000000E+00  0.00000000E+00  0.00000000E+00
  0.00000000E+00  0.00000000E+00  0.00000000E+00
  0.00000000E+00  0.00000000E+00  0.00000000E+00
  0.00000000E+00  0.00000000E+00  0.00000000E+00
  0.00000000E+00  0.00000000E+00  0.00000000E+00
  0.00000000E+00  0.00000000E+00  0.00000000E+00
  0.00000000E+00  0.00000000E+00  0.00000000E+00
  0.00000000E+00  0.00000000E+00  0.00000000E+00
  0.00000000E+00  0.00000000E+00  0.00000000E+00
  0.00000000E+00  0.00000000E+00  0.00000000E+00
  0.00000000E+00  0.00000000E+00  0.00000000E+00
