  28  28   0   0
  0.9663037E+01  0.8705602E-09  0.3003275E-09  0.1034851E-08  0.5000000E-15
  1.000000000000000E-004
  CAR 
 Al4C3 Pnma - H(P) scan @ 0 GPa (ISIF=8) 
     16.50989666     -6.56681871  301      9.81118893      1.00000000
     -6.567  0.0000E+00  0.0000E+00
     -6.490  0.0000E+00  0.0000E+00
     -6.413  0.0000E+00  0.0000E+00
     -6.336  0.0000E+00  0.0000E+00
     -6.259  0.0000E+00  0.0000E+00
     -6.182  0.0000E+00  0.0000E+00
     -6.105  0.0000E+00  0.0000E+00
     -6.028  0.0000E+00  0.0000E+00
     -5.951  0.0000E+00  0.0000E+00
     -5.875  0.0000E+00  0.0000E+00
     -5.798  0.9431E-18  0.7254E-19
     -5.721  0.3582E-11  0.2755E-12
     -5.644  0.1369E-06  0.1053E-07
     -5.567  0.6204E-04  0.4783E-05
     -5.490  0.7817E-03  0.6491E-04
     -5.413  0.3010E-02  0.2965E-03
     -5.336  0.5956E-02  0.7546E-03
     -5.259  0.7016E-02  0.1294E-02
     -5.182  0.6539E-02  0.1797E-02
     -5.105  0.7954E-02  0.2409E-02
     -5.028  0.1263E-01  0.3380E-02
     -4.951  0.1345E-01  0.4415E-02
     -4.875  0.1103E-01  0.5263E-02
     -4.798  0.1006E-01  0.6037E-02
     -4.721  0.1107E-01  0.6888E-02
     -4.644  0.1075E-01  0.7715E-02
     -4.567  0.5745E-02  0.8157E-02
     -4.490  0.1120E-01  0.9019E-02
     -4.413  0.1510E-01  0.1018E-01
     -4.336  0.1745E-01  0.1152E-01
     -4.259  0.1398E-01  0.1260E-01
     -4.182  0.1769E-01  0.1396E-01
     -4.105  0.1413E-01  0.1505E-01
     -4.028  0.1540E-01  0.1623E-01
     -3.951  0.2285E-01  0.1799E-01
     -3.875  0.1925E-01  0.1947E-01
     -3.798  0.9674E-02  0.2021E-01
     -3.721  0.9770E-02  0.2096E-01
     -3.644  0.2073E-01  0.2256E-01
     -3.567  0.2397E-01  0.2440E-01
     -3.490  0.2551E-01  0.2637E-01
     -3.413  0.2445E-01  0.2825E-01
     -3.336  0.2013E-01  0.2980E-01
     -3.259  0.2250E-01  0.3153E-01
     -3.182  0.1764E-01  0.3288E-01
     -3.105  0.1926E-01  0.3436E-01
     -3.028  0.2144E-01  0.3601E-01
     -2.951  0.1856E-01  0.3744E-01
     -2.875  0.1908E-01  0.3891E-01
     -2.798  0.3870E-01  0.4189E-01
     -2.721  0.3595E-01  0.4465E-01
     -2.644  0.2615E-01  0.4666E-01
     -2.567  0.3493E-01  0.4935E-01
     -2.490  0.3492E-01  0.5204E-01
     -2.413  0.2415E-01  0.5389E-01
     -2.336  0.2519E-01  0.5583E-01
     -2.259  0.2927E-01  0.5808E-01
     -2.182  0.3518E-01  0.6079E-01
     -2.105  0.4584E-01  0.6432E-01
     -2.028  0.5663E-01  0.6867E-01
     -1.951  0.4332E-01  0.7200E-01
     -1.875  0.4744E-01  0.7565E-01
     -1.798  0.5272E-01  0.7971E-01
     -1.721  0.6036E-01  0.8435E-01
     -1.644  0.4916E-01  0.8813E-01
     -1.567  0.4248E-01  0.9140E-01
     -1.490  0.4490E-01  0.9485E-01
     -1.413  0.3117E-01  0.9725E-01
     -1.336  0.1466E-01  0.9838E-01
     -1.259  0.1620E-01  0.9963E-01
     -1.182  0.2438E-01  0.1015E+00
     -1.105  0.1955E-01  0.1030E+00
     -1.028  0.2225E-01  0.1047E+00
     -0.951  0.1370E-01  0.1058E+00
     -0.875  0.9876E-02  0.1065E+00
     -0.798  0.2050E-01  0.1081E+00
     -0.721  0.1831E-01  0.1095E+00
     -0.644  0.2282E-01  0.1113E+00
     -0.567  0.2425E-01  0.1131E+00
     -0.490  0.1418E-01  0.1142E+00
     -0.413  0.1019E-01  0.1150E+00
     -0.336  0.1249E-01  0.1160E+00
     -0.259  0.1767E-01  0.1173E+00
     -0.182  0.1032E-01  0.1181E+00
     -0.105  0.1420E-01  0.1192E+00
     -0.028  0.8107E-02  0.1198E+00
      0.049  0.2048E-02  0.1200E+00
      0.125  0.3274E-04  0.1200E+00
      0.202  0.9304E-08  0.1200E+00
      0.279  0.3025E-13  0.1200E+00
      0.356  0.0000E+00  0.1200E+00
      0.433  0.0000E+00  0.1200E+00
      0.510  0.0000E+00  0.1200E+00
      0.587  0.0000E+00  0.1200E+00
      0.664  0.0000E+00  0.1200E+00
      0.741  0.0000E+00  0.1200E+00
      0.818  0.1093E-12  0.1200E+00
      0.895  0.1368E-07  0.1200E+00
      0.972  0.1891E-04  0.1200E+00
      1.048  0.4343E-03  0.1200E+00
      1.125  0.1267E-02  0.1201E+00
      1.202  0.2958E-02  0.1204E+00
      1.279  0.4269E-02  0.1207E+00
      1.356  0.6720E-02  0.1212E+00
      1.433  0.1069E-01  0.1220E+00
      1.510  0.1517E-01  0.1232E+00
      1.587  0.2581E-01  0.1252E+00
      1.664  0.2955E-01  0.1275E+00
      1.741  0.2898E-01  0.1297E+00
      1.818  0.4198E-01  0.1329E+00
      1.895  0.3403E-01  0.1355E+00
      1.972  0.3982E-01  0.1386E+00
      2.048  0.3767E-01  0.1415E+00
      2.125  0.3416E-01  0.1441E+00
      2.202  0.3905E-01  0.1471E+00
      2.279  0.3933E-01  0.1501E+00
      2.356  0.4218E-01  0.1534E+00
      2.433  0.4306E-01  0.1567E+00
      2.510  0.4697E-01  0.1603E+00
      2.587  0.4283E-01  0.1636E+00
      2.664  0.3902E-01  0.1666E+00
      2.741  0.5259E-01  0.1707E+00
      2.818  0.4592E-01  0.1742E+00
      2.895  0.5087E-01  0.1781E+00
      2.972  0.5057E-01  0.1820E+00
      3.048  0.3192E-01  0.1844E+00
      3.125  0.2390E-01  0.1863E+00
      3.202  0.3536E-01  0.1890E+00
      3.279  0.3623E-01  0.1918E+00
      3.356  0.4267E-01  0.1951E+00
      3.433  0.3622E-01  0.1979E+00
      3.510  0.3407E-01  0.2005E+00
      3.587  0.3221E-01  0.2030E+00
      3.664  0.4690E-01  0.2066E+00
      3.741  0.6159E-01  0.2113E+00
      3.818  0.4046E-01  0.2144E+00
      3.895  0.4239E-01  0.2177E+00
      3.972  0.3850E-01  0.2206E+00
      4.048  0.3057E-01  0.2230E+00
      4.125  0.2887E-01  0.2252E+00
      4.202  0.4447E-01  0.2286E+00
      4.279  0.3347E-01  0.2312E+00
      4.356  0.2521E-01  0.2331E+00
      4.433  0.3225E-01  0.2356E+00
      4.510  0.4893E-01  0.2394E+00
      4.587  0.5198E-01  0.2434E+00
      4.664  0.4620E-01  0.2469E+00
      4.741  0.4613E-01  0.2505E+00
      4.818  0.5059E-01  0.2544E+00
      4.895  0.5402E-01  0.2585E+00
      4.972  0.5534E-01  0.2628E+00
      5.048  0.4288E-01  0.2661E+00
      5.125  0.5310E-01  0.2702E+00
      5.202  0.4646E-01  0.2738E+00
      5.279  0.3780E-01  0.2767E+00
      5.356  0.5039E-01  0.2805E+00
      5.433  0.5763E-01  0.2850E+00
      5.510  0.5839E-01  0.2895E+00
      5.587  0.4706E-01  0.2931E+00
      5.664  0.4543E-01  0.2966E+00
      5.741  0.4398E-01  0.3000E+00
      5.818  0.3376E-01  0.3026E+00
      5.895  0.4486E-01  0.3060E+00
      5.972  0.6540E-01  0.3110E+00
      6.048  0.4702E-01  0.3147E+00
      6.125  0.3745E-01  0.3175E+00
      6.202  0.4725E-01  0.3212E+00
      6.279  0.4253E-01  0.3244E+00
      6.356  0.6350E-01  0.3293E+00
      6.433  0.6269E-01  0.3342E+00
      6.510  0.5959E-01  0.3387E+00
      6.587  0.7057E-01  0.3442E+00
      6.664  0.4063E-01  0.3473E+00
      6.741  0.3122E-01  0.3497E+00
      6.818  0.4723E-01  0.3533E+00
      6.895  0.6308E-01  0.3582E+00
      6.972  0.5969E-01  0.3628E+00
      7.048  0.3994E-01  0.3658E+00
      7.125  0.4075E-01  0.3690E+00
      7.202  0.4724E-01  0.3726E+00
      7.279  0.5659E-01  0.3770E+00
      7.356  0.4460E-01  0.3804E+00
      7.433  0.4768E-01  0.3841E+00
      7.510  0.6172E-01  0.3888E+00
      7.587  0.6305E-01  0.3937E+00
      7.664  0.5637E-01  0.3980E+00
      7.741  0.6220E-01  0.4028E+00
      7.818  0.7830E-01  0.4088E+00
      7.895  0.6831E-01  0.4141E+00
      7.972  0.5083E-01  0.4180E+00
      8.048  0.5571E-01  0.4222E+00
      8.125  0.7677E-01  0.4282E+00
      8.202  0.9864E-01  0.4357E+00
      8.279  0.6388E-01  0.4407E+00
      8.356  0.6346E-01  0.4455E+00
      8.433  0.6809E-01  0.4508E+00
      8.510  0.5352E-01  0.4549E+00
      8.587  0.5486E-01  0.4591E+00
      8.664  0.6072E-01  0.4638E+00
      8.741  0.5048E-01  0.4677E+00
      8.818  0.3574E-01  0.4704E+00
      8.895  0.2946E-01  0.4727E+00
      8.972  0.2915E-01  0.4749E+00
      9.048  0.1499E-01  0.4761E+00
      9.125  0.9510E-02  0.4768E+00
      9.202  0.7339E-02  0.4774E+00
      9.279  0.9667E-02  0.4781E+00
      9.356  0.7703E-02  0.4787E+00
      9.433  0.6175E-02  0.4792E+00
      9.510  0.4688E-02  0.4795E+00
      9.587  0.4320E-02  0.4799E+00
      9.664  0.1541E-02  0.4800E+00
      9.741  0.8093E-04  0.4800E+00
      9.818  0.1503E-06  0.4800E+00
      9.895  0.9812E-06  0.4800E+00
      9.971  0.3231E-03  0.4800E+00
     10.048  0.2125E-02  0.4802E+00
     10.125  0.1115E-02  0.4803E+00
     10.202  0.4502E-02  0.4806E+00
     10.279  0.7459E-02  0.4812E+00
     10.356  0.7121E-02  0.4817E+00
     10.433  0.1124E-01  0.4826E+00
     10.510  0.1888E-01  0.4841E+00
     10.587  0.2459E-01  0.4860E+00
     10.664  0.3052E-01  0.4883E+00
     10.741  0.2026E-01  0.4899E+00
     10.818  0.1350E-01  0.4909E+00
     10.895  0.5886E-02  0.4913E+00
     10.971  0.1050E-01  0.4922E+00
     11.048  0.1039E-01  0.4930E+00
     11.125  0.9802E-02  0.4937E+00
     11.202  0.2655E-01  0.4958E+00
     11.279  0.3873E-01  0.4987E+00
     11.356  0.2535E-01  0.5007E+00
     11.433  0.2819E-01  0.5028E+00
     11.510  0.4315E-01  0.5062E+00
     11.587  0.3368E-01  0.5088E+00
     11.664  0.2181E-01  0.5104E+00
     11.741  0.2198E-01  0.5121E+00
     11.818  0.2439E-01  0.5140E+00
     11.895  0.1522E-01  0.5152E+00
     11.971  0.2464E-01  0.5171E+00
     12.048  0.3862E-01  0.5200E+00
     12.125  0.2944E-01  0.5223E+00
     12.202  0.3217E-01  0.5248E+00
     12.279  0.2137E-01  0.5264E+00
     12.356  0.2810E-01  0.5286E+00
     12.433  0.3666E-01  0.5314E+00
     12.510  0.4507E-01  0.5349E+00
     12.587  0.5763E-01  0.5393E+00
     12.664  0.4589E-01  0.5428E+00
     12.741  0.3805E-01  0.5458E+00
     12.818  0.4457E-01  0.5492E+00
     12.895  0.4986E-01  0.5530E+00
     12.971  0.6186E-01  0.5578E+00
     13.048  0.5369E-01  0.5619E+00
     13.125  0.3919E-01  0.5649E+00
     13.202  0.5411E-01  0.5691E+00
     13.279  0.4406E-01  0.5725E+00
     13.356  0.4434E-01  0.5759E+00
     13.433  0.5314E-01  0.5800E+00
     13.510  0.4767E-01  0.5836E+00
     13.587  0.3588E-01  0.5864E+00
     13.664  0.3422E-01  0.5890E+00
     13.741  0.4803E-01  0.5927E+00
     13.818  0.4743E-01  0.5964E+00
     13.895  0.4731E-01  0.6000E+00
     13.971  0.5120E-01  0.6040E+00
     14.048  0.5280E-01  0.6080E+00
     14.125  0.5394E-01  0.6122E+00
     14.202  0.5822E-01  0.6166E+00
     14.279  0.5710E-01  0.6210E+00
     14.356  0.4848E-01  0.6248E+00
     14.433  0.4372E-01  0.6281E+00
     14.510  0.4222E-01  0.6314E+00
     14.587  0.4197E-01  0.6346E+00
     14.664  0.3083E-01  0.6370E+00
     14.741  0.5259E-01  0.6410E+00
     14.818  0.4567E-01  0.6445E+00
     14.895  0.3350E-01  0.6471E+00
     14.971  0.2586E-01  0.6491E+00
     15.048  0.2231E-01  0.6508E+00
     15.125  0.2637E-01  0.6528E+00
     15.202  0.3320E-01  0.6554E+00
     15.279  0.3505E-01  0.6581E+00
     15.356  0.1693E-01  0.6594E+00
     15.433  0.6451E-02  0.6599E+00
     15.510  0.1235E-02  0.6600E+00
     15.587  0.1226E-03  0.6600E+00
     15.664  0.2737E-06  0.6600E+00
     15.741  0.7164E-11  0.6600E+00
     15.818  0.1968E-17  0.6600E+00
     15.895  0.0000E+00  0.6600E+00
     15.971  0.0000E+00  0.6600E+00
     16.048  0.0000E+00  0.6600E+00
     16.125  0.0000E+00  0.6600E+00
     16.202  0.0000E+00  0.6600E+00
     16.279  0.0000E+00  0.6600E+00
     16.356  0.0000E+00  0.6600E+00
     16.433  0.0000E+00  0.6600E+00
     16.510  0.0000E+00  0.6600E+00
