       N       E                     dE             d eps       ncg     rms          rms(c)
DAV:   1    -0.165925779579E+03   -0.16593E+03   -0.95897E-02  7140   0.347E+00    0.229E-02
DAV:   2    -0.165925790999E+03   -0.11419E-04   -0.25459E-06  3798   0.114E-02    0.130E-02
DAV:   3    -0.165925797374E+03   -0.63754E-05   -0.15620E-06  3768   0.102E-02
   1 F= -.16592580E+03 E0= -.16592580E+03  d E =-.165926E+03
       N       E                     dE             d eps       ncg     rms          rms(c)
DAV:   1    -0.166698659006E+03   -0.77287E+00   -0.20338E+01  8262   0.171E+01    0.469E+00
DAV:   2    -0.166162118467E+03    0.53654E+00   -0.16984E+00  8334   0.389E+00    0.184E+00
DAV:   3    -0.166134988601E+03    0.27130E-01   -0.15531E-01  8634   0.118E+00    0.638E-01
DAV:   4    -0.166127696212E+03    0.72924E-02   -0.14094E-02  8430   0.345E-01    0.239E-01
DAV:   5    -0.166126366915E+03    0.13293E-02   -0.25314E-03  8574   0.150E-01    0.113E-01
DAV:   6    -0.166126239885E+03    0.12703E-03   -0.27357E-04  8496   0.534E-02    0.535E-02
DAV:   7    -0.166126225149E+03    0.14736E-04   -0.68533E-05  8016   0.254E-02    0.130E-02
DAV:   8    -0.166126221548E+03    0.36012E-05   -0.78709E-06  4488   0.127E-02
   2 F= -.16612622E+03 E0= -.16612622E+03  d E =-.200424E+00
       N       E                     dE             d eps       ncg     rms          rms(c)
DAV:   1    -0.166439019035E+03   -0.31279E+00   -0.38006E+00  8226   0.764E+00    0.199E+00
DAV:   2    -0.166343610924E+03    0.95408E-01   -0.29512E-01  8304   0.164E+00    0.800E-01
DAV:   3    -0.166338233999E+03    0.53769E-02   -0.28813E-02  8628   0.511E-01    0.271E-01
DAV:   4    -0.166336949190E+03    0.12848E-02   -0.24415E-03  8424   0.144E-01    0.104E-01
DAV:   5    -0.166336746820E+03    0.20237E-03   -0.42282E-04  8484   0.617E-02    0.506E-02
DAV:   6    -0.166336730564E+03    0.16256E-04   -0.45758E-05  7980   0.217E-02    0.213E-02
DAV:   7    -0.166336730964E+03   -0.39973E-06   -0.11104E-05  4434   0.107E-02
   3 F= -.16633673E+03 E0= -.16633673E+03  d E =-.410934E+00
       N       E                     dE             d eps       ncg     rms          rms(c)
DAV:   1    -0.166352393014E+03   -0.15662E-01   -0.96627E-01  7140   0.396E+00    0.176E-01
DAV:   2    -0.166352727235E+03   -0.33422E-03   -0.17425E-02  9000   0.466E-01    0.120E-01
DAV:   3    -0.166352332244E+03    0.39499E-03   -0.91198E-04  8988   0.123E-01    0.572E-02
DAV:   4    -0.166352303551E+03    0.28694E-04   -0.49036E-04  8484   0.736E-02    0.238E-02
DAV:   5    -0.166352302919E+03    0.63183E-06   -0.43843E-05  6360   0.253E-02
   4 F= -.16635230E+03 E0= -.16635230E+03  d E =-.155720E-01
       N       E                     dE             d eps       ncg     rms          rms(c)
DAV:   1    -0.166357231610E+03   -0.49281E-02   -0.79360E-01  7128   0.359E+00    0.161E-01
DAV:   2    -0.166357515778E+03   -0.28417E-03   -0.14354E-02  8988   0.423E-01    0.110E-01
DAV:   3    -0.166357188716E+03    0.32706E-03   -0.76092E-04  9012   0.112E-01    0.528E-02
DAV:   4    -0.166357165573E+03    0.23143E-04   -0.40982E-04  8496   0.675E-02    0.221E-02
DAV:   5    -0.166357165173E+03    0.39997E-06   -0.36719E-05  6036   0.233E-02
   5 F= -.16635717E+03 E0= -.16635717E+03  d E =-.204342E-01
       N       E                     dE             d eps       ncg     rms          rms(c)
DAV:   1    -0.166366891363E+03   -0.97258E-02   -0.14637E+00  7128   0.474E+00    0.190E-01
DAV:   2    -0.166367120135E+03   -0.22877E-03   -0.30123E-02  8760   0.628E-01    0.134E-01
DAV:   3    -0.166366582109E+03    0.53803E-03   -0.17101E-03  8616   0.166E-01    0.622E-02
DAV:   4    -0.166366590915E+03   -0.88065E-05   -0.71258E-04  8706   0.794E-02    0.269E-02
DAV:   5    -0.166366593154E+03   -0.22388E-05   -0.29569E-05  6126   0.210E-02
   6 F= -.16636659E+03 E0= -.16636659E+03  d E =-.942798E-02
       N       E                     dE             d eps       ncg     rms          rms(c)
DAV:   1    -0.166366992568E+03   -0.40165E-03   -0.79563E-02  7176   0.111E+00    0.462E-02
DAV:   2    -0.166367003898E+03   -0.11331E-04   -0.16290E-03  8772   0.146E-01    0.314E-02
DAV:   3    -0.166366974586E+03    0.29312E-04   -0.95763E-05  8604   0.392E-02    0.147E-02
DAV:   4    -0.166366975660E+03   -0.10738E-05   -0.37978E-05  5238   0.186E-02
   7 F= -.16636698E+03 E0= -.16636698E+03  d E =-.981049E-02
       N       E                     dE             d eps       ncg     rms          rms(c)
DAV:   1    -0.166372570318E+03   -0.55957E-02   -0.94938E-01  7128   0.389E+00    0.152E-01
DAV:   2    -0.166373039611E+03   -0.46929E-03   -0.18338E-02  8928   0.484E-01    0.107E-01
DAV:   3    -0.166372803083E+03    0.23653E-03   -0.76715E-04  8658   0.114E-01    0.618E-02
DAV:   4    -0.166372759304E+03    0.43779E-04   -0.60179E-04  8742   0.774E-02    0.215E-02
DAV:   5    -0.166372754735E+03    0.45694E-05   -0.46251E-05  7068   0.285E-02
   8 F= -.16637275E+03 E0= -.16637275E+03  d E =-.577908E-02
       N       E                     dE             d eps       ncg     rms          rms(c)
DAV:   1    -0.166373159740E+03   -0.40044E-03   -0.12053E-01  7146   0.139E+00    0.553E-02
DAV:   2    -0.166373237049E+03   -0.77308E-04   -0.24231E-03  8952   0.175E-01    0.399E-02
DAV:   3    -0.166373205263E+03    0.31786E-04   -0.93623E-05  8640   0.405E-02    0.236E-02
DAV:   4    -0.166373199603E+03    0.56601E-05   -0.87401E-05  8226   0.297E-02
   9 F= -.16637320E+03 E0= -.16637320E+03  d E =-.622394E-02
       N       E                     dE             d eps       ncg     rms          rms(c)
DAV:   1    -0.166377251455E+03   -0.40462E-02   -0.37307E-01  7128   0.246E+00    0.102E-01
DAV:   2    -0.166377654287E+03   -0.40283E-03   -0.71340E-03  8874   0.299E-01    0.698E-02
DAV:   3    -0.166377523378E+03    0.13091E-03   -0.28284E-04  8820   0.686E-02    0.367E-02
DAV:   4    -0.166377509704E+03    0.13673E-04   -0.19354E-04  8604   0.472E-02    0.156E-02
DAV:   5    -0.166377511331E+03   -0.16271E-05   -0.25755E-05  5166   0.183E-02
  10 F= -.16637751E+03 E0= -.16637751E+03  d E =-.431173E-02
       N       E                     dE             d eps       ncg     rms          rms(c)
DAV:   1    -0.166379081396E+03   -0.15717E-02   -0.63028E-01  7128   0.320E+00    0.130E-01
DAV:   2    -0.166379780708E+03   -0.69931E-03   -0.12091E-02  8886   0.390E-01    0.902E-02
DAV:   3    -0.166379561370E+03    0.21934E-03   -0.47174E-04  8838   0.885E-02    0.473E-02
DAV:   4    -0.166379537426E+03    0.23944E-04   -0.32228E-04  8616   0.611E-02    0.201E-02
DAV:   5    -0.166379540149E+03   -0.27234E-05   -0.43926E-05  5604   0.237E-02
  11 F= -.16637954E+03 E0= -.16637954E+03  d E =-.634055E-02
       N       E                     dE             d eps       ncg     rms          rms(c)
DAV:   1    -0.166381045975E+03   -0.15085E-02   -0.15808E-01  7128   0.161E+00    0.798E-02
DAV:   2    -0.166381198822E+03   -0.15285E-03   -0.38601E-03  8922   0.219E-01    0.556E-02
DAV:   3    -0.166381146140E+03    0.52682E-04   -0.20068E-04  8928   0.556E-02    0.291E-02
DAV:   4    -0.166381144150E+03    0.19904E-05   -0.69129E-05  7668   0.281E-02
  12 F= -.16638114E+03 E0= -.16638114E+03  d E =-.160400E-02
       N       E                     dE             d eps       ncg     rms          rms(c)
DAV:   1    -0.166381154367E+03   -0.82263E-05   -0.14350E-03  7284   0.155E-01    0.921E-03
DAV:   2    -0.166381156152E+03   -0.17849E-05   -0.31627E-05  7566   0.204E-02
  13 F= -.16638116E+03 E0= -.16638116E+03  d E =-.161600E-02
       N       E                     dE             d eps       ncg     rms          rms(c)
DAV:   1    -0.166382426644E+03   -0.12723E-02   -0.22159E-01  7128   0.192E+00    0.680E-02
DAV:   2    -0.166382539072E+03   -0.11243E-03   -0.27861E-03  9204   0.193E-01    0.442E-02
DAV:   3    -0.166382487439E+03    0.51634E-04   -0.20451E-04  8904   0.565E-02    0.191E-02
DAV:   4    -0.166382488004E+03   -0.56524E-06   -0.62877E-05  6864   0.258E-02
  14 F= -.16638249E+03 E0= -.16638249E+03  d E =-.133185E-02
       N       E                     dE             d eps       ncg     rms          rms(c)
DAV:   1    -0.166382909298E+03   -0.42186E-03   -0.27033E-01  7128   0.212E+00    0.754E-02
DAV:   2    -0.166383045969E+03   -0.13667E-03   -0.33717E-03  9180   0.212E-01    0.488E-02
DAV:   3    -0.166382984821E+03    0.61149E-04   -0.25699E-04  9066   0.635E-02    0.213E-02
DAV:   4    -0.166382985581E+03   -0.76009E-06   -0.79163E-05  7680   0.290E-02
  15 F= -.16638299E+03 E0= -.16638299E+03  d E =-.182943E-02
       N       E                     dE             d eps       ncg     rms          rms(c)
DAV:   1    -0.166383786364E+03   -0.80154E-03   -0.14840E-01  7128   0.155E+00    0.658E-02
DAV:   2    -0.166383839382E+03   -0.53018E-04   -0.22655E-03  9000   0.170E-01    0.418E-02
DAV:   3    -0.166383786692E+03    0.52690E-04   -0.16798E-04  8724   0.506E-02    0.158E-02
DAV:   4    -0.166383787693E+03   -0.10017E-05   -0.51435E-05  6270   0.233E-02
  16 F= -.16638379E+03 E0= -.16638379E+03  d E =-.802113E-03
       N       E                     dE             d eps       ncg     rms          rms(c)
DAV:   1    -0.166383894804E+03   -0.10811E-03   -0.39225E-02  7128   0.799E-01    0.347E-02
DAV:   2    -0.166383908969E+03   -0.14164E-04   -0.59902E-04  9036   0.871E-02    0.219E-02
DAV:   3    -0.166383894479E+03    0.14490E-04   -0.44171E-05  7932   0.261E-02    0.836E-03
DAV:   4    -0.166383894618E+03   -0.13878E-06   -0.14054E-05  5058   0.124E-02
  17 F= -.16638389E+03 E0= -.16638389E+03  d E =-.909037E-03
       N       E                     dE             d eps       ncg     rms          rms(c)
DAV:   1    -0.166384095714E+03   -0.20124E-03   -0.20127E-02  7152   0.578E-01    0.294E-02
DAV:   2    -0.166384131067E+03   -0.35353E-04   -0.59445E-04  9132   0.862E-02    0.225E-02
DAV:   3    -0.166384121755E+03    0.93126E-05   -0.20560E-05  5826   0.202E-02
  18 F= -.16638412E+03 E0= -.16638412E+03  d E =-.227137E-03
       N       E                     dE             d eps       ncg     rms          rms(c)
DAV:   1    -0.166384122787E+03    0.82806E-05   -0.59510E-04  7476   0.993E-02    0.836E-03
DAV:   2    -0.166384122634E+03    0.15266E-06   -0.92447E-06  5760   0.127E-02
  19 F= -.16638412E+03 E0= -.16638412E+03  d E =-.228016E-03
       N       E                     dE             d eps       ncg     rms          rms(c)
DAV:   1    -0.166384228665E+03   -0.10588E-03   -0.88191E-03  7128   0.381E-01    0.163E-02
DAV:   2    -0.166384231882E+03   -0.32166E-05   -0.12666E-04  9120   0.405E-02    0.999E-03
DAV:   3    -0.166384228969E+03    0.29128E-05   -0.67728E-06  4578   0.108E-02
  20 F= -.16638423E+03 E0= -.16638423E+03  d E =-.106335E-03
       N       E                     dE             d eps       ncg     rms          rms(c)
DAV:   1    -0.166384289269E+03   -0.57387E-04   -0.23259E-02  7152   0.618E-01    0.256E-02
DAV:   2    -0.166384297237E+03   -0.79685E-05   -0.32138E-04  9228   0.646E-02    0.157E-02
DAV:   3    -0.166384289846E+03    0.73911E-05   -0.17364E-05  5550   0.172E-02
  21 F= -.16638429E+03 E0= -.16638429E+03  d E =-.167212E-03
       N       E                     dE             d eps       ncg     rms          rms(c)
DAV:   1    -0.166384331956E+03   -0.34719E-04   -0.73045E-03  7230   0.336E-01    0.210E-02
DAV:   2    -0.166384322465E+03    0.94910E-05   -0.13261E-04  8748   0.404E-02    0.125E-02
DAV:   3    -0.166384318462E+03    0.40035E-05   -0.13499E-05  4872   0.143E-02
  22 F= -.16638432E+03 E0= -.16638432E+03  d E =-.286154E-04
