Al4C3 Pnma - H(P) scan @ 0 GPa (ISIF=8) 
           1
     8.705602    0.000000    0.000000
     0.000000    3.003275    0.000000
     0.000000    0.000000   10.348510
   Al   C 
    16    12
Direct configuration=     1
   0.27002361  0.25000000  0.30372920
   0.22997639  0.75000000  0.80372920
   0.72997639  0.75000000  0.69627080
   0.77002361  0.25000000  0.19627080
   0.35708185  0.25000000  0.01593818
   0.14291815  0.75000000  0.51593818
   0.64291815  0.75000000  0.98406182
   0.85708185  0.25000000  0.48406182
   0.51792899  0.25000000  0.79462662
   0.98207101  0.75000000  0.29462662
   0.48207101  0.75000000  0.20537338
   0.01792899  0.25000000  0.70537338
   0.07746231  0.25000000  0.08529424
   0.42253769  0.75000000  0.58529424
   0.92253769  0.75000000  0.91470576
   0.57746231  0.25000000  0.41470576
   0.24999669  0.25000000  0.64012286
   0.25000331  0.75000000  0.14012286
   0.75000331  0.75000000  0.35987714
   0.74999669  0.25000000  0.85987714
   0.59272781  0.25000000  0.61205407
   0.90727219  0.75000000  0.11205407
   0.40727219  0.75000000  0.38794593
   0.09272781  0.25000000  0.88794593
   0.06985637  0.25000000  0.38770641
   0.43014363  0.75000000  0.88770641
   0.93014363  0.75000000  0.61229359
   0.56985637  0.25000000  0.11229359
Al4C3 Pnma - H(P) scan @ 0 GPa (ISIF=8) 
           1
     8.958800    0.000000    0.000000
     0.000000    3.090623    0.000000
     0.000000    0.000000   10.649490
   Al   C 
    16    12
Direct configuration=     2
   0.27003871  0.25000000  0.30370979
   0.22996129  0.75000000  0.80370979
   0.72996129  0.75000000  0.69629021
   0.77003871  0.25000000  0.19629021
   0.35703393  0.25000000  0.01595291
   0.14296607  0.75000000  0.51595291
   0.64296607  0.75000000  0.98404709
   0.85703393  0.25000000  0.48404709
   0.51793685  0.25000000  0.79461627
   0.98206315  0.75000000  0.29461627
   0.48206315  0.75000000  0.20538373
   0.01793685  0.25000000  0.70538373
   0.07747529  0.25000000  0.08525754
   0.42252471  0.75000000  0.58525754
   0.92252471  0.75000000  0.91474246
   0.57747529  0.25000000  0.41474246
   0.25002356  0.25000000  0.64011053
   0.24997644  0.75000000  0.14011053
   0.74997644  0.75000000  0.35988947
   0.75002356  0.25000000  0.85988947
   0.59272661  0.25000000  0.61207459
   0.90727339  0.75000000  0.11207459
   0.40727339  0.75000000  0.38792541
   0.09272661  0.25000000  0.88792541
   0.06989098  0.25000000  0.38771060
   0.43010902  0.75000000  0.88771060
   0.93010902  0.75000000  0.61228940
   0.56989098  0.25000000  0.11228940
Al4C3 Pnma - H(P) scan @ 0 GPa (ISIF=8) 
           1
     8.850905    0.000000    0.000000
     0.000000    3.053401    0.000000
     0.000000    0.000000   10.521234
   Al   C 
    16    12
Direct configuration=     3
   0.27003246  0.25000000  0.30371783
   0.22996754  0.75000000  0.80371783
   0.72996754  0.75000000  0.69628217
   0.77003246  0.25000000  0.19628217
   0.35705377  0.25000000  0.01594681
   0.14294623  0.75000000  0.51594681
   0.64294623  0.75000000  0.98405319
   0.85705377  0.25000000  0.48405319
   0.51793359  0.25000000  0.79462055
   0.98206641  0.75000000  0.29462055
   0.48206641  0.75000000  0.20537945
   0.01793359  0.25000000  0.70537945
   0.07746992  0.25000000  0.08527273
   0.42253008  0.75000000  0.58527273
   0.92253008  0.75000000  0.91472727
   0.57746992  0.25000000  0.41472727
   0.25001243  0.25000000  0.64011563
   0.24998757  0.75000000  0.14011563
   0.74998757  0.75000000  0.35988437
   0.75001243  0.25000000  0.85988437
   0.59272711  0.25000000  0.61206609
   0.90727289  0.75000000  0.11206609
   0.40727289  0.75000000  0.38793391
   0.09272711  0.25000000  0.88793391
   0.06987664  0.25000000  0.38770887
   0.43012336  0.75000000  0.88770887
   0.93012336  0.75000000  0.61229113
   0.56987664  0.25000000  0.11229113
Al4C3 Pnma - H(P) scan @ 0 GPa (ISIF=8) 
           1
     8.854584    0.000000    0.000000
     0.000000    3.054671    0.000000
     0.000000    0.000000   10.525607
   Al   C 
    16    12
Direct configuration=     4
   0.26975469  0.25000000  0.30416308
   0.23024531  0.75000000  0.80416308
   0.73024531  0.75000000  0.69583692
   0.76975469  0.25000000  0.19583692
   0.35772305  0.25000000  0.01615570
   0.14227695  0.75000000  0.51615570
   0.64227695  0.75000000  0.98384430
   0.85772305  0.25000000  0.48384430
   0.51823204  0.25000000  0.79505654
   0.98176796  0.75000000  0.29505654
   0.48176796  0.75000000  0.20494346
   0.01823204  0.25000000  0.70494346
   0.07747476  0.25000000  0.08473301
   0.42252524  0.75000000  0.58473301
   0.92252524  0.75000000  0.91526699
   0.57747476  0.25000000  0.41526699
   0.24949296  0.25000000  0.63997969
   0.25050704  0.75000000  0.13997969
   0.75050704  0.75000000  0.36002031
   0.74949296  0.25000000  0.86002031
   0.59216706  0.25000000  0.61260561
   0.90783294  0.75000000  0.11260561
   0.40783294  0.75000000  0.38739439
   0.09216706  0.25000000  0.88739439
   0.06992237  0.25000000  0.38725650
   0.43007763  0.75000000  0.88725650
   0.93007763  0.75000000  0.61274350
   0.56992237  0.25000000  0.11274350
Al4C3 Pnma - H(P) scan @ 0 GPa (ISIF=8) 
           1
     8.857917    0.000000    0.000000
     0.000000    3.055820    0.000000
     0.000000    0.000000   10.529569
   Al   C 
    16    12
Direct configuration=     5
   0.26950315  0.25000000  0.30456629
   0.23049685  0.75000000  0.80456629
   0.73049685  0.75000000  0.69543371
   0.76950315  0.25000000  0.19543371
   0.35832913  0.25000000  0.01634486
   0.14167087  0.75000000  0.51634486
   0.64167087  0.75000000  0.98365514
   0.85832913  0.25000000  0.48365514
   0.51850231  0.25000000  0.79545136
   0.98149769  0.75000000  0.29545136
   0.48149769  0.75000000  0.20454864
   0.01850231  0.25000000  0.70454864
   0.07747915  0.25000000  0.08424424
   0.42252085  0.75000000  0.58424424
   0.92252085  0.75000000  0.91575576
   0.57747915  0.25000000  0.41575576
   0.24902254  0.25000000  0.63985658
   0.25097746  0.75000000  0.13985658
   0.75097746  0.75000000  0.36014342
   0.74902254  0.25000000  0.86014342
   0.59165990  0.25000000  0.61309419
   0.90834010  0.75000000  0.11309419
   0.40834010  0.75000000  0.38690581
   0.09165990  0.25000000  0.88690581
   0.06996378  0.25000000  0.38684684
   0.43003622  0.75000000  0.88684684
   0.93003622  0.75000000  0.61315316
   0.56996378  0.25000000  0.11315316
Al4C3 Pnma - H(P) scan @ 0 GPa (ISIF=8) 
           1
     8.860294    0.000000    0.000000
     0.000000    3.056640    0.000000
     0.000000    0.000000   10.532394
   Al   C 
    16    12
Direct configuration=     6
   0.27002414  0.25000000  0.30484297
   0.22997586  0.75000000  0.80484297
   0.72997586  0.75000000  0.69515703
   0.77002414  0.25000000  0.19515703
   0.35890670  0.25000000  0.01686149
   0.14109330  0.75000000  0.51686149
   0.64109330  0.75000000  0.98313851
   0.85890670  0.25000000  0.48313851
   0.51933859  0.25000000  0.79538853
   0.98066141  0.75000000  0.29538853
   0.48066141  0.75000000  0.20461147
   0.01933859  0.25000000  0.70461147
   0.07802743  0.25000000  0.08389721
   0.42197257  0.75000000  0.58389721
   0.92197257  0.75000000  0.91610279
   0.57802743  0.25000000  0.41610279
   0.24834235  0.25000000  0.63932698
   0.25165765  0.75000000  0.13932698
   0.75165765  0.75000000  0.36067302
   0.74834235  0.25000000  0.86067302
   0.59082142  0.25000000  0.61350565
   0.90917858  0.75000000  0.11350565
   0.40917858  0.75000000  0.38649435
   0.09082142  0.25000000  0.88649435
   0.06991207  0.25000000  0.38704249
   0.43008793  0.75000000  0.88704249
   0.93008793  0.75000000  0.61295751
   0.56991207  0.25000000  0.11295751
Al4C3 Pnma - H(P) scan @ 0 GPa (ISIF=8) 
           1
     8.860847    0.000000    0.000000
     0.000000    3.056831    0.000000
     0.000000    0.000000   10.533052
   Al   C 
    16    12
Direct configuration=     7
   0.27014538  0.25000000  0.30490735
   0.22985462  0.75000000  0.80490735
   0.72985462  0.75000000  0.69509265
   0.77014538  0.25000000  0.19509265
   0.35904110  0.25000000  0.01698171
   0.14095890  0.75000000  0.51698171
   0.64095890  0.75000000  0.98301829
   0.85904110  0.25000000  0.48301829
   0.51953319  0.25000000  0.79537391
   0.98046681  0.75000000  0.29537391
   0.48046681  0.75000000  0.20462609
   0.01953319  0.25000000  0.70462609
   0.07815502  0.25000000  0.08381646
   0.42184498  0.75000000  0.58381646
   0.92184498  0.75000000  0.91618354
   0.57815502  0.25000000  0.41618354
   0.24818406  0.25000000  0.63920375
   0.25181594  0.75000000  0.13920375
   0.75181594  0.75000000  0.36079625
   0.74818406  0.25000000  0.86079625
   0.59062631  0.25000000  0.61360140
   0.90937369  0.75000000  0.11360140
   0.40937369  0.75000000  0.38639860
   0.09062631  0.25000000  0.88639860
   0.06990004  0.25000000  0.38708801
   0.43009996  0.75000000  0.88708801
   0.93009996  0.75000000  0.61291199
   0.56990004  0.25000000  0.11291199
Al4C3 Pnma - H(P) scan @ 0 GPa (ISIF=8) 
           1
     8.863480    0.000000    0.000000
     0.000000    3.057740    0.000000
     0.000000    0.000000   10.536182
   Al   C 
    16    12
Direct configuration=     8
   0.27036745  0.25000000  0.30534888
   0.22963255  0.75000000  0.80534888
   0.72963255  0.75000000  0.69465112
   0.77036745  0.25000000  0.19465112
   0.35969663  0.25000000  0.01720845
   0.14030337  0.75000000  0.51720845
   0.64030337  0.75000000  0.98279155
   0.85969663  0.25000000  0.48279155
   0.51954203  0.25000000  0.79559245
   0.98045797  0.75000000  0.29559245
   0.48045797  0.75000000  0.20440755
   0.01954203  0.25000000  0.70440755
   0.07909304  0.25000000  0.08389522
   0.42090696  0.75000000  0.58389522
   0.92090696  0.75000000  0.91610478
   0.57909304  0.25000000  0.41610478
   0.24776586  0.25000000  0.63858859
   0.25223414  0.75000000  0.13858859
   0.75223414  0.75000000  0.36141141
   0.74776586  0.25000000  0.86141141
   0.58993201  0.25000000  0.61342578
   0.91006799  0.75000000  0.11342578
   0.41006799  0.75000000  0.38657422
   0.08993201  0.25000000  0.88657422
   0.07017467  0.25000000  0.38711272
   0.42982533  0.75000000  0.88711272
   0.92982533  0.75000000  0.61288728
   0.57017467  0.25000000  0.11288728
Al4C3 Pnma - H(P) scan @ 0 GPa (ISIF=8) 
           1
     8.864419    0.000000    0.000000
     0.000000    3.058063    0.000000
     0.000000    0.000000   10.537298
   Al   C 
    16    12
Direct configuration=     9
   0.27044657  0.25000000  0.30550619
   0.22955343  0.75000000  0.80550619
   0.72955343  0.75000000  0.69449381
   0.77044657  0.25000000  0.19449381
   0.35993017  0.25000000  0.01728922
   0.14006983  0.75000000  0.51728922
   0.64006983  0.75000000  0.98271078
   0.85993017  0.25000000  0.48271078
   0.51954519  0.25000000  0.79567030
   0.98045481  0.75000000  0.29567030
   0.48045481  0.75000000  0.20432970
   0.01954519  0.25000000  0.70432970
   0.07942723  0.25000000  0.08392328
   0.42057277  0.75000000  0.58392328
   0.92057277  0.75000000  0.91607672
   0.57942723  0.25000000  0.41607672
   0.24761687  0.25000000  0.63836943
   0.25238313  0.75000000  0.13836943
   0.75238313  0.75000000  0.36163057
   0.74761687  0.25000000  0.86163057
   0.58968466  0.25000000  0.61336322
   0.91031534  0.75000000  0.11336322
   0.41031534  0.75000000  0.38663678
   0.08968466  0.25000000  0.88663678
   0.07027251  0.25000000  0.38712152
   0.42972749  0.75000000  0.88712152
   0.92972749  0.75000000  0.61287848
   0.57027251  0.25000000  0.11287848
Al4C3 Pnma - H(P) scan @ 0 GPa (ISIF=8) 
           1
     8.865288    0.000000    0.000000
     0.000000    3.058363    0.000000
     0.000000    0.000000   10.538331
   Al   C 
    16    12
Direct configuration=    10
   0.27109195  0.25000000  0.30620417
   0.22890805  0.75000000  0.80620417
   0.72890805  0.75000000  0.69379583
   0.77109195  0.25000000  0.19379583
   0.36025611  0.25000000  0.01723368
   0.13974389  0.75000000  0.51723368
   0.63974389  0.75000000  0.98276632
   0.86025611  0.25000000  0.48276632
   0.51918955  0.25000000  0.79550534
   0.98081045  0.75000000  0.29550534
   0.48081045  0.75000000  0.20449466
   0.01918955  0.25000000  0.70449466
   0.07999516  0.25000000  0.08391887
   0.42000484  0.75000000  0.58391887
   0.92000484  0.75000000  0.91608113
   0.57999516  0.25000000  0.41608113
   0.24724176  0.25000000  0.63809545
   0.25275824  0.75000000  0.13809545
   0.75275824  0.75000000  0.36190455
   0.74724176  0.25000000  0.86190455
   0.58940356  0.25000000  0.61351459
   0.91059644  0.75000000  0.11351459
   0.41059644  0.75000000  0.38648541
   0.08940356  0.25000000  0.88648541
   0.07058484  0.25000000  0.38701645
   0.42941516  0.75000000  0.88701645
   0.92941516  0.75000000  0.61298355
   0.57058484  0.25000000  0.11298355
Al4C3 Pnma - H(P) scan @ 0 GPa (ISIF=8) 
           1
     8.866418    0.000000    0.000000
     0.000000    3.058753    0.000000
     0.000000    0.000000   10.539675
   Al   C 
    16    12
Direct configuration=    11
   0.27193143  0.25000000  0.30711208
   0.22806857  0.75000000  0.80711208
   0.72806857  0.75000000  0.69288792
   0.77193143  0.25000000  0.19288792
   0.36068010  0.25000000  0.01716144
   0.13931990  0.75000000  0.51716144
   0.63931990  0.75000000  0.98283856
   0.86068010  0.25000000  0.48283856
   0.51872695  0.25000000  0.79529076
   0.98127305  0.75000000  0.29529076
   0.48127305  0.75000000  0.20470924
   0.01872695  0.25000000  0.70470924
   0.08073392  0.25000000  0.08391313
   0.41926608  0.75000000  0.58391313
   0.91926608  0.75000000  0.91608687
   0.58073392  0.25000000  0.41608687
   0.24675382  0.25000000  0.63773905
   0.25324618  0.75000000  0.13773905
   0.75324618  0.75000000  0.36226095
   0.74675382  0.25000000  0.86226095
   0.58903791  0.25000000  0.61371149
   0.91096209  0.75000000  0.11371149
   0.41096209  0.75000000  0.38628851
   0.08903791  0.25000000  0.88628851
   0.07099110  0.25000000  0.38687977
   0.42900890  0.75000000  0.88687977
   0.92900890  0.75000000  0.61312023
   0.57099110  0.25000000  0.11312023
Al4C3 Pnma - H(P) scan @ 0 GPa (ISIF=8) 
           1
     8.868025    0.000000    0.000000
     0.000000    3.059308    0.000000
     0.000000    0.000000   10.541585
   Al   C 
    16    12
Direct configuration=    12
   0.27265105  0.25000000  0.30742033
   0.22734895  0.75000000  0.80742033
   0.72734895  0.75000000  0.69257967
   0.77265105  0.25000000  0.19257967
   0.36082340  0.25000000  0.01748827
   0.13917660  0.75000000  0.51748827
   0.63917660  0.75000000  0.98251173
   0.86082340  0.25000000  0.48251173
   0.51827901  0.25000000  0.79532067
   0.98172099  0.75000000  0.29532067
   0.48172099  0.75000000  0.20467933
   0.01827901  0.25000000  0.70467933
   0.08101752  0.25000000  0.08367358
   0.41898248  0.75000000  0.58367358
   0.91898248  0.75000000  0.91632642
   0.58101752  0.25000000  0.41632642
   0.24654808  0.25000000  0.63778515
   0.25345192  0.75000000  0.13778515
   0.75345192  0.75000000  0.36221485
   0.74654808  0.25000000  0.86221485
   0.58879688  0.25000000  0.61349254
   0.91120312  0.75000000  0.11349254
   0.41120312  0.75000000  0.38650746
   0.08879688  0.25000000  0.88650746
   0.07104041  0.25000000  0.38680622
   0.42895959  0.75000000  0.88680622
   0.92895959  0.75000000  0.61319378
   0.57104041  0.25000000  0.11319378
Al4C3 Pnma - H(P) scan @ 0 GPa (ISIF=8) 
           1
     8.868181    0.000000    0.000000
     0.000000    3.059361    0.000000
     0.000000    0.000000   10.541770
   Al   C 
    16    12
Direct configuration=    13
   0.27272074  0.25000000  0.30745018
   0.22727926  0.75000000  0.80745018
   0.72727926  0.75000000  0.69254982
   0.77272074  0.25000000  0.19254982
   0.36083728  0.25000000  0.01751992
   0.13916272  0.75000000  0.51751992
   0.63916272  0.75000000  0.98248008
   0.86083728  0.25000000  0.48248008
   0.51823563  0.25000000  0.79532356
   0.98176437  0.75000000  0.29532356
   0.48176437  0.75000000  0.20467644
   0.01823563  0.25000000  0.70467644
   0.08104498  0.25000000  0.08365038
   0.41895502  0.75000000  0.58365038
   0.91895502  0.75000000  0.91634962
   0.58104498  0.25000000  0.41634962
   0.24652815  0.25000000  0.63778962
   0.25347185  0.75000000  0.13778962
   0.75347185  0.75000000  0.36221038
   0.74652815  0.25000000  0.86221038
   0.58877354  0.25000000  0.61347134
   0.91122646  0.75000000  0.11347134
   0.41122646  0.75000000  0.38652866
   0.08877354  0.25000000  0.88652866
   0.07104519  0.25000000  0.38679909
   0.42895481  0.75000000  0.88679909
   0.92895481  0.75000000  0.61320091
   0.57104519  0.25000000  0.11320091
Al4C3 Pnma - H(P) scan @ 0 GPa (ISIF=8) 
           1
     8.867421    0.000000    0.000000
     0.000000    3.059099    0.000000
     0.000000    0.000000   10.540866
   Al   C 
    16    12
Direct configuration=    14
   0.27289327  0.25000000  0.30761387
   0.22710673  0.75000000  0.80761387
   0.72710673  0.75000000  0.69238613
   0.77289327  0.25000000  0.19238613
   0.36099878  0.25000000  0.01793896
   0.13900122  0.75000000  0.51793896
   0.63900122  0.75000000  0.98206104
   0.86099878  0.25000000  0.48206104
   0.51778094  0.25000000  0.79519751
   0.98221906  0.75000000  0.29519751
   0.48221906  0.75000000  0.20480249
   0.01778094  0.25000000  0.70480249
   0.08115044  0.25000000  0.08357462
   0.41884956  0.75000000  0.58357462
   0.91884956  0.75000000  0.91642538
   0.58115044  0.25000000  0.41642538
   0.24635232  0.25000000  0.63798248
   0.25364768  0.75000000  0.13798248
   0.75364768  0.75000000  0.36201752
   0.74635232  0.25000000  0.86201752
   0.58847073  0.25000000  0.61343235
   0.91152927  0.75000000  0.11343235
   0.41152927  0.75000000  0.38656765
   0.08847073  0.25000000  0.88656765
   0.07140250  0.25000000  0.38680784
   0.42859750  0.75000000  0.88680784
   0.92859750  0.75000000  0.61319216
   0.57140250  0.25000000  0.11319216
Al4C3 Pnma - H(P) scan @ 0 GPa (ISIF=8) 
           1
     8.866580    0.000000    0.000000
     0.000000    3.058809    0.000000
     0.000000    0.000000   10.539867
   Al   C 
    16    12
Direct configuration=    15
   0.27308405  0.25000000  0.30779487
   0.22691595  0.75000000  0.80779487
   0.72691595  0.75000000  0.69220513
   0.77308405  0.25000000  0.19220513
   0.36117736  0.25000000  0.01840234
   0.13882264  0.75000000  0.51840234
   0.63882264  0.75000000  0.98159766
   0.86117736  0.25000000  0.48159766
   0.51727814  0.25000000  0.79505812
   0.98272186  0.75000000  0.29505812
   0.48272186  0.75000000  0.20494188
   0.01727814  0.25000000  0.70494188
   0.08126706  0.25000000  0.08349085
   0.41873294  0.75000000  0.58349085
   0.91873294  0.75000000  0.91650915
   0.58126706  0.25000000  0.41650915
   0.24615788  0.25000000  0.63819574
   0.25384212  0.75000000  0.13819574
   0.75384212  0.75000000  0.36180426
   0.74615788  0.25000000  0.86180426
   0.58813589  0.25000000  0.61338923
   0.91186411  0.75000000  0.11338923
   0.41186411  0.75000000  0.38661077
   0.08813589  0.25000000  0.88661077
   0.07179761  0.25000000  0.38681751
   0.42820239  0.75000000  0.88681751
   0.92820239  0.75000000  0.61318249
   0.57179761  0.25000000  0.11318249
Al4C3 Pnma - H(P) scan @ 0 GPa (ISIF=8) 
           1
     8.868547    0.000000    0.000000
     0.000000    3.059487    0.000000
     0.000000    0.000000   10.542205
   Al   C 
    16    12
Direct configuration=    16
   0.27328615  0.25000000  0.30782979
   0.22671385  0.75000000  0.80782979
   0.72671385  0.75000000  0.69217021
   0.77328615  0.25000000  0.19217021
   0.36136768  0.25000000  0.01865604
   0.13863232  0.75000000  0.51865604
   0.63863232  0.75000000  0.98134396
   0.86136768  0.25000000  0.48134396
   0.51687164  0.25000000  0.79489802
   0.98312836  0.75000000  0.29489802
   0.48312836  0.75000000  0.20510198
   0.01687164  0.25000000  0.70510198
   0.08126379  0.25000000  0.08349274
   0.41873621  0.75000000  0.58349274
   0.91873621  0.75000000  0.91650726
   0.58126379  0.25000000  0.41650726
   0.24597432  0.25000000  0.63835081
   0.25402568  0.75000000  0.13835081
   0.75402568  0.75000000  0.36164919
   0.74597432  0.25000000  0.86164919
   0.58788573  0.25000000  0.61346387
   0.91211427  0.75000000  0.11346387
   0.41211427  0.75000000  0.38653613
   0.08788573  0.25000000  0.88653613
   0.07190843  0.25000000  0.38699784
   0.42809157  0.75000000  0.88699784
   0.92809157  0.75000000  0.61300216
   0.57190843  0.25000000  0.11300216
Al4C3 Pnma - H(P) scan @ 0 GPa (ISIF=8) 
           1
     8.869558    0.000000    0.000000
     0.000000    3.059836    0.000000
     0.000000    0.000000   10.543406
   Al   C 
    16    12
Direct configuration=    17
   0.27339000  0.25000000  0.30784774
   0.22661000  0.75000000  0.80784774
   0.72661000  0.75000000  0.69215226
   0.77339000  0.25000000  0.19215226
   0.36146547  0.25000000  0.01878641
   0.13853453  0.75000000  0.51878641
   0.63853453  0.75000000  0.98121359
   0.86146547  0.25000000  0.48121359
   0.51666276  0.25000000  0.79481576
   0.98333724  0.75000000  0.29481576
   0.48333724  0.75000000  0.20518424
   0.01666276  0.25000000  0.70518424
   0.08126212  0.25000000  0.08349371
   0.41873788  0.75000000  0.58349371
   0.91873788  0.75000000  0.91650629
   0.58126212  0.25000000  0.41650629
   0.24588000  0.25000000  0.63843050
   0.25412000  0.75000000  0.13843050
   0.75412000  0.75000000  0.36156950
   0.74588000  0.25000000  0.86156950
   0.58775718  0.25000000  0.61350223
   0.91224282  0.75000000  0.11350223
   0.41224282  0.75000000  0.38649777
   0.08775718  0.25000000  0.88649777
   0.07196537  0.25000000  0.38709050
   0.42803463  0.75000000  0.88709050
   0.92803463  0.75000000  0.61290950
   0.57196537  0.25000000  0.11290950
Al4C3 Pnma - H(P) scan @ 0 GPa (ISIF=8) 
           1
     8.868655    0.000000    0.000000
     0.000000    3.059525    0.000000
     0.000000    0.000000   10.542333
   Al   C 
    16    12
Direct configuration=    18
   0.27341865  0.25000000  0.30780286
   0.22658135  0.75000000  0.80780286
   0.72658135  0.75000000  0.69219714
   0.77341865  0.25000000  0.19219714
   0.36157674  0.25000000  0.01879913
   0.13842326  0.75000000  0.51879913
   0.63842326  0.75000000  0.98120087
   0.86157674  0.25000000  0.48120087
   0.51640663  0.25000000  0.79486725
   0.98359337  0.75000000  0.29486725
   0.48359337  0.75000000  0.20513275
   0.01640663  0.25000000  0.70513275
   0.08128066  0.25000000  0.08347659
   0.41871934  0.75000000  0.58347659
   0.91871934  0.75000000  0.91652341
   0.58128066  0.25000000  0.41652341
   0.24581782  0.25000000  0.63847669
   0.25418218  0.75000000  0.13847669
   0.75418218  0.75000000  0.36152331
   0.74581782  0.25000000  0.86152331
   0.58765598  0.25000000  0.61351433
   0.91234402  0.75000000  0.11351433
   0.41234402  0.75000000  0.38648567
   0.08765598  0.25000000  0.88648567
   0.07197407  0.25000000  0.38716112
   0.42802593  0.75000000  0.88716112
   0.92802593  0.75000000  0.61283888
   0.57197407  0.25000000  0.11283888
Al4C3 Pnma - H(P) scan @ 0 GPa (ISIF=8) 
           1
     8.868498    0.000000    0.000000
     0.000000    3.059471    0.000000
     0.000000    0.000000   10.542146
   Al   C 
    16    12
Direct configuration=    19
   0.27342365  0.25000000  0.30779504
   0.22657635  0.75000000  0.80779504
   0.72657635  0.75000000  0.69220496
   0.77342365  0.25000000  0.19220496
   0.36159614  0.25000000  0.01880135
   0.13840386  0.75000000  0.51880135
   0.63840386  0.75000000  0.98119865
   0.86159614  0.25000000  0.48119865
   0.51636197  0.25000000  0.79487623
   0.98363803  0.75000000  0.29487623
   0.48363803  0.75000000  0.20512377
   0.01636197  0.25000000  0.70512377
   0.08128390  0.25000000  0.08347361
   0.41871610  0.75000000  0.58347361
   0.91871610  0.75000000  0.91652639
   0.58128390  0.25000000  0.41652639
   0.24580698  0.25000000  0.63848475
   0.25419302  0.75000000  0.13848475
   0.75419302  0.75000000  0.36151525
   0.74580698  0.25000000  0.86151525
   0.58763833  0.25000000  0.61351644
   0.91236167  0.75000000  0.11351644
   0.41236167  0.75000000  0.38648356
   0.08763833  0.25000000  0.88648356
   0.07197559  0.25000000  0.38717343
   0.42802441  0.75000000  0.88717343
   0.92802441  0.75000000  0.61282657
   0.57197559  0.25000000  0.11282657
Al4C3 Pnma - H(P) scan @ 0 GPa (ISIF=8) 
           1
     8.868254    0.000000    0.000000
     0.000000    3.059386    0.000000
     0.000000    0.000000   10.541857
   Al   C 
    16    12
Direct configuration=    20
   0.27346858  0.25000000  0.30771768
   0.22653142  0.75000000  0.80771768
   0.72653142  0.75000000  0.69228232
   0.77346858  0.25000000  0.19228232
   0.36157577  0.25000000  0.01878586
   0.13842423  0.75000000  0.51878586
   0.63842423  0.75000000  0.98121414
   0.86157577  0.25000000  0.48121414
   0.51626287  0.25000000  0.79487203
   0.98373713  0.75000000  0.29487203
   0.48373713  0.75000000  0.20512797
   0.01626287  0.25000000  0.70512797
   0.08131246  0.25000000  0.08342883
   0.41868754  0.75000000  0.58342883
   0.91868754  0.75000000  0.91657117
   0.58131246  0.25000000  0.41657117
   0.24578925  0.25000000  0.63850492
   0.25421075  0.75000000  0.13850492
   0.75421075  0.75000000  0.36149508
   0.74578925  0.25000000  0.86149508
   0.58759405  0.25000000  0.61355249
   0.91240595  0.75000000  0.11355249
   0.41240595  0.75000000  0.38644751
   0.08759405  0.25000000  0.88644751
   0.07204327  0.25000000  0.38721470
   0.42795673  0.75000000  0.88721470
   0.92795673  0.75000000  0.61278530
   0.57204327  0.25000000  0.11278530
Al4C3 Pnma - H(P) scan @ 0 GPa (ISIF=8) 
           1
     8.867858    0.000000    0.000000
     0.000000    3.059250    0.000000
     0.000000    0.000000   10.541385
   Al   C 
    16    12
Direct configuration=    21
   0.27354167  0.25000000  0.30759181
   0.22645833  0.75000000  0.80759181
   0.72645833  0.75000000  0.69240819
   0.77354167  0.25000000  0.19240819
   0.36154263  0.25000000  0.01876065
   0.13845737  0.75000000  0.51876065
   0.63845737  0.75000000  0.98123935
   0.86154263  0.25000000  0.48123935
   0.51610163  0.25000000  0.79486520
   0.98389837  0.75000000  0.29486520
   0.48389837  0.75000000  0.20513480
   0.01610163  0.25000000  0.70513480
   0.08135894  0.25000000  0.08335599
   0.41864106  0.75000000  0.58335599
   0.91864106  0.75000000  0.91664401
   0.58135894  0.25000000  0.41664401
   0.24576040  0.25000000  0.63853773
   0.25423960  0.75000000  0.13853773
   0.75423960  0.75000000  0.36146227
   0.74576040  0.25000000  0.86146227
   0.58752200  0.25000000  0.61361112
   0.91247800  0.75000000  0.11361112
   0.41247800  0.75000000  0.38638888
   0.08752200  0.25000000  0.88638888
   0.07215339  0.25000000  0.38728184
   0.42784661  0.75000000  0.88728184
   0.92784661  0.75000000  0.61271816
   0.57215339  0.25000000  0.11271816
Al4C3 Pnma - H(P) scan @ 0 GPa (ISIF=8) 
           1
     8.868788    0.000000    0.000000
     0.000000    3.059571    0.000000
     0.000000    0.000000   10.542491
   Al   C 
    16    12
Direct configuration=    22
   0.27355027  0.25000000  0.30753299
   0.22644973  0.75000000  0.80753299
   0.72644973  0.75000000  0.69246701
   0.77355027  0.25000000  0.19246701
   0.36153417  0.25000000  0.01875877
   0.13846583  0.75000000  0.51875877
   0.63846583  0.75000000  0.98124123
   0.86153417  0.25000000  0.48124123
   0.51605904  0.25000000  0.79487205
   0.98394096  0.75000000  0.29487205
   0.48394096  0.75000000  0.20512795
   0.01605904  0.25000000  0.70512795
   0.08133245  0.25000000  0.08334673
   0.41866755  0.75000000  0.58334673
   0.91866755  0.75000000  0.91665327
   0.58133245  0.25000000  0.41665327
   0.24576121  0.25000000  0.63853765
   0.25423879  0.75000000  0.13853765
   0.75423879  0.75000000  0.36146235
   0.74576121  0.25000000  0.86146235
   0.58750050  0.25000000  0.61361017
   0.91249950  0.75000000  0.11361017
   0.41249950  0.75000000  0.38638983
   0.08750050  0.25000000  0.88638983
   0.07223377  0.25000000  0.38724334
   0.42776623  0.75000000  0.88724334
   0.92776623  0.75000000  0.61275666
   0.57223377  0.25000000  0.11275666
