       N       E                     dE             d eps       ncg     rms          rms(c)
DAV:   1    -0.260255902036E+03   -0.26026E+03   -0.95173E+01  8406   0.266E+01    0.272E+01
DAV:   2    -0.224358106188E+03    0.35898E+02   -0.59140E+01  8100   0.215E+01    0.103E+01
DAV:   3    -0.224893712847E+03   -0.53561E+00   -0.56060E+00  8280   0.791E+00    0.770E+00
DAV:   4    -0.225149484588E+03   -0.25577E+00   -0.42483E-01  8592   0.233E+00    0.494E+00
DAV:   5    -0.225260263467E+03   -0.11078E+00   -0.21536E-01  8004   0.211E+00    0.581E-01
DAV:   6    -0.225261045192E+03   -0.78173E-03   -0.23003E-02  8466   0.559E-01    0.226E-01
DAV:   7    -0.225261946875E+03   -0.90168E-03   -0.20807E-03  9552   0.189E-01    0.160E-01
DAV:   8    -0.225263125456E+03   -0.11786E-02   -0.19792E-03  8364   0.184E-01    0.696E-02
DAV:   9    -0.225263299205E+03   -0.17375E-03   -0.25528E-04  8454   0.725E-02    0.396E-02
DAV:  10    -0.225263355415E+03   -0.56210E-04   -0.18162E-04  9258   0.543E-02    0.155E-02
DAV:  11    -0.225263363882E+03   -0.84675E-05   -0.15015E-05  4818   0.155E-02
   1 F= -.20823370E+03 E0= -.20823370E+03  d E =-.208234E+03
       N       E                     dE             d eps       ncg     rms          rms(c)
DAV:   1    -0.224691571006E+03    0.57178E+00   -0.38068E+00  8028   0.805E+00    0.189E+00
DAV:   2    -0.224646143531E+03    0.45427E-01   -0.24784E-01  8478   0.163E+00    0.101E+00
DAV:   3    -0.224646616882E+03   -0.47335E-03   -0.32607E-02  8346   0.553E-01    0.405E-01
DAV:   4    -0.224647170582E+03   -0.55370E-03   -0.11896E-03  8520   0.155E-01    0.181E-01
DAV:   5    -0.224647339579E+03   -0.16900E-03   -0.25229E-04  8274   0.732E-02    0.108E-01
DAV:   6    -0.224647384489E+03   -0.44910E-04   -0.86224E-05  8178   0.412E-02    0.383E-02
DAV:   7    -0.224647380256E+03    0.42327E-05   -0.10573E-05  4392   0.116E-02
   2 F= -.20822880E+03 E0= -.20822880E+03  d E =0.489644E-02
       N       E                     dE             d eps       ncg     rms          rms(c)
DAV:   1    -0.225035205763E+03   -0.38782E+00   -0.95389E-01  8070   0.397E+00    0.956E-01
DAV:   2    -0.225024803519E+03    0.10402E-01   -0.64995E-02  8448   0.825E-01    0.511E-01
DAV:   3    -0.225024883288E+03   -0.79769E-04   -0.82577E-03  8382   0.278E-01    0.209E-01
DAV:   4    -0.225024953260E+03   -0.69972E-04   -0.31530E-04  8472   0.802E-02    0.917E-02
DAV:   5    -0.225024970338E+03   -0.17078E-04   -0.64831E-05  8124   0.375E-02    0.537E-02
DAV:   6    -0.225024949452E+03    0.20886E-04   -0.20094E-05  4584   0.206E-02    0.173E-02
DAV:   7    -0.225024950351E+03   -0.89896E-06   -0.21997E-06  4302   0.631E-03
   3 F= -.20829961E+03 E0= -.20829961E+03  d E =-.659136E-01
       N       E                     dE             d eps       ncg     rms          rms(c)
DAV:   1    -0.225024227829E+03    0.72162E-03   -0.25275E-02  7146   0.647E-01    0.333E-02
DAV:   2    -0.225024303187E+03   -0.75357E-04   -0.96769E-04  9048   0.115E-01    0.303E-02
DAV:   3    -0.225024293005E+03    0.10182E-04   -0.27161E-05  6834   0.240E-02    0.212E-02
DAV:   4    -0.225024293774E+03   -0.76832E-06   -0.51207E-05  7542   0.266E-02
   4 F= -.20830045E+03 E0= -.20830045E+03  d E =-.842569E-03
       N       E                     dE             d eps       ncg     rms          rms(c)
DAV:   1    -0.225023686250E+03    0.60676E-03   -0.56351E-03  7182   0.306E-01    0.183E-02
DAV:   2    -0.225023706598E+03   -0.20348E-04   -0.22739E-04  9060   0.559E-02    0.161E-02
DAV:   3    -0.225023705130E+03    0.14675E-05   -0.59255E-06  4572   0.120E-02
   5 F= -.20830056E+03 E0= -.20830056E+03  d E =-.954987E-03
       N       E                     dE             d eps       ncg     rms          rms(c)
DAV:   1    -0.225025366938E+03   -0.16603E-02   -0.42082E-02  7140   0.825E-01    0.364E-02
DAV:   2    -0.225025382291E+03   -0.15353E-04   -0.88709E-04  8706   0.112E-01    0.293E-02
DAV:   3    -0.225025366205E+03    0.16087E-04   -0.43272E-05  8154   0.270E-02    0.182E-02
DAV:   4    -0.225025359755E+03    0.64492E-05   -0.33182E-05  7170   0.212E-02
   6 F= -.20830092E+03 E0= -.20830092E+03  d E =-.356545E-03
       N       E                     dE             d eps       ncg     rms          rms(c)
DAV:   1    -0.225025513170E+03   -0.14697E-03   -0.57232E-04  7248   0.967E-02    0.620E-03
DAV:   2    -0.225025512567E+03    0.60390E-06   -0.10097E-05  5436   0.132E-02
   7 F= -.20830093E+03 E0= -.20830093E+03  d E =-.362401E-03
       N       E                     dE             d eps       ncg     rms          rms(c)
DAV:   1    -0.225025402518E+03    0.11065E-03   -0.18521E-02  7146   0.550E-01    0.256E-02
DAV:   2    -0.225025409331E+03   -0.68130E-05   -0.44279E-04  8856   0.804E-02    0.199E-02
DAV:   3    -0.225025402543E+03    0.67881E-05   -0.23514E-05  6468   0.195E-02
   8 F= -.20830104E+03 E0= -.20830104E+03  d E =-.114953E-03
       N       E                     dE             d eps       ncg     rms          rms(c)
DAV:   1    -0.225025410634E+03   -0.13032E-05   -0.91908E-05  6852   0.384E-02    0.429E-03
DAV:   2    -0.225025411155E+03   -0.52084E-06   -0.86930E-06  3864   0.945E-03
   9 F= -.20830104E+03 E0= -.20830104E+03  d E =-.111337E-03
       N       E                     dE             d eps       ncg     rms          rms(c)
DAV:   1    -0.225025425129E+03   -0.14495E-04   -0.66366E-05  6594   0.329E-02    0.233E-03
DAV:   2    -0.225025425149E+03   -0.19827E-07   -0.16073E-06  3648   0.483E-03
  10 F= -.20830104E+03 E0= -.20830104E+03  d E =-.111818E-03
       N       E                     dE             d eps       ncg     rms          rms(c)
DAV:   1    -0.225025252791E+03    0.17234E-03   -0.16258E-03  7140   0.163E-01    0.856E-03
DAV:   2    -0.225025255221E+03   -0.24298E-05   -0.40580E-05  7584   0.247E-02
  11 F= -.20830108E+03 E0= -.20830108E+03  d E =-.409308E-04
