Al4C3 anti-CaFe2O4 - r2SCAN H(P) scan @ 
           1
     2.931856    0.000000    0.000000
     0.000000    8.956844    0.000000
     0.000000    0.000000   10.390087
   Al   C 
    16    12
Direct configuration=     1
   0.25000000  0.41653413  0.58244150
   0.75000000  0.58346587  0.41755850
   0.25000000  0.91653413  0.91755850
   0.75000000  0.08346587  0.08244150
   0.25000000  0.48766833  0.20599407
   0.75000000  0.51233167  0.79400593
   0.25000000  0.98766833  0.29400593
   0.75000000  0.01233167  0.70599407
   0.25000000  0.13807829  0.51967327
   0.75000000  0.86192171  0.48032673
   0.25000000  0.63807829  0.98032673
   0.75000000  0.36192171  0.01967327
   0.75000000  0.27472313  0.30486913
   0.25000000  0.72527687  0.69513087
   0.25000000  0.22527687  0.80486913
   0.75000000  0.77472313  0.19513087
   0.75000000  0.74427605  0.86050878
   0.25000000  0.25572395  0.13949122
   0.75000000  0.24427605  0.63949122
   0.25000000  0.75572395  0.36050878
   0.25000000  0.92357733  0.61152696
   0.75000000  0.57642267  0.11152696
   0.25000000  0.42357733  0.88847304
   0.75000000  0.07642267  0.38847304
   0.75000000  0.08416170  0.88529897
   0.25000000  0.91583830  0.11470103
   0.75000000  0.58416170  0.61470103
   0.25000000  0.41583830  0.38529897
Al4C3 anti-CaFe2O4 - r2SCAN H(P) scan @ 
           1
     2.896359    0.000000    0.000000
     0.000000    8.848401    0.000000
     0.000000    0.000000   10.264292
   Al   C 
    16    12
Direct configuration=     2
   0.25000000  0.41674191  0.58232223
   0.75000000  0.58325809  0.41767777
   0.25000000  0.91674191  0.91767777
   0.75000000  0.08325809  0.08232223
   0.25000000  0.48754453  0.20565803
   0.75000000  0.51245547  0.79434197
   0.25000000  0.98754453  0.29434197
   0.75000000  0.01245547  0.70565803
   0.25000000  0.13785787  0.51978469
   0.75000000  0.86214213  0.48021531
   0.25000000  0.63785787  0.98021531
   0.75000000  0.36214213  0.01978469
   0.75000000  0.27494867  0.30474291
   0.25000000  0.72505133  0.69525709
   0.25000000  0.22505133  0.80474291
   0.75000000  0.77494867  0.19525709
   0.75000000  0.74391484  0.86050983
   0.25000000  0.25608516  0.13949017
   0.75000000  0.24391484  0.63949017
   0.25000000  0.75608516  0.36050983
   0.25000000  0.92376887  0.61196561
   0.75000000  0.57623113  0.11196561
   0.25000000  0.42376887  0.88803439
   0.75000000  0.07623113  0.38803439
   0.75000000  0.08374894  0.88498774
   0.25000000  0.91625106  0.11501226
   0.75000000  0.58374894  0.61501226
   0.25000000  0.41625106  0.38498774
Al4C3 anti-CaFe2O4 - r2SCAN H(P) scan @ 
           1
     2.914286    0.000000    0.000000
     0.000000    8.903169    0.000000
     0.000000    0.000000   10.327823
   Al   C 
    16    12
Direct configuration=     3
   0.25000000  0.41663569  0.58238320
   0.75000000  0.58336431  0.41761680
   0.25000000  0.91663569  0.91761680
   0.75000000  0.08336431  0.08238320
   0.25000000  0.48760782  0.20582982
   0.75000000  0.51239218  0.79417018
   0.25000000  0.98760782  0.29417018
   0.75000000  0.01239218  0.70582982
   0.25000000  0.13797055  0.51972773
   0.75000000  0.86202945  0.48027227
   0.25000000  0.63797055  0.98027227
   0.75000000  0.36202945  0.01972773
   0.75000000  0.27483337  0.30480743
   0.25000000  0.72516663  0.69519257
   0.25000000  0.22516663  0.80480743
   0.75000000  0.77483337  0.19519257
   0.75000000  0.74409950  0.86050929
   0.25000000  0.25590050  0.13949071
   0.75000000  0.24409950  0.63949071
   0.25000000  0.75590050  0.36050929
   0.25000000  0.92367095  0.61174136
   0.75000000  0.57632905  0.11174136
   0.25000000  0.42367095  0.88825864
   0.75000000  0.07632905  0.38825864
   0.75000000  0.08395995  0.88514685
   0.25000000  0.91604005  0.11485315
   0.75000000  0.58395995  0.61485315
   0.25000000  0.41604005  0.38514685
Al4C3 anti-CaFe2O4 - r2SCAN H(P) scan @ 
           1
     2.914199    0.000000    0.000000
     0.000000    8.902903    0.000000
     0.000000    0.000000   10.327514
   Al   C 
    16    12
Direct configuration=     4
   0.25000000  0.41666034  0.58252582
   0.75000000  0.58333966  0.41747418
   0.25000000  0.91666034  0.91747418
   0.75000000  0.08333966  0.08252582
   0.25000000  0.48752718  0.20582095
   0.75000000  0.51247282  0.79417905
   0.25000000  0.98752718  0.29417905
   0.75000000  0.01247282  0.70582095
   0.25000000  0.13807008  0.51970639
   0.75000000  0.86192992  0.48029361
   0.25000000  0.63807008  0.98029361
   0.75000000  0.36192992  0.01970639
   0.75000000  0.27501107  0.30458194
   0.25000000  0.72498893  0.69541806
   0.25000000  0.22498893  0.80458194
   0.75000000  0.77501107  0.19541806
   0.75000000  0.74402229  0.86045456
   0.25000000  0.25597771  0.13954544
   0.75000000  0.24402229  0.63954544
   0.25000000  0.75597771  0.36045456
   0.25000000  0.92365180  0.61177085
   0.75000000  0.57634820  0.11177085
   0.25000000  0.42365180  0.88822915
   0.75000000  0.07634820  0.38822915
   0.75000000  0.08387619  0.88522318
   0.25000000  0.91612381  0.11477682
   0.75000000  0.58387619  0.61477682
   0.25000000  0.41612381  0.38522318
Al4C3 anti-CaFe2O4 - r2SCAN H(P) scan @ 
           1
     2.914158    0.000000    0.000000
     0.000000    8.902778    0.000000
     0.000000    0.000000   10.327370
   Al   C 
    16    12
Direct configuration=     5
   0.25000000  0.41667187  0.58259252
   0.75000000  0.58332813  0.41740748
   0.25000000  0.91667187  0.91740748
   0.75000000  0.08332813  0.08259252
   0.25000000  0.48748946  0.20581680
   0.75000000  0.51251054  0.79418320
   0.25000000  0.98748946  0.29418320
   0.75000000  0.01251054  0.70581680
   0.25000000  0.13811663  0.51969641
   0.75000000  0.86188337  0.48030359
   0.25000000  0.63811663  0.98030359
   0.75000000  0.36188337  0.01969641
   0.75000000  0.27509418  0.30447648
   0.25000000  0.72490582  0.69552352
   0.25000000  0.22490582  0.80447648
   0.75000000  0.77509418  0.19552352
   0.75000000  0.74398619  0.86042897
   0.25000000  0.25601381  0.13957103
   0.75000000  0.24398619  0.63957103
   0.25000000  0.75601381  0.36042897
   0.25000000  0.92364284  0.61178465
   0.75000000  0.57635716  0.11178465
   0.25000000  0.42364284  0.88821535
   0.75000000  0.07635716  0.38821535
   0.75000000  0.08383702  0.88525888
   0.25000000  0.91616298  0.11474112
   0.75000000  0.58383702  0.61474112
   0.25000000  0.41616298  0.38525888
Al4C3 anti-CaFe2O4 - r2SCAN H(P) scan @ 
           1
     2.914234    0.000000    0.000000
     0.000000    8.903008    0.000000
     0.000000    0.000000   10.327637
   Al   C 
    16    12
Direct configuration=     6
   0.25000000  0.41677501  0.58267758
   0.75000000  0.58322499  0.41732242
   0.25000000  0.91677501  0.91732242
   0.75000000  0.08322499  0.08267758
   0.25000000  0.48752915  0.20571568
   0.75000000  0.51247085  0.79428432
   0.25000000  0.98752915  0.29428432
   0.75000000  0.01247085  0.70571568
   0.25000000  0.13816786  0.51955717
   0.75000000  0.86183214  0.48044283
   0.25000000  0.63816786  0.98044283
   0.75000000  0.36183214  0.01955717
   0.75000000  0.27507388  0.30435508
   0.25000000  0.72492612  0.69564492
   0.25000000  0.22492612  0.80435508
   0.75000000  0.77507388  0.19564492
   0.75000000  0.74388455  0.86036440
   0.25000000  0.25611545  0.13963560
   0.75000000  0.24388455  0.63963560
   0.25000000  0.75611545  0.36036440
   0.25000000  0.92350620  0.61187816
   0.75000000  0.57649380  0.11187816
   0.25000000  0.42350620  0.88812184
   0.75000000  0.07649380  0.38812184
   0.75000000  0.08378509  0.88528692
   0.25000000  0.91621491  0.11471308
   0.75000000  0.58378509  0.61471308
   0.25000000  0.41621491  0.38528692
Al4C3 anti-CaFe2O4 - r2SCAN H(P) scan @ 
           1
     2.914242    0.000000    0.000000
     0.000000    8.903035    0.000000
     0.000000    0.000000   10.327668
   Al   C 
    16    12
Direct configuration=     7
   0.25000000  0.41678669  0.58268721
   0.75000000  0.58321331  0.41731279
   0.25000000  0.91678669  0.91731279
   0.75000000  0.08321331  0.08268721
   0.25000000  0.48753364  0.20570424
   0.75000000  0.51246636  0.79429576
   0.25000000  0.98753364  0.29429576
   0.75000000  0.01246636  0.70570424
   0.25000000  0.13817365  0.51954141
   0.75000000  0.86182635  0.48045859
   0.25000000  0.63817365  0.98045859
   0.75000000  0.36182635  0.01954141
   0.75000000  0.27507158  0.30434134
   0.25000000  0.72492842  0.69565866
   0.25000000  0.22492842  0.80434134
   0.75000000  0.77507158  0.19565866
   0.75000000  0.74387304  0.86035710
   0.25000000  0.25612696  0.13964290
   0.75000000  0.24387304  0.63964290
   0.25000000  0.75612696  0.36035710
   0.25000000  0.92349073  0.61188874
   0.75000000  0.57650927  0.11188874
   0.25000000  0.42349073  0.88811126
   0.75000000  0.07650927  0.38811126
   0.75000000  0.08377921  0.88529010
   0.25000000  0.91622079  0.11470990
   0.75000000  0.58377921  0.61470990
   0.25000000  0.41622079  0.38529010
Al4C3 anti-CaFe2O4 - r2SCAN H(P) scan @ 
           1
     2.914229    0.000000    0.000000
     0.000000    8.902995    0.000000
     0.000000    0.000000   10.327621
   Al   C 
    16    12
Direct configuration=     8
   0.25000000  0.41689637  0.58267280
   0.75000000  0.58310363  0.41732720
   0.25000000  0.91689637  0.91732720
   0.75000000  0.08310363  0.08267280
   0.25000000  0.48750646  0.20570294
   0.75000000  0.51249354  0.79429706
   0.25000000  0.98750646  0.29429706
   0.75000000  0.01249354  0.70570294
   0.25000000  0.13827589  0.51944629
   0.75000000  0.86172411  0.48055371
   0.25000000  0.63827589  0.98055371
   0.75000000  0.36172411  0.01944629
   0.75000000  0.27510319  0.30427615
   0.25000000  0.72489681  0.69572385
   0.25000000  0.22489681  0.80427615
   0.75000000  0.77510319  0.19572385
   0.75000000  0.74378872  0.86034510
   0.25000000  0.25621128  0.13965490
   0.75000000  0.24378872  0.63965490
   0.25000000  0.75621128  0.36034510
   0.25000000  0.92340672  0.61187338
   0.75000000  0.57659328  0.11187338
   0.25000000  0.42340672  0.88812662
   0.75000000  0.07659328  0.38812662
   0.75000000  0.08377540  0.88521754
   0.25000000  0.91622460  0.11478246
   0.75000000  0.58377540  0.61478246
   0.25000000  0.41622460  0.38521754
Al4C3 anti-CaFe2O4 - r2SCAN H(P) scan @ 
           1
     2.914230    0.000000    0.000000
     0.000000    8.902997    0.000000
     0.000000    0.000000   10.327624
   Al   C 
    16    12
Direct configuration=     9
   0.25000000  0.41689041  0.58267359
   0.75000000  0.58310959  0.41732641
   0.25000000  0.91689041  0.91732641
   0.75000000  0.08310959  0.08267359
   0.25000000  0.48750794  0.20570301
   0.75000000  0.51249206  0.79429699
   0.25000000  0.98750794  0.29429699
   0.75000000  0.01249206  0.70570301
   0.25000000  0.13827033  0.51945146
   0.75000000  0.86172967  0.48054854
   0.25000000  0.63827033  0.98054854
   0.75000000  0.36172967  0.01945146
   0.75000000  0.27510147  0.30427970
   0.25000000  0.72489853  0.69572030
   0.25000000  0.22489853  0.80427970
   0.75000000  0.77510147  0.19572030
   0.75000000  0.74379330  0.86034575
   0.25000000  0.25620670  0.13965425
   0.75000000  0.24379330  0.63965425
   0.25000000  0.75620670  0.36034575
   0.25000000  0.92341129  0.61187422
   0.75000000  0.57658871  0.11187422
   0.25000000  0.42341129  0.88812578
   0.75000000  0.07658871  0.38812578
   0.75000000  0.08377561  0.88522149
   0.25000000  0.91622439  0.11477851
   0.75000000  0.58377561  0.61477851
   0.25000000  0.41622439  0.38522149
Al4C3 anti-CaFe2O4 - r2SCAN H(P) scan @ 
           1
     2.914231    0.000000    0.000000
     0.000000    8.902999    0.000000
     0.000000    0.000000   10.327627
   Al   C 
    16    12
Direct configuration=    10
   0.25000000  0.41688382  0.58267445
   0.75000000  0.58311618  0.41732555
   0.25000000  0.91688382  0.91732555
   0.75000000  0.08311618  0.08267445
   0.25000000  0.48750957  0.20570309
   0.75000000  0.51249043  0.79429691
   0.25000000  0.98750957  0.29429691
   0.75000000  0.01249043  0.70570309
   0.25000000  0.13826419  0.51945717
   0.75000000  0.86173581  0.48054283
   0.25000000  0.63826419  0.98054283
   0.75000000  0.36173581  0.01945717
   0.75000000  0.27509957  0.30428361
   0.25000000  0.72490043  0.69571639
   0.25000000  0.22490043  0.80428361
   0.75000000  0.77509957  0.19571639
   0.75000000  0.74379837  0.86034647
   0.25000000  0.25620163  0.13965353
   0.75000000  0.24379837  0.63965353
   0.25000000  0.75620163  0.36034647
   0.25000000  0.92341634  0.61187514
   0.75000000  0.57658366  0.11187514
   0.25000000  0.42341634  0.88812486
   0.75000000  0.07658366  0.38812486
   0.75000000  0.08377584  0.88522584
   0.25000000  0.91622416  0.11477416
   0.75000000  0.58377584  0.61477416
   0.25000000  0.41622416  0.38522584
Al4C3 anti-CaFe2O4 - r2SCAN H(P) scan @ 
           1
     2.914218    0.000000    0.000000
     0.000000    8.902962    0.000000
     0.000000    0.000000   10.327583
   Al   C 
    16    12
Direct configuration=    11
   0.25000000  0.41690994  0.58265391
   0.75000000  0.58309006  0.41734609
   0.25000000  0.91690994  0.91734609
   0.75000000  0.08309006  0.08265391
   0.25000000  0.48751254  0.20564492
   0.75000000  0.51248746  0.79435508
   0.25000000  0.98751254  0.29435508
   0.75000000  0.01248746  0.70564492
   0.25000000  0.13832364  0.51943201
   0.75000000  0.86167636  0.48056799
   0.25000000  0.63832364  0.98056799
   0.75000000  0.36167636  0.01943201
   0.75000000  0.27510012  0.30423630
   0.25000000  0.72489988  0.69576370
   0.25000000  0.22489988  0.80423630
   0.75000000  0.77510012  0.19576370
   0.75000000  0.74378671  0.86037556
   0.25000000  0.25621329  0.13962444
   0.75000000  0.24378671  0.63962444
   0.25000000  0.75621329  0.36037556
   0.25000000  0.92341037  0.61186062
   0.75000000  0.57658963  0.11186062
   0.25000000  0.42341037  0.88813938
   0.75000000  0.07658963  0.38813938
   0.75000000  0.08377821  0.88521965
   0.25000000  0.91622179  0.11478035
   0.75000000  0.58377821  0.61478035
   0.25000000  0.41622179  0.38521965
