Al4C3 R-3m polymorph (findsym-output, from 0 GPa structure) - relax @ 50 GPa
1.0
        3.3553102016         0.0000000000         0.0000000000
       -1.6776551008         2.9057838722         0.0000000000
        0.0000000000         0.0000000000        25.0843124390
   Al    C
   12    9
Direct
     0.000000000         0.000000000         0.629890025
     0.000000000         0.000000000         0.370109975
     0.666666687         0.333333343         0.963223338
     0.666666687         0.333333343         0.703443289
     0.333333343         0.666666687         0.296556681
     0.333333343         0.666666687         0.036776643
     0.000000000         0.000000000         0.206510007
     0.000000000         0.000000000         0.793489993
     0.666666687         0.333333343         0.539843321
     0.666666687         0.333333343         0.126823321
     0.333333343         0.666666687         0.873176694
     0.333333343         0.666666687         0.460156649
     0.000000000         0.000000000         0.716719985
     0.000000000         0.000000000         0.283280015
     0.666666687         0.333333343         0.050053317
     0.666666687         0.333333343         0.616613328
     0.333333343         0.666666687         0.383386642
     0.333333343         0.666666687         0.949946702
     0.000000000         0.000000000         0.500000000
     0.666666687         0.333333343         0.833333313
     0.333333343         0.666666687         0.166666672
