Al4C3 R-3m - relax @ 50 GPa (ISIF=8)    
           1
     3.355310    0.000000    0.000000
    -1.677655    2.905784    0.000000
     0.000000    0.000000   25.084312
   Al   C 
    12     9
Direct configuration=     1
   0.00000000  0.00000000  0.62989003
   0.00000000  0.00000000  0.37010997
   0.66666669  0.33333334  0.96322334
   0.66666669  0.33333334  0.70344329
   0.33333334  0.66666669  0.29655668
   0.33333334  0.66666669  0.03677664
   0.00000000  0.00000000  0.20651001
   0.00000000  0.00000000  0.79348999
   0.66666669  0.33333334  0.53984332
   0.66666669  0.33333334  0.12682332
   0.33333334  0.66666669  0.87317669
   0.33333334  0.66666669  0.46015665
   0.00000000  0.00000000  0.71671998
   0.00000000  0.00000000  0.28328002
   0.66666669  0.33333334  0.05005332
   0.66666669  0.33333334  0.61661333
   0.33333334  0.66666669  0.38338664
   0.33333334  0.66666669  0.94994670
   0.00000000  0.00000000  0.50000000
   0.66666669  0.33333334  0.83333331
   0.33333334  0.66666669  0.16666667
Al4C3 R-3m - relax @ 50 GPa (ISIF=8)    
           1
     2.766414    0.000000    0.000000
    -1.383207    2.395785    0.000000
     0.000000    0.000000   20.681723
   Al   C 
    12     9
Direct configuration=     2
   0.00000000  0.00000000  0.62989357
   1.00000000  1.00000000  0.37010643
   0.66666669  0.33333334  0.96322688
   0.66666669  0.33333334  0.70343975
   0.33333334  0.66666669  0.29656022
   0.33333334  0.66666669  0.03677310
   1.00000000  1.00000000  0.20651288
   1.00000000  0.00000000  0.79348712
   0.66666669  0.33333334  0.53984619
   0.66666669  0.33333334  0.12682045
   0.33333334  0.66666669  0.87317956
   0.33333334  0.66666669  0.46015378
   0.00000000  0.00000000  0.71672251
   1.00000000  1.00000000  0.28327749
   0.66666669  0.33333334  0.05005584
   0.66666669  0.33333334  0.61661080
   0.33333334  0.66666669  0.38338917
   0.33333334  0.66666669  0.94994418
   1.00000000  0.00000000  0.50000000
   0.66666669  0.33333334  0.83333331
   0.33333334  0.66666669  0.16666667
Al4C3 R-3m - relax @ 50 GPa (ISIF=8)    
           1
     3.155338    0.000000    0.000000
    -1.577669    2.732603    0.000000
     0.000000    0.000000   23.589323
   Al   C 
    12     9
Direct configuration=     3
   0.00000000  0.00000000  0.62989073
   0.00000000  0.00000000  0.37010927
   0.66666669  0.33333334  0.96322404
   0.66666669  0.33333334  0.70344258
   0.33333334  0.66666669  0.29655739
   0.33333334  0.66666669  0.03677594
   0.00000000  0.00000000  0.20651058
   0.00000000  0.00000000  0.79348942
   0.66666669  0.33333334  0.53984389
   0.66666669  0.33333334  0.12682275
   0.33333334  0.66666669  0.87317726
   0.33333334  0.66666669  0.46015608
   0.00000000  0.00000000  0.71672049
   0.00000000  0.00000000  0.28327951
   0.66666669  0.33333334  0.05005382
   0.66666669  0.33333334  0.61661283
   0.33333334  0.66666669  0.38338714
   0.33333334  0.66666669  0.94994620
   0.00000000  0.00000000  0.50000000
   0.66666669  0.33333334  0.83333331
   0.33333334  0.66666669  0.16666667
Al4C3 R-3m - relax @ 50 GPa (ISIF=8)    
           1
     3.136378    0.000000    0.000000
    -1.568189    2.716183    0.000000
     0.000000    0.000000   23.447575
   Al   C 
    12     9
Direct configuration=     4
   0.00000000  0.00000000  0.62989085
   1.00000000  1.00000000  0.37010915
   0.66666669  0.33333334  0.96322416
   0.66666669  0.33333334  0.70344246
   0.33333334  0.66666669  0.29655751
   0.33333334  0.66666669  0.03677582
   1.00000000  1.00000000  0.20651068
   1.00000000  0.00000000  0.79348932
   0.66666669  0.33333334  0.53984399
   0.66666669  0.33333334  0.12682265
   0.33333334  0.66666669  0.87317736
   0.33333334  0.66666669  0.46015598
   0.00000000  0.00000000  0.71672057
   1.00000000  1.00000000  0.28327943
   0.66666669  0.33333334  0.05005391
   0.66666669  0.33333334  0.61661274
   0.33333334  0.66666669  0.38338723
   0.33333334  0.66666669  0.94994611
   1.00000000  0.00000000  0.50000000
   0.66666669  0.33333334  0.83333331
   0.33333334  0.66666669  0.16666667
Al4C3 R-3m - relax @ 50 GPa (ISIF=8)    
           1
     3.129718    0.000000    0.000000
    -1.564859    2.710416    0.000000
     0.000000    0.000000   23.397788
   Al   C 
    12     9
Direct configuration=     5
   0.00000000  0.00000000  0.62989089
   0.00000000  0.00000000  0.37010911
   0.66666669  0.33333334  0.96322421
   0.66666669  0.33333334  0.70344242
   0.33333334  0.66666669  0.29655755
   0.33333334  0.66666669  0.03677577
   0.00000000  0.00000000  0.20651071
   0.00000000  0.00000000  0.79348929
   0.66666669  0.33333334  0.53984402
   0.66666669  0.33333334  0.12682262
   0.33333334  0.66666669  0.87317740
   0.33333334  0.66666669  0.46015595
   0.00000000  0.00000000  0.71672060
   0.00000000  0.00000000  0.28327940
   0.66666669  0.33333334  0.05005394
   0.66666669  0.33333334  0.61661271
   0.33333334  0.66666669  0.38338726
   0.33333334  0.66666669  0.94994608
   0.00000000  0.00000000  0.50000000
   0.66666669  0.33333334  0.83333331
   0.33333334  0.66666669  0.16666667
Al4C3 R-3m - relax @ 50 GPa (ISIF=8)    
           1
     3.128412    0.000000    0.000000
    -1.564206    2.709284    0.000000
     0.000000    0.000000   23.388020
   Al   C 
    12     9
Direct configuration=     6
   0.00000000  0.00000000  0.62956864
   0.00000000  1.00000000  0.37043136
   0.66666669  0.33333334  0.96290195
   0.66666669  0.33333334  0.70376468
   0.33333334  0.66666669  0.29623529
   0.33333334  0.66666669  0.03709803
   0.00000000  1.00000000  0.20557217
   1.00000000  1.00000000  0.79442783
   0.66666669  0.33333334  0.53890548
   0.66666669  0.33333334  0.12776116
   0.33333334  0.66666669  0.87223886
   0.33333334  0.66666669  0.46109449
   0.00000000  0.00000000  0.71622834
   1.00000000  1.00000000  0.28377166
   0.66666669  0.33333334  0.04956167
   0.66666669  0.33333334  0.61710498
   0.33333334  0.66666669  0.38289499
   0.33333334  0.66666669  0.95043835
   1.00000000  0.00000000  0.50000000
   0.66666669  0.33333334  0.83333331
   0.33333334  0.66666669  0.16666667
Al4C3 R-3m - relax @ 50 GPa (ISIF=8)    
           1
     3.129236    0.000000    0.000000
    -1.564618    2.709998    0.000000
     0.000000    0.000000   23.394180
   Al   C 
    12     9
Direct configuration=     7
   0.00000000  0.00000000  0.62977195
   0.00000000  0.00000000  0.37022805
   0.66666669  0.33333334  0.96310526
   0.66666669  0.33333334  0.70356136
   0.33333334  0.66666669  0.29643861
   0.33333334  0.66666669  0.03689472
   0.00000000  0.00000000  0.20616430
   0.00000000  0.00000000  0.79383570
   0.66666669  0.33333334  0.53949761
   0.66666669  0.33333334  0.12716903
   0.33333334  0.66666669  0.87283098
   0.33333334  0.66666669  0.46050236
   0.00000000  0.00000000  0.71653891
   0.00000000  0.00000000  0.28346109
   0.66666669  0.33333334  0.04987224
   0.66666669  0.33333334  0.61679440
   0.33333334  0.66666669  0.38320557
   0.33333334  0.66666669  0.95012778
   0.00000000  0.00000000  0.50000000
   0.66666669  0.33333334  0.83333331
   0.33333334  0.66666669  0.16666667
Al4C3 R-3m - relax @ 50 GPa (ISIF=8)    
           1
     3.129312    0.000000    0.000000
    -1.564656    2.710064    0.000000
     0.000000    0.000000   23.394753
   Al   C 
    12     9
Direct configuration=     8
   1.00000000  0.00000000  0.62954603
   0.00000000  1.00000000  0.37045397
   0.66666669  0.33333334  0.96287934
   0.66666669  0.33333334  0.70378728
   0.33333334  0.66666669  0.29621269
   0.33333334  0.66666669  0.03712064
   0.00000000  0.00000000  0.20609520
   0.00000000  0.00000000  0.79390480
   0.66666669  0.33333334  0.53942851
   0.66666669  0.33333334  0.12723813
   0.33333334  0.66666669  0.87276188
   0.33333334  0.66666669  0.46057146
   1.00000000  0.00000000  0.71666364
   0.00000000  0.00000000  0.28333636
   0.66666669  0.33333334  0.04999697
   0.66666669  0.33333334  0.61666967
   0.33333334  0.66666669  0.38333030
   0.33333334  0.66666669  0.95000305
   1.00000000  0.00000000  0.50000000
   0.66666669  0.33333334  0.83333331
   0.33333334  0.66666669  0.16666667
Al4C3 R-3m - relax @ 50 GPa (ISIF=8)    
           1
     3.129326    0.000000    0.000000
    -1.564663    2.710076    0.000000
     0.000000    0.000000   23.394856
   Al   C 
    12     9
Direct configuration=     9
   0.00000000  0.00000000  0.62950503
   0.00000000  0.00000000  0.37049497
   0.66666669  0.33333334  0.96283834
   0.66666669  0.33333334  0.70382828
   0.33333334  0.66666669  0.29617169
   0.33333334  0.66666669  0.03716164
   0.00000000  0.00000000  0.20608266
   0.00000000  0.00000000  0.79391734
   0.66666669  0.33333334  0.53941597
   0.66666669  0.33333334  0.12725067
   0.33333334  0.66666669  0.87274934
   0.33333334  0.66666669  0.46058400
   0.00000000  0.00000000  0.71668628
   0.00000000  0.00000000  0.28331372
   0.66666669  0.33333334  0.05001961
   0.66666669  0.33333334  0.61664704
   0.33333334  0.66666669  0.38335293
   0.33333334  0.66666669  0.94998041
   0.00000000  0.00000000  0.50000000
   0.66666669  0.33333334  0.83333331
   0.33333334  0.66666669  0.16666667
