Al4C3 Pnma (POSCAR.IV, symmetrized via s
   1.00000000000000     
     8.1867135314700672    0.0000000000000000    0.0000000000000000
     0.0000000000000000    2.8242673923087938    0.0000000000000000
     0.0000000000000000    0.0000000000000000    9.7316970358538377
   Al   C 
    16    12
Direct
  0.2634564275976405  0.2500000000000000  0.2977834689226892
  0.2365435724023594  0.7500000000000000  0.7977834689226891
  0.7365435724023595  0.7500000000000000  0.7022165310773109
  0.7634564275976405  0.2500000000000000  0.2022165310773108
  0.3463681614413618  0.2500000000000000  0.0112217493897060
  0.1536318385586382  0.7500000000000000  0.5112217493897060
  0.6536318385586380  0.7500000000000000  0.9887782506102940
  0.8463681614413620  0.2500000000000000  0.4887782506102941
  0.5219441764136296  0.2500000000000000  0.7938833356172329
  0.9780558235863704  0.7500000000000000  0.2938833356172329
  0.4780558235863706  0.7500000000000000  0.2061166643827672
  0.0219441764136294  0.2500000000000000  0.7061166643827671
  0.0686661137960968  0.2500000000000000  0.0899955714454750
  0.4313338862039102  0.7500000000000000  0.5899955714454749
  0.9313338862039031  0.7500000000000000  0.9100044285545251
  0.5686661137960969  0.2500000000000000  0.4100044285545250
  0.2591484931679651  0.2500000000000000  0.6422344793426752
  0.2408515068320348  0.7500000000000000  0.1422344793426753
  0.7408515068320348  0.7500000000000000  0.3577655206573248
  0.7591484931679652  0.2500000000000000  0.8577655206573248
  0.6045621033578724  0.2500000000000000  0.6077708783414498
  0.8954378966421276  0.7500000000000000  0.1077708783414500
  0.3954378966421275  0.7500000000000000  0.3922291216585499
  0.1045621033578724  0.2500000000000000  0.8922291216585502
  0.0643338260119062  0.2500000000000000  0.3889509411138342
  0.4356661739880938  0.7500000000000000  0.8889509411138340
  0.9356661739880938  0.7500000000000000  0.6110490588861660
  0.5643338260119062  0.2500000000000000  0.1110490588861658
 
  0.00000000E+00  0.00000000E+00  0.00000000E+00
  0.00000000E+00  0.00000000E+00  0.00000000E+00
  0.00000000E+00  0.00000000E+00  0.00000000E+00
  0.00000000E+00  0.00000000E+00  0.00000000E+00
  0.00000000E+00  0.00000000E+00  0.00000000E+00
  0.00000000E+00  0.00000000E+00  0.00000000E+00
  0.00000000E+00  0.00000000E+00  0.00000000E+00
  0.00000000E+00  0.00000000E+00  0.00000000E+00
  0.00000000E+00  0.00000000E+00  0.00000000E+00
  0.00000000E+00  0.00000000E+00  0.00000000E+00
  0.00000000E+00  0.00000000E+00  0.00000000E+00
  0.00000000E+00  0.00000000E+00  0.00000000E+00
  0.00000000E+00  0.00000000E+00  0.00000000E+00
  0.00000000E+00  0.00000000E+00  0.00000000E+00
  0.00000000E+00  0.00000000E+00  0.00000000E+00
  0.00000000E+00  0.00000000E+00  0.00000000E+00
  0.00000000E+00  0.00000000E+00  0.00000000E+00
  0.00000000E+00  0.00000000E+00  0.00000000E+00
  0.00000000E+00  0.00000000E+00  0.00000000E+00
  0.00000000E+00  0.00000000E+00  0.00000000E+00
  0.00000000E+00  0.00000000E+00  0.00000000E+00
  0.00000000E+00  0.00000000E+00  0.00000000E+00
  0.00000000E+00  0.00000000E+00  0.00000000E+00
  0.00000000E+00  0.00000000E+00  0.00000000E+00
  0.00000000E+00  0.00000000E+00  0.00000000E+00
  0.00000000E+00  0.00000000E+00  0.00000000E+00
  0.00000000E+00  0.00000000E+00  0.00000000E+00
  0.00000000E+00  0.00000000E+00  0.00000000E+00
