       N       E                     dE             d eps       ncg     rms          rms(c)
DAV:   1    -0.225536970257E+03   -0.22554E+03   -0.45442E+02  9750   0.449E+01    0.126E+01
DAV:   2    -0.217635235086E+03    0.79017E+01   -0.72142E+01  9846   0.174E+01    0.505E+00
DAV:   3    -0.218135728733E+03   -0.50049E+00   -0.24033E+00  9948   0.369E+00    0.352E+00
DAV:   4    -0.218144430610E+03   -0.87019E-02   -0.19914E-01  9804   0.146E+00    0.132E+00
DAV:   5    -0.218147782751E+03   -0.33521E-02   -0.61274E-03  9996   0.328E-01    0.538E-01
DAV:   6    -0.218147064428E+03    0.71832E-03   -0.31380E-03  9846   0.192E-01    0.106E-01
DAV:   7    -0.218147146592E+03   -0.82164E-04   -0.19386E-04 10026   0.536E-02    0.828E-02
DAV:   8    -0.218147192032E+03   -0.45440E-04   -0.16157E-05  6312   0.198E-02    0.335E-02
DAV:   9    -0.218147187136E+03    0.48959E-05   -0.43586E-05  8886   0.247E-02
   1 F= -.13304002E+03 E0= -.13304002E+03  d E =-.133040E+03
       N       E                     dE             d eps       ncg     rms          rms(c)
DAV:   1    -0.215471281182E+03    0.26759E+01   -0.31530E+00  9054   0.760E+00    0.163E+00
DAV:   2    -0.215446697464E+03    0.24584E-01   -0.14529E-01 10056   0.135E+00    0.919E-01
DAV:   3    -0.215445851603E+03    0.84586E-03   -0.22274E-02  9528   0.466E-01    0.355E-01
DAV:   4    -0.215446210412E+03   -0.35881E-03   -0.69227E-04 10164   0.109E-01    0.183E-01
DAV:   5    -0.215446219685E+03   -0.92722E-05   -0.21188E-04  9546   0.540E-02    0.131E-01
DAV:   6    -0.215446249421E+03   -0.29737E-04   -0.69758E-05  9336   0.461E-02    0.290E-02
DAV:   7    -0.215446257831E+03   -0.84097E-05   -0.72779E-06  5148   0.108E-02
   2 F= -.13294143E+03 E0= -.13294143E+03  d E =0.985939E-01
       N       E                     dE             d eps       ncg     rms          rms(c)
DAV:   1    -0.217316235755E+03   -0.18700E+01   -0.13815E+00  9000   0.496E+00    0.109E+00
DAV:   2    -0.217307789823E+03    0.84459E-02   -0.65900E-02 10056   0.907E-01    0.612E-01
DAV:   3    -0.217307787468E+03    0.23555E-05   -0.99835E-03  9576   0.310E-01    0.239E-01
DAV:   4    -0.217308031959E+03   -0.24449E-03   -0.31066E-04 10140   0.734E-02    0.122E-01
DAV:   5    -0.217308030683E+03    0.12761E-05   -0.98484E-05  9402   0.368E-02
   3 F= -.13307246E+03 E0= -.13307246E+03  d E =-.324419E-01
       N       E                     dE             d eps       ncg     rms          rms(c)
DAV:   1    -0.217293036828E+03    0.14995E-01   -0.11356E-04  9240   0.457E-02    0.241E-02
DAV:   2    -0.217293027316E+03    0.95124E-05   -0.86383E-06  5046   0.109E-02
   4 F= -.13307247E+03 E0= -.13307247E+03  d E =-.324452E-01
       N       E                     dE             d eps       ncg     rms          rms(c)
DAV:   1    -0.217295105574E+03   -0.20687E-02   -0.71685E-06  4956   0.101E-02    0.101E-02
DAV:   2    -0.217295103832E+03    0.17425E-05   -0.51262E-07  4848   0.311E-03
   5 F= -.13307246E+03 E0= -.13307246E+03  d E =-.324390E-01
       N       E                     dE             d eps       ncg     rms          rms(c)
DAV:   1    -0.217307438494E+03   -0.12333E-01   -0.12651E-01  8358   0.145E+00    0.737E-02
DAV:   2    -0.217307466265E+03   -0.27771E-04   -0.28797E-03  9972   0.215E-01    0.531E-02
DAV:   3    -0.217307433277E+03    0.32988E-04   -0.14899E-04  9786   0.520E-02    0.336E-02
DAV:   4    -0.217307417882E+03    0.15394E-04   -0.72476E-05  9456   0.336E-02    0.131E-02
DAV:   5    -0.217307414058E+03    0.38240E-05   -0.12455E-05  5544   0.139E-02
   6 F= -.13307376E+03 E0= -.13307376E+03  d E =-.130296E-02
       N       E                     dE             d eps       ncg     rms          rms(c)
DAV:   1    -0.217308815850E+03   -0.13980E-02   -0.19777E-03  8634   0.182E-01    0.991E-03
DAV:   2    -0.217308819025E+03   -0.31744E-05   -0.43217E-05  9084   0.267E-02
   7 F= -.13307378E+03 E0= -.13307378E+03  d E =-.132146E-02
       N       E                     dE             d eps       ncg     rms          rms(c)
DAV:   1    -0.217335202048E+03   -0.26386E-01   -0.12961E-01  8364   0.148E+00    0.670E-02
DAV:   2    -0.217335234318E+03   -0.32270E-04   -0.17670E-03 10212   0.170E-01    0.443E-02
DAV:   3    -0.217335201581E+03    0.32738E-04   -0.91465E-05  9882   0.393E-02    0.293E-02
DAV:   4    -0.217335185701E+03    0.15880E-04   -0.99540E-05  9642   0.390E-02    0.757E-03
DAV:   5    -0.217335188395E+03   -0.26946E-05   -0.20988E-05  5856   0.154E-02
   8 F= -.13307433E+03 E0= -.13307433E+03  d E =-.546530E-03
       N       E                     dE             d eps       ncg     rms          rms(c)
DAV:   1    -0.217331671842E+03    0.35139E-02   -0.24128E-03  8412   0.203E-01    0.934E-03
DAV:   2    -0.217331667913E+03    0.39293E-05   -0.29659E-05  8112   0.225E-02
   9 F= -.13307434E+03 E0= -.13307434E+03  d E =-.561699E-03
       N       E                     dE             d eps       ncg     rms          rms(c)
DAV:   1    -0.217328610856E+03    0.30610E-02   -0.58885E-02  8376   0.990E-01    0.417E-02
DAV:   2    -0.217328622052E+03   -0.11196E-04   -0.88514E-04  9756   0.118E-01    0.297E-02
DAV:   3    -0.217328605258E+03    0.16794E-04   -0.32554E-05  8400   0.248E-02    0.193E-02
DAV:   4    -0.217328592996E+03    0.12263E-04   -0.31788E-05  7404   0.228E-02    0.556E-03
DAV:   5    -0.217328592896E+03    0.99877E-07   -0.80032E-06  4872   0.100E-02
  10 F= -.13307471E+03 E0= -.13307471E+03  d E =-.368794E-03
       N       E                     dE             d eps       ncg     rms          rms(c)
DAV:   1    -0.217327673048E+03    0.91995E-03   -0.43972E-03  8436   0.271E-01    0.121E-02
DAV:   2    -0.217327672219E+03    0.82851E-06   -0.65959E-05  9822   0.324E-02
  11 F= -.13307473E+03 E0= -.13307473E+03  d E =-.389295E-03
       N       E                     dE             d eps       ncg     rms          rms(c)
DAV:   1    -0.217336247422E+03   -0.85744E-02   -0.17250E-02  8388   0.543E-01    0.280E-02
DAV:   2    -0.217336257616E+03   -0.10194E-04   -0.30613E-04 10320   0.670E-02    0.181E-02
DAV:   3    -0.217336254141E+03    0.34751E-05   -0.98368E-06  5814   0.140E-02
  12 F= -.13307496E+03 E0= -.13307496E+03  d E =-.230568E-03
       N       E                     dE             d eps       ncg     rms          rms(c)
DAV:   1    -0.217341746986E+03   -0.54894E-02   -0.71469E-03  8448   0.350E-01    0.186E-02
DAV:   2    -0.217341750938E+03   -0.39523E-05   -0.10781E-04 10380   0.402E-02    0.122E-02
DAV:   3    -0.217341750324E+03    0.61349E-06   -0.41373E-06  5178   0.895E-03
  13 F= -.13307500E+03 E0= -.13307500E+03  d E =-.268942E-03
       N       E                     dE             d eps       ncg     rms          rms(c)
DAV:   1    -0.217332943189E+03    0.88077E-02   -0.22819E-02  8388   0.622E-01    0.310E-02
DAV:   2    -0.217332946536E+03   -0.33478E-05   -0.37448E-04 10074   0.784E-02    0.208E-02
DAV:   3    -0.217332939226E+03    0.73108E-05   -0.20406E-05  7110   0.195E-02
  14 F= -.13307513E+03 E0= -.13307513E+03  d E =-.128197E-03
       N       E                     dE             d eps       ncg     rms          rms(c)
DAV:   1    -0.217331451704E+03    0.14948E-02   -0.57190E-04  8808   0.984E-02    0.834E-03
DAV:   2    -0.217331451302E+03    0.40287E-06   -0.54794E-06  6438   0.104E-02
  15 F= -.13307513E+03 E0= -.13307513E+03  d E =-.125852E-03
       N       E                     dE             d eps       ncg     rms          rms(c)
DAV:   1    -0.217354146254E+03   -0.22695E-01   -0.16287E-02  8382   0.525E-01    0.288E-02
DAV:   2    -0.217354156459E+03   -0.10204E-04   -0.31526E-04 10278   0.702E-02    0.199E-02
DAV:   3    -0.217354148924E+03    0.75344E-05   -0.11180E-05  5802   0.156E-02
  16 F= -.13307516E+03 E0= -.13307516E+03  d E =-.369799E-04
       N       E                     dE             d eps       ncg     rms          rms(c)
DAV:   1    -0.217346906693E+03    0.72498E-02   -0.18430E-03  8406   0.177E-01    0.865E-03
DAV:   2    -0.217346911084E+03   -0.43914E-05   -0.53219E-05  9858   0.285E-02
  17 F= -.13307518E+03 E0= -.13307518E+03  d E =-.511611E-04
       N       E                     dE             d eps       ncg     rms          rms(c)
DAV:   1    -0.217339716009E+03    0.71907E-02   -0.52549E-03  8382   0.298E-01    0.131E-02
DAV:   2    -0.217339715765E+03    0.24365E-06   -0.64314E-05  9936   0.311E-02
  18 F= -.13307521E+03 E0= -.13307521E+03  d E =-.358792E-04
