Al4C3 Pnma - r2SCAN H(P) scan @ 60 GPa (
           1
     8.213913    0.000000    0.000000
     0.000000    2.833651    0.000000
     0.000000    0.000000    9.764029
   Al   C 
    16    12
Direct configuration=     1
   0.26239905  0.25000000  0.29777386
   0.23760095  0.75000000  0.79777386
   0.73760095  0.75000000  0.70222614
   0.76239905  0.25000000  0.20222614
   0.34577010  0.25000000  0.01104973
   0.15422990  0.75000000  0.51104973
   0.65422990  0.75000000  0.98895027
   0.84577010  0.25000000  0.48895027
   0.52254174  0.25000000  0.79400115
   0.97745826  0.75000000  0.29400115
   0.47745826  0.75000000  0.20599885
   0.02254174  0.25000000  0.70599885
   0.06799080  0.25000000  0.08997590
   0.43200920  0.75000000  0.58997590
   0.93200920  0.75000000  0.91002410
   0.56799080  0.25000000  0.41002410
   0.26025942  0.25000000  0.64218022
   0.23974058  0.75000000  0.14218022
   0.73974058  0.75000000  0.35781978
   0.76025942  0.25000000  0.85781978
   0.60561121  0.25000000  0.60763922
   0.89438879  0.75000000  0.10763922
   0.39438879  0.75000000  0.39236078
   0.10561121  0.25000000  0.89236078
   0.06360625  0.25000000  0.38952713
   0.43639375  0.75000000  0.88952713
   0.93639375  0.75000000  0.61047287
   0.56360625  0.25000000  0.11047287
Al4C3 Pnma - r2SCAN H(P) scan @ 60 GPa (
           1
     8.129325    0.000000    0.000000
     0.000000    2.804469    0.000000
     0.000000    0.000000    9.663479
   Al   C 
    16    12
Direct configuration=     2
   0.26248397  0.25000000  0.29771083
   0.23751603  0.75000000  0.79771083
   0.73751603  0.75000000  0.70228917
   0.76248397  0.25000000  0.20228917
   0.34600582  0.25000000  0.01110904
   0.15399418  0.75000000  0.51110904
   0.65399418  0.75000000  0.98889096
   0.84600582  0.25000000  0.48889096
   0.52267181  0.25000000  0.79420612
   0.97732819  0.75000000  0.29420612
   0.47732819  0.75000000  0.20579388
   0.02267181  0.25000000  0.70579388
   0.06802976  0.25000000  0.09005606
   0.43197024  0.75000000  0.59005606
   0.93197024  0.75000000  0.90994394
   0.56802976  0.25000000  0.40994394
   0.25977477  0.25000000  0.64240995
   0.24022523  0.75000000  0.14240995
   0.74022523  0.75000000  0.35759005
   0.75977477  0.25000000  0.85759005
   0.60508111  0.25000000  0.60787668
   0.89491889  0.75000000  0.10787668
   0.39491889  0.75000000  0.39212332
   0.10508111  0.25000000  0.89212332
   0.06371496  0.25000000  0.38873305
   0.43628504  0.75000000  0.88873305
   0.93628504  0.75000000  0.61126695
   0.56371496  0.25000000  0.11126695
Al4C3 Pnma - r2SCAN H(P) scan @ 60 GPa (
           1
     8.185776    0.000000    0.000000
     0.000000    2.823944    0.000000
     0.000000    0.000000    9.730583
   Al   C 
    16    12
Direct configuration=     3
   0.26242671  0.25000000  0.29775333
   0.23757329  0.75000000  0.79775333
   0.73757329  0.75000000  0.70224667
   0.76242671  0.25000000  0.20224667
   0.34584687  0.25000000  0.01106905
   0.15415313  0.75000000  0.51106905
   0.65415313  0.75000000  0.98893095
   0.84584687  0.25000000  0.48893095
   0.52258410  0.25000000  0.79406790
   0.97741590  0.75000000  0.29406790
   0.47741590  0.75000000  0.20593210
   0.02258410  0.25000000  0.70593210
   0.06800349  0.25000000  0.09000201
   0.43199651  0.75000000  0.59000201
   0.93199651  0.75000000  0.90999799
   0.56800349  0.25000000  0.40999799
   0.26010158  0.25000000  0.64225504
   0.23989842  0.75000000  0.14225504
   0.73989842  0.75000000  0.35774496
   0.76010158  0.25000000  0.85774496
   0.60543856  0.25000000  0.60771656
   0.89456144  0.75000000  0.10771656
   0.39456144  0.75000000  0.39228344
   0.10543856  0.25000000  0.89228344
   0.06364166  0.25000000  0.38926851
   0.43635834  0.75000000  0.88926851
   0.93635834  0.75000000  0.61073149
   0.56364166  0.25000000  0.11073149
Al4C3 Pnma - r2SCAN H(P) scan @ 60 GPa (
           1
     8.185290    0.000000    0.000000
     0.000000    2.823776    0.000000
     0.000000    0.000000    9.730005
   Al   C 
    16    12
Direct configuration=     4
   0.26242720  0.25000000  0.29775297
   0.23757280  0.75000000  0.79775297
   0.73757280  0.75000000  0.70224703
   0.76242720  0.25000000  0.20224703
   0.34584823  0.25000000  0.01106939
   0.15415177  0.75000000  0.51106939
   0.65415177  0.75000000  0.98893061
   0.84584823  0.25000000  0.48893061
   0.52258485  0.25000000  0.79406909
   0.97741515  0.75000000  0.29406909
   0.47741515  0.75000000  0.20593091
   0.02258485  0.25000000  0.70593091
   0.06800372  0.25000000  0.09000247
   0.43199628  0.75000000  0.59000247
   0.93199628  0.75000000  0.90999753
   0.56800372  0.25000000  0.40999753
   0.26009878  0.25000000  0.64225636
   0.23990122  0.75000000  0.14225636
   0.73990122  0.75000000  0.35774364
   0.76009878  0.25000000  0.85774364
   0.60543551  0.25000000  0.60771793
   0.89456449  0.75000000  0.10771793
   0.39456449  0.75000000  0.39228207
   0.10543551  0.25000000  0.89228207
   0.06364228  0.25000000  0.38926393
   0.43635772  0.75000000  0.88926393
   0.93635772  0.75000000  0.61073607
   0.56364228  0.25000000  0.11073607
Al4C3 Pnma - r2SCAN H(P) scan @ 60 GPa (
           1
     8.185358    0.000000    0.000000
     0.000000    2.823800    0.000000
     0.000000    0.000000    9.730085
   Al   C 
    16    12
Direct configuration=     5
   0.26242713  0.25000000  0.29775302
   0.23757287  0.75000000  0.79775302
   0.73757287  0.75000000  0.70224698
   0.76242713  0.25000000  0.20224698
   0.34584804  0.25000000  0.01106934
   0.15415196  0.75000000  0.51106934
   0.65415196  0.75000000  0.98893066
   0.84584804  0.25000000  0.48893066
   0.52258474  0.25000000  0.79406892
   0.97741526  0.75000000  0.29406892
   0.47741526  0.75000000  0.20593108
   0.02258474  0.25000000  0.70593108
   0.06800368  0.25000000  0.09000240
   0.43199632  0.75000000  0.59000240
   0.93199632  0.75000000  0.90999760
   0.56800368  0.25000000  0.40999760
   0.26009917  0.25000000  0.64225618
   0.23990083  0.75000000  0.14225618
   0.73990083  0.75000000  0.35774382
   0.76009917  0.25000000  0.85774382
   0.60543593  0.25000000  0.60771774
   0.89456407  0.75000000  0.10771774
   0.39456407  0.75000000  0.39228226
   0.10543593  0.25000000  0.89228226
   0.06364220  0.25000000  0.38926457
   0.43635780  0.75000000  0.88926457
   0.93635780  0.75000000  0.61073543
   0.56364220  0.25000000  0.11073543
Al4C3 Pnma - r2SCAN H(P) scan @ 60 GPa (
           1
     8.185714    0.000000    0.000000
     0.000000    2.823923    0.000000
     0.000000    0.000000    9.730509
   Al   C 
    16    12
Direct configuration=     6
   0.26272325  0.25000000  0.29762301
   0.23727675  0.75000000  0.79762301
   0.73727675  0.75000000  0.70237699
   0.76272325  0.25000000  0.20237699
   0.34586103  0.25000000  0.01108812
   0.15413897  0.75000000  0.51108812
   0.65413897  0.75000000  0.98891188
   0.84586103  0.25000000  0.48891188
   0.52270423  0.25000000  0.79397244
   0.97729577  0.75000000  0.29397244
   0.47729577  0.75000000  0.20602756
   0.02270423  0.25000000  0.70602756
   0.06806230  0.25000000  0.09016793
   0.43193770  0.75000000  0.59016793
   0.93193770  0.75000000  0.90983207
   0.56806230  0.25000000  0.40983207
   0.25984882  0.25000000  0.64231511
   0.24015118  0.75000000  0.14231511
   0.74015118  0.75000000  0.35768489
   0.75984882  0.25000000  0.85768489
   0.60523052  0.25000000  0.60772425
   0.89476948  0.75000000  0.10772425
   0.39476948  0.75000000  0.39227575
   0.10523052  0.25000000  0.89227575
   0.06371975  0.25000000  0.38904711
   0.43628025  0.75000000  0.88904711
   0.93628025  0.75000000  0.61095289
   0.56371975  0.25000000  0.11095289
Al4C3 Pnma - r2SCAN H(P) scan @ 60 GPa (
           1
     8.185759    0.000000    0.000000
     0.000000    2.823938    0.000000
     0.000000    0.000000    9.730563
   Al   C 
    16    12
Direct configuration=     7
   0.26276054  0.25000000  0.29760664
   0.23723946  0.75000000  0.79760664
   0.73723946  0.75000000  0.70239336
   0.76276054  0.25000000  0.20239336
   0.34586267  0.25000000  0.01109048
   0.15413733  0.75000000  0.51109048
   0.65413733  0.75000000  0.98890952
   0.84586267  0.25000000  0.48890952
   0.52271928  0.25000000  0.79396029
   0.97728072  0.75000000  0.29396029
   0.47728072  0.75000000  0.20603971
   0.02271928  0.25000000  0.70603971
   0.06806968  0.25000000  0.09018878
   0.43193032  0.75000000  0.59018878
   0.93193032  0.75000000  0.90981122
   0.56806968  0.25000000  0.40981122
   0.25981729  0.25000000  0.64232254
   0.24018271  0.75000000  0.14232254
   0.74018271  0.75000000  0.35767746
   0.75981729  0.25000000  0.85767746
   0.60520465  0.25000000  0.60772507
   0.89479535  0.75000000  0.10772507
   0.39479535  0.75000000  0.39227493
   0.10520465  0.25000000  0.89227493
   0.06372952  0.25000000  0.38901972
   0.43627048  0.75000000  0.88901972
   0.93627048  0.75000000  0.61098028
   0.56372952  0.25000000  0.11098028
Al4C3 Pnma - r2SCAN H(P) scan @ 60 GPa (
           1
     8.186596    0.000000    0.000000
     0.000000    2.824227    0.000000
     0.000000    0.000000    9.731557
   Al   C 
    16    12
Direct configuration=     8
   0.26287420  0.25000000  0.29763231
   0.23712580  0.75000000  0.79763231
   0.73712580  0.75000000  0.70236769
   0.76287420  0.25000000  0.20236769
   0.34598989  0.25000000  0.01099053
   0.15401011  0.75000000  0.51099053
   0.65401011  0.75000000  0.98900947
   0.84598989  0.25000000  0.48900947
   0.52260474  0.25000000  0.79404288
   0.97739526  0.75000000  0.29404288
   0.47739526  0.75000000  0.20595712
   0.02260474  0.25000000  0.70595712
   0.06819109  0.25000000  0.09022839
   0.43180891  0.75000000  0.59022839
   0.93180891  0.75000000  0.90977161
   0.56819109  0.25000000  0.40977161
   0.25957722  0.25000000  0.64227947
   0.24042278  0.75000000  0.14227947
   0.74042278  0.75000000  0.35772053
   0.75957722  0.25000000  0.85772053
   0.60502899  0.25000000  0.60760715
   0.89497101  0.75000000  0.10760715
   0.39497101  0.75000000  0.39239285
   0.10502899  0.25000000  0.89239285
   0.06391480  0.25000000  0.38881446
   0.43608520  0.75000000  0.88881446
   0.93608520  0.75000000  0.61118554
   0.56391480  0.25000000  0.11118554
Al4C3 Pnma - r2SCAN H(P) scan @ 60 GPa (
           1
     8.186481    0.000000    0.000000
     0.000000    2.824187    0.000000
     0.000000    0.000000    9.731421
   Al   C 
    16    12
Direct configuration=     9
   0.26285864  0.25000000  0.29762879
   0.23714136  0.75000000  0.79762879
   0.73714136  0.75000000  0.70237121
   0.76285864  0.25000000  0.20237121
   0.34597248  0.25000000  0.01100422
   0.15402752  0.75000000  0.51100422
   0.65402752  0.75000000  0.98899578
   0.84597248  0.25000000  0.48899578
   0.52262042  0.25000000  0.79403158
   0.97737958  0.75000000  0.29403158
   0.47737958  0.75000000  0.20596842
   0.02262042  0.25000000  0.70596842
   0.06817447  0.25000000  0.09022297
   0.43182553  0.75000000  0.59022297
   0.93182553  0.75000000  0.90977703
   0.56817447  0.25000000  0.40977703
   0.25961009  0.25000000  0.64228537
   0.24038991  0.75000000  0.14228537
   0.74038991  0.75000000  0.35771463
   0.75961009  0.25000000  0.85771463
   0.60505304  0.25000000  0.60762329
   0.89494696  0.75000000  0.10762329
   0.39494696  0.75000000  0.39237671
   0.10505304  0.25000000  0.89237671
   0.06388943  0.25000000  0.38884256
   0.43611057  0.75000000  0.88884256
   0.93611057  0.75000000  0.61115744
   0.56388943  0.25000000  0.11115744
Al4C3 Pnma - r2SCAN H(P) scan @ 60 GPa (
           1
     8.186370    0.000000    0.000000
     0.000000    2.824149    0.000000
     0.000000    0.000000    9.731288
   Al   C 
    16    12
Direct configuration=    10
   0.26308296  0.25000000  0.29769604
   0.23691704  0.75000000  0.79769604
   0.73691704  0.75000000  0.70230396
   0.76308296  0.25000000  0.20230396
   0.34607270  0.25000000  0.01093038
   0.15392730  0.75000000  0.51093038
   0.65392730  0.75000000  0.98906962
   0.84607270  0.25000000  0.48906962
   0.52255096  0.25000000  0.79400581
   0.97744904  0.75000000  0.29400581
   0.47744904  0.75000000  0.20599419
   0.02255096  0.25000000  0.70599419
   0.06831885  0.25000000  0.09015944
   0.43168115  0.75000000  0.59015944
   0.93168115  0.75000000  0.90984056
   0.56831885  0.25000000  0.40984056
   0.25939021  0.25000000  0.64220112
   0.24060979  0.75000000  0.14220112
   0.74060979  0.75000000  0.35779888
   0.75939021  0.25000000  0.85779888
   0.60494928  0.25000000  0.60762853
   0.89505072  0.75000000  0.10762853
   0.39505072  0.75000000  0.39237147
   0.10494928  0.25000000  0.89237147
   0.06403377  0.25000000  0.38886095
   0.43596623  0.75000000  0.88886095
   0.93596623  0.75000000  0.61113905
   0.56403377  0.25000000  0.11113905
Al4C3 Pnma - r2SCAN H(P) scan @ 60 GPa (
           1
     8.186339    0.000000    0.000000
     0.000000    2.824138    0.000000
     0.000000    0.000000    9.731252
   Al   C 
    16    12
Direct configuration=    11
   0.26314427  0.25000000  0.29771442
   0.23685573  0.75000000  0.79771442
   0.73685573  0.75000000  0.70228558
   0.76314427  0.25000000  0.20228558
   0.34610009  0.25000000  0.01091020
   0.15389991  0.75000000  0.51091020
   0.65389991  0.75000000  0.98908980
   0.84610009  0.25000000  0.48908980
   0.52253198  0.25000000  0.79399877
   0.97746802  0.75000000  0.29399877
   0.47746802  0.75000000  0.20600123
   0.02253198  0.25000000  0.70600123
   0.06835830  0.25000000  0.09014208
   0.43164170  0.75000000  0.59014208
   0.93164170  0.75000000  0.90985792
   0.56835830  0.25000000  0.40985792
   0.25933011  0.25000000  0.64217809
   0.24066989  0.75000000  0.14217809
   0.74066989  0.75000000  0.35782191
   0.75933011  0.25000000  0.85782191
   0.60492092  0.25000000  0.60762996
   0.89507908  0.75000000  0.10762996
   0.39507908  0.75000000  0.39237004
   0.10492092  0.25000000  0.89237004
   0.06407321  0.25000000  0.38886597
   0.43592679  0.75000000  0.88886597
   0.93592679  0.75000000  0.61113403
   0.56407321  0.25000000  0.11113403
Al4C3 Pnma - r2SCAN H(P) scan @ 60 GPa (
           1
     8.186610    0.000000    0.000000
     0.000000    2.824232    0.000000
     0.000000    0.000000    9.731573
   Al   C 
    16    12
Direct configuration=    12
   0.26322258  0.25000000  0.29772449
   0.23677742  0.75000000  0.79772449
   0.73677742  0.75000000  0.70227551
   0.76322258  0.25000000  0.20227551
   0.34615406  0.25000000  0.01098615
   0.15384594  0.75000000  0.51098615
   0.65384594  0.75000000  0.98901385
   0.84615406  0.25000000  0.48901385
   0.52240284  0.25000000  0.79398547
   0.97759716  0.75000000  0.29398547
   0.47759716  0.75000000  0.20601453
   0.02240284  0.25000000  0.70601453
   0.06851976  0.25000000  0.09011835
   0.43148024  0.75000000  0.59011835
   0.93148024  0.75000000  0.90988165
   0.56851976  0.25000000  0.40988165
   0.25928150  0.25000000  0.64214961
   0.24071850  0.75000000  0.14214961
   0.74071850  0.75000000  0.35785039
   0.75928150  0.25000000  0.85785039
   0.60482712  0.25000000  0.60771963
   0.89517288  0.75000000  0.10771963
   0.39517288  0.75000000  0.39228037
   0.10482712  0.25000000  0.89228037
   0.06410844  0.25000000  0.38888918
   0.43589156  0.75000000  0.88888918
   0.93589156  0.75000000  0.61111082
   0.56410844  0.25000000  0.11111082
Al4C3 Pnma - r2SCAN H(P) scan @ 60 GPa (
           1
     8.186786    0.000000    0.000000
     0.000000    2.824293    0.000000
     0.000000    0.000000    9.731784
   Al   C 
    16    12
Direct configuration=    13
   0.26327375  0.25000000  0.29773107
   0.23672625  0.75000000  0.79773107
   0.73672625  0.75000000  0.70226893
   0.76327375  0.25000000  0.20226893
   0.34618933  0.25000000  0.01103578
   0.15381067  0.75000000  0.51103578
   0.65381067  0.75000000  0.98896422
   0.84618933  0.25000000  0.48896422
   0.52231845  0.25000000  0.79397679
   0.97768155  0.75000000  0.29397679
   0.47768155  0.75000000  0.20602321
   0.02231845  0.25000000  0.70602321
   0.06862526  0.25000000  0.09010284
   0.43137474  0.75000000  0.59010284
   0.93137474  0.75000000  0.90989716
   0.56862526  0.25000000  0.40989716
   0.25924973  0.25000000  0.64213100
   0.24075027  0.75000000  0.14213100
   0.74075027  0.75000000  0.35786900
   0.75924973  0.25000000  0.85786900
   0.60476583  0.25000000  0.60777822
   0.89523417  0.75000000  0.10777822
   0.39523417  0.75000000  0.39222178
   0.10476583  0.25000000  0.89222178
   0.06413146  0.25000000  0.38890435
   0.43586854  0.75000000  0.88890435
   0.93586854  0.75000000  0.61109565
   0.56413146  0.25000000  0.11109565
Al4C3 Pnma - r2SCAN H(P) scan @ 60 GPa (
           1
     8.186497    0.000000    0.000000
     0.000000    2.824193    0.000000
     0.000000    0.000000    9.731439
   Al   C 
    16    12
Direct configuration=    14
   0.26331234  0.25000000  0.29776539
   0.23668766  0.75000000  0.79776539
   0.73668766  0.75000000  0.70223461
   0.76331234  0.25000000  0.20223461
   0.34629877  0.25000000  0.01111495
   0.15370123  0.75000000  0.51111495
   0.65370123  0.75000000  0.98888505
   0.84629877  0.25000000  0.48888505
   0.52213680  0.25000000  0.79396108
   0.97786320  0.75000000  0.29396108
   0.47786320  0.75000000  0.20603892
   0.02213680  0.25000000  0.70603892
   0.06865795  0.25000000  0.09002803
   0.43134205  0.75000000  0.59002803
   0.93134205  0.75000000  0.90997197
   0.56865795  0.25000000  0.40997197
   0.25922329  0.25000000  0.64214383
   0.24077671  0.75000000  0.14214383
   0.74077671  0.75000000  0.35785617
   0.75922329  0.25000000  0.85785617
   0.60461779  0.25000000  0.60780778
   0.89538221  0.75000000  0.10780778
   0.39538221  0.75000000  0.39219222
   0.10461779  0.25000000  0.89219222
   0.06422623  0.25000000  0.38891647
   0.43577377  0.75000000  0.88891647
   0.93577377  0.75000000  0.61108353
   0.56422623  0.25000000  0.11108353
Al4C3 Pnma - r2SCAN H(P) scan @ 60 GPa (
           1
     8.186449    0.000000    0.000000
     0.000000    2.824176    0.000000
     0.000000    0.000000    9.731382
   Al   C 
    16    12
Direct configuration=    15
   0.26331875  0.25000000  0.29777109
   0.23668125  0.75000000  0.79777109
   0.73668125  0.75000000  0.70222891
   0.76331875  0.25000000  0.20222891
   0.34631696  0.25000000  0.01112811
   0.15368304  0.75000000  0.51112811
   0.65368304  0.75000000  0.98887189
   0.84631696  0.25000000  0.48887189
   0.52210661  0.25000000  0.79395846
   0.97789339  0.75000000  0.29395846
   0.47789339  0.75000000  0.20604154
   0.02210661  0.25000000  0.70604154
   0.06866339  0.25000000  0.09001559
   0.43133661  0.75000000  0.59001559
   0.93133661  0.75000000  0.90998441
   0.56866339  0.25000000  0.40998441
   0.25921890  0.25000000  0.64214596
   0.24078110  0.75000000  0.14214596
   0.74078110  0.75000000  0.35785404
   0.75921890  0.25000000  0.85785404
   0.60459318  0.25000000  0.60781269
   0.89540682  0.75000000  0.10781269
   0.39540682  0.75000000  0.39218731
   0.10459318  0.25000000  0.89218731
   0.06424198  0.25000000  0.38891848
   0.43575802  0.75000000  0.88891848
   0.93575802  0.75000000  0.61108152
   0.56424198  0.25000000  0.11108152
Al4C3 Pnma - r2SCAN H(P) scan @ 60 GPa (
           1
     8.187183    0.000000    0.000000
     0.000000    2.824429    0.000000
     0.000000    0.000000    9.732255
   Al   C 
    16    12
Direct configuration=    16
   0.26343783  0.25000000  0.29778348
   0.23656217  0.75000000  0.79778348
   0.73656217  0.75000000  0.70221652
   0.76343783  0.25000000  0.20221652
   0.34637996  0.25000000  0.01120447
   0.15362004  0.75000000  0.51120447
   0.65362004  0.75000000  0.98879553
   0.84637996  0.25000000  0.48879553
   0.52199342  0.25000000  0.79388089
   0.97800658  0.75000000  0.29388089
   0.47800658  0.75000000  0.20611911
   0.02199342  0.25000000  0.70611911
   0.06863621  0.25000000  0.08996223
   0.43136379  0.75000000  0.58996223
   0.93136379  0.75000000  0.91003777
   0.56863621  0.25000000  0.41003777
   0.25916998  0.25000000  0.64220266
   0.24083002  0.75000000  0.14220266
   0.74083002  0.75000000  0.35779734
   0.75916998  0.25000000  0.85779734
   0.60452322  0.25000000  0.60780404
   0.89547678  0.75000000  0.10780404
   0.39547678  0.75000000  0.39219596
   0.10452322  0.25000000  0.89219596
   0.06432690  0.25000000  0.38896736
   0.43567310  0.75000000  0.88896736
   0.93567310  0.75000000  0.61103264
   0.56432690  0.25000000  0.11103264
Al4C3 Pnma - r2SCAN H(P) scan @ 60 GPa (
           1
     8.186948    0.000000    0.000000
     0.000000    2.824348    0.000000
     0.000000    0.000000    9.731975
   Al   C 
    16    12
Direct configuration=    17
   0.26339973  0.25000000  0.29777951
   0.23660027  0.75000000  0.79777951
   0.73660027  0.75000000  0.70222049
   0.76339973  0.25000000  0.20222049
   0.34635980  0.25000000  0.01118004
   0.15364020  0.75000000  0.51118004
   0.65364020  0.75000000  0.98881996
   0.84635980  0.25000000  0.48881996
   0.52202964  0.25000000  0.79390571
   0.97797036  0.75000000  0.29390571
   0.47797036  0.75000000  0.20609429
   0.02202964  0.25000000  0.70609429
   0.06864490  0.25000000  0.08997931
   0.43135510  0.75000000  0.58997931
   0.93135510  0.75000000  0.91002069
   0.56864490  0.25000000  0.41002069
   0.25918563  0.25000000  0.64218452
   0.24081437  0.75000000  0.14218452
   0.74081437  0.75000000  0.35781548
   0.75918563  0.25000000  0.85781548
   0.60454561  0.25000000  0.60780681
   0.89545439  0.75000000  0.10780681
   0.39545439  0.75000000  0.39219319
   0.10454561  0.25000000  0.89219319
   0.06429973  0.25000000  0.38895172
   0.43570027  0.75000000  0.88895172
   0.93570027  0.75000000  0.61104828
   0.56429973  0.25000000  0.11104828
Al4C3 Pnma - r2SCAN H(P) scan @ 60 GPa (
           1
     8.186714    0.000000    0.000000
     0.000000    2.824267    0.000000
     0.000000    0.000000    9.731697
   Al   C 
    16    12
Direct configuration=    18
   0.26345643  0.25000000  0.29778347
   0.23654357  0.75000000  0.79778347
   0.73654357  0.75000000  0.70221653
   0.76345643  0.25000000  0.20221653
   0.34636816  0.25000000  0.01122175
   0.15363184  0.75000000  0.51122175
   0.65363184  0.75000000  0.98877825
   0.84636816  0.25000000  0.48877825
   0.52194418  0.25000000  0.79388334
   0.97805582  0.75000000  0.29388334
   0.47805582  0.75000000  0.20611666
   0.02194418  0.25000000  0.70611666
   0.06866611  0.25000000  0.08999557
   0.43133389  0.75000000  0.58999557
   0.93133389  0.75000000  0.91000443
   0.56866611  0.25000000  0.41000443
   0.25914849  0.25000000  0.64223448
   0.24085151  0.75000000  0.14223448
   0.74085151  0.75000000  0.35776552
   0.75914849  0.25000000  0.85776552
   0.60456210  0.25000000  0.60777088
   0.89543790  0.75000000  0.10777088
   0.39543790  0.75000000  0.39222912
   0.10456210  0.25000000  0.89222912
   0.06433383  0.25000000  0.38895094
   0.43566617  0.75000000  0.88895094
   0.93566617  0.75000000  0.61104906
   0.56433383  0.25000000  0.11104906
