       N       E                     dE             d eps       ncg     rms          rms(c)
DAV:   1    -0.798694507953E+02   -0.79869E+02   -0.36797E-05  4968   0.686E-02    0.108E-02
DAV:   2    -0.798694531877E+02   -0.23923E-05   -0.81437E-07  2724   0.692E-03
   1 F= -.28616094E+02 E0= -.28615909E+02  d E =-.286161E+02
       N       E                     dE             d eps       ncg     rms          rms(c)
DAV:   1    -0.759729302532E+02    0.38965E+01   -0.73241E+00  6132   0.152E+01    0.295E+00
DAV:   2    -0.757929312691E+02    0.18000E+00   -0.42947E-01  6276   0.290E+00    0.136E+00
DAV:   3    -0.757779472460E+02    0.14984E-01   -0.61620E-02  6504   0.105E+00    0.409E-01
DAV:   4    -0.757759457294E+02    0.20015E-02   -0.32408E-03  6252   0.245E-01    0.133E-01
DAV:   5    -0.757756211091E+02    0.32462E-03   -0.30334E-04  6540   0.803E-02    0.830E-02
DAV:   6    -0.757755954064E+02    0.25703E-04   -0.42772E-05  6336   0.302E-02    0.897E-03
DAV:   7    -0.757755965521E+02   -0.11456E-05   -0.55577E-06  3660   0.117E-02
   2 F= -.28288540E+02 E0= -.28288328E+02  d E =0.327554E+00
       N       E                     dE             d eps       ncg     rms          rms(c)
DAV:   1    -0.788376223981E+02   -0.30620E+01   -0.32947E+00  6216   0.984E+00    0.201E+00
DAV:   2    -0.787520112941E+02    0.85611E-01   -0.20790E-01  6288   0.199E+00    0.913E-01
DAV:   3    -0.787453631168E+02    0.66482E-02   -0.27878E-02  6528   0.696E-01    0.281E-01
DAV:   4    -0.787443008524E+02    0.10623E-02   -0.15869E-03  6324   0.168E-01    0.881E-02
DAV:   5    -0.787440969926E+02    0.20386E-03   -0.14653E-04  6516   0.551E-02    0.541E-02
DAV:   6    -0.787440694840E+02    0.27509E-04   -0.15080E-05  4164   0.198E-02    0.501E-03
DAV:   7    -0.787440676204E+02    0.18637E-05   -0.61553E-06  3276   0.121E-02
   3 F= -.28705614E+02 E0= -.28705425E+02  d E =-.895205E-01
       N       E                     dE             d eps       ncg     rms          rms(c)
DAV:   1    -0.787244775201E+02    0.19592E-01   -0.18724E-04  6060   0.741E-02    0.152E-02
DAV:   2    -0.787244742008E+02    0.33192E-05   -0.10591E-05  3084   0.146E-02
   4 F= -.28705641E+02 E0= -.28705452E+02  d E =-.895470E-01
       N       E                     dE             d eps       ncg     rms          rms(c)
DAV:   1    -0.787215265547E+02    0.29510E-02   -0.20323E-06  2904   0.755E-03    0.447E-03
DAV:   2    -0.787215269251E+02   -0.37040E-06   -0.29759E-07  2832   0.232E-03
   5 F= -.28705641E+02 E0= -.28705452E+02  d E =-.895478E-01
       N       E                     dE             d eps       ncg     rms          rms(c)
DAV:   1    -0.787228032291E+02   -0.12767E-02   -0.97048E-07  2808   0.547E-03    0.844E-04
DAV:   2    -0.787228032053E+02    0.23719E-07   -0.60024E-08  2772   0.128E-03
   6 F= -.28705642E+02 E0= -.28705453E+02  d E =-.895485E-01
       N       E                     dE             d eps       ncg     rms          rms(c)
DAV:   1    -0.787074852753E+02    0.15318E-01   -0.13573E-01  5184   0.190E+00    0.782E-02
DAV:   2    -0.787073304964E+02    0.15478E-03   -0.21827E-03  6768   0.240E-01    0.456E-02
DAV:   3    -0.787072706083E+02    0.59888E-04   -0.18667E-04  6408   0.747E-02    0.185E-02
DAV:   4    -0.787072715687E+02   -0.96042E-06   -0.49449E-05  5304   0.301E-02
   7 F= -.28706835E+02 E0= -.28706647E+02  d E =-.119319E-02
       N       E                     dE             d eps       ncg     rms          rms(c)
DAV:   1    -0.787077762295E+02   -0.50562E-03   -0.13288E-04  5424   0.593E-02    0.360E-03
DAV:   2    -0.787077759794E+02    0.25009E-06   -0.25157E-06  2988   0.828E-03
   8 F= -.28706836E+02 E0= -.28706648E+02  d E =-.119436E-02
       N       E                     dE             d eps       ncg     rms          rms(c)
DAV:   1    -0.787097257576E+02   -0.19495E-02   -0.10792E-02  5196   0.537E-01    0.218E-02
DAV:   2    -0.787097199865E+02    0.57711E-05   -0.13830E-04  6792   0.648E-02    0.125E-02
DAV:   3    -0.787097134784E+02    0.65081E-05   -0.20233E-05  4668   0.275E-02
   9 F= -.28707008E+02 E0= -.28706819E+02  d E =-.171574E-03
       N       E                     dE             d eps       ncg     rms          rms(c)
DAV:   1    -0.787108186381E+02   -0.10987E-02   -0.39717E-03  5184   0.327E-01    0.139E-02
DAV:   2    -0.787108170922E+02    0.15459E-05   -0.53793E-05  6804   0.396E-02
  10 F= -.28707044E+02 E0= -.28706855E+02  d E =-.207570E-03
       N       E                     dE             d eps       ncg     rms          rms(c)
DAV:   1    -0.787000100447E+02    0.10809E-01   -0.16413E-03  5436   0.214E-01    0.147E-02
DAV:   2    -0.787000132254E+02   -0.31807E-05   -0.60982E-05  6768   0.388E-02
  11 F= -.28707134E+02 E0= -.28706946E+02  d E =-.901323E-04
       N       E                     dE             d eps       ncg     rms          rms(c)
DAV:   1    -0.787002828688E+02   -0.27282E-03   -0.30800E-06  3420   0.987E-03    0.481E-03
DAV:   2    -0.787002830042E+02   -0.13539E-06   -0.78841E-07  2952   0.437E-03
  12 F= -.28707134E+02 E0= -.28706946E+02  d E =-.898819E-04
       N       E                     dE             d eps       ncg     rms          rms(c)
DAV:   1    -0.787126483076E+02   -0.12365E-01   -0.26650E-03  5232   0.272E-01    0.147E-02
DAV:   2    -0.787126431041E+02    0.52035E-05   -0.75807E-05  6792   0.463E-02
  13 F= -.28707159E+02 E0= -.28706971E+02  d E =-.252260E-04
