Al4C3 Pbam - H(P) scan @ 70 GPa (ISIF=8)
           1
     8.406040    0.000000    0.000000
     0.000000    4.853720    0.000000
     0.000000    0.000000    2.875204
   Al   C 
     8     6
Direct configuration=     1
   0.78589679  0.16040594  0.00000000
   0.21410321  0.83959406  0.00000000
   0.71410321  0.66040594  0.00000000
   0.28589679  0.33959406  0.00000000
   0.03176717  0.25297909  0.50000000
   0.96823285  0.74702091  0.50000000
   0.46823282  0.75297909  0.50000000
   0.53176715  0.24702091  0.50000000
   0.00000000  0.00000000  0.00000000
   0.50000000  0.50000000  0.00000000
   0.82431463  0.44593390  0.50000000
   0.17568537  0.55406610  0.50000000
   0.67568537  0.94593390  0.50000000
   0.32431463  0.05406610  0.50000000
Al4C3 Pbam - H(P) scan @ 70 GPa (ISIF=8)
           1
     8.194876    0.000000    0.000000
     0.000000    4.731792    0.000000
     0.000000    0.000000    2.802978
   Al   C 
     8     6
Direct configuration=     2
   0.78591100  0.16032175  0.00000000
   0.21408900  0.83967825 -0.00000000
   0.71408900  0.66032175  0.00000000
   0.28591100  0.33967825 -0.00000000
   0.03175370  0.25288255  0.50000000
   0.96824633  0.74711745  0.50000000
   0.46824630  0.75288255  0.50000000
   0.53175367  0.24711745  0.50000000
   0.00000000  0.00000000  0.00000000
   0.50000000  0.50000000  0.00000000
   0.82426818  0.44589680  0.50000000
   0.17573182  0.55410320  0.50000000
   0.67573182  0.94589680  0.50000000
   0.32426818  0.05410320  0.50000000
Al4C3 Pbam - H(P) scan @ 70 GPa (ISIF=8)
           1
     8.339089    0.000000    0.000000
     0.000000    4.815062    0.000000
     0.000000    0.000000    2.852305
   Al   C 
     8     6
Direct configuration=     3
   0.78590105  0.16038073  0.00000000
   0.21409895  0.83961927 -0.00000000
   0.71409895  0.66038073  0.00000000
   0.28590105  0.33961927 -0.00000000
   0.03176314  0.25295018  0.50000000
   0.96823688  0.74704982  0.50000000
   0.46823685  0.75295018  0.50000000
   0.53176312  0.24704982  0.50000000
   0.00000000  0.00000000  0.00000000
   0.50000000  0.50000000  0.00000000
   0.82430072  0.44592279  0.50000000
   0.17569928  0.55407721  0.50000000
   0.67569928  0.94592279  0.50000000
   0.32430072  0.05407721  0.50000000
Al4C3 Pbam - H(P) scan @ 70 GPa (ISIF=8)
           1
     8.337999    0.000000    0.000000
     0.000000    4.814433    0.000000
     0.000000    0.000000    2.851932
   Al   C 
     8     6
Direct configuration=     4
   0.78590112  0.16038029  0.00000000
   0.21409888  0.83961971 -0.00000000
   0.71409888  0.66038029  0.00000000
   0.28590112  0.33961971 -0.00000000
   0.03176307  0.25294968  0.50000000
   0.96823695  0.74705032  0.50000000
   0.46823692  0.75294968  0.50000000
   0.53176305  0.24705032  0.50000000
   0.00000000  0.00000000  0.00000000
   0.50000000  0.50000000  0.00000000
   0.82430048  0.44592260  0.50000000
   0.17569952  0.55407740  0.50000000
   0.67569952  0.94592260  0.50000000
   0.32430048  0.05407740  0.50000000
Al4C3 Pbam - H(P) scan @ 70 GPa (ISIF=8)
           1
     8.337835    0.000000    0.000000
     0.000000    4.814338    0.000000
     0.000000    0.000000    2.851876
   Al   C 
     8     6
Direct configuration=     5
   0.78590113  0.16038023  0.00000000
   0.21409887  0.83961977 -0.00000000
   0.71409887  0.66038023  0.00000000
   0.28590113  0.33961977 -0.00000000
   0.03176306  0.25294960  0.50000000
   0.96823697  0.74705040  0.50000000
   0.46823694  0.75294960  0.50000000
   0.53176303  0.24705040  0.50000000
   0.00000000  0.00000000  0.00000000
   0.50000000  0.50000000  0.00000000
   0.82430044  0.44592257  0.50000000
   0.17569956  0.55407743  0.50000000
   0.67569956  0.94592257  0.50000000
   0.32430044  0.05407743  0.50000000
Al4C3 Pbam - H(P) scan @ 70 GPa (ISIF=8)
           1
     8.337906    0.000000    0.000000
     0.000000    4.814379    0.000000
     0.000000    0.000000    2.851900
   Al   C 
     8     6
Direct configuration=     6
   0.78590113  0.16038026  0.00000000
   0.21409887  0.83961974 -0.00000000
   0.71409887  0.66038026  0.00000000
   0.28590113  0.33961974 -0.00000000
   0.03176306  0.25294963  0.50000000
   0.96823696  0.74705037  0.50000000
   0.46823693  0.75294963  0.50000000
   0.53176304  0.24705037  0.50000000
   0.00000000  0.00000000  0.00000000
   0.50000000  0.50000000  0.00000000
   0.82430045  0.44592258  0.50000000
   0.17569955  0.55407742  0.50000000
   0.67569955  0.94592258  0.50000000
   0.32430045  0.05407742  0.50000000
Al4C3 Pbam - H(P) scan @ 70 GPa (ISIF=8)
           1
     8.336977    0.000000    0.000000
     0.000000    4.813842    0.000000
     0.000000    0.000000    2.851582
   Al   C 
     8     6
Direct configuration=     7
   0.78567395  0.16060306  0.00000000
   0.21432605  0.83939694 -0.00000000
   0.71432605  0.66060306  0.00000000
   0.28567395  0.33939694 -0.00000000
   0.03209957  0.25293697  0.50000000
   0.96790045  0.74706303  0.50000000
   0.46790042  0.75293697  0.50000000
   0.53209955  0.24706303  0.50000000
   0.00000000  0.00000000  0.00000000
   0.50000000  0.50000000  0.00000000
   0.82398090  0.44540672  0.50000000
   0.17601910  0.55459328  0.50000000
   0.67601910  0.94540672  0.50000000
   0.32398090  0.05459328  0.50000000
Al4C3 Pbam - H(P) scan @ 70 GPa (ISIF=8)
           1
     8.337005    0.000000    0.000000
     0.000000    4.813859    0.000000
     0.000000    0.000000    2.851592
   Al   C 
     8     6
Direct configuration=     8
   0.78568079  0.16059636  0.00000000
   0.21431921  0.83940364 -0.00000000
   0.71431921  0.66059636  0.00000000
   0.28568079  0.33940364 -0.00000000
   0.03208944  0.25293736  0.50000000
   0.96791058  0.74706264  0.50000000
   0.46791055  0.75293736  0.50000000
   0.53208942  0.24706264  0.50000000
   0.00000000  0.00000000  0.00000000
   0.50000000  0.50000000  0.00000000
   0.82399051  0.44542224  0.50000000
   0.17600949  0.55457776  0.50000000
   0.67600949  0.94542224  0.50000000
   0.32399051  0.05457776  0.50000000
Al4C3 Pbam - H(P) scan @ 70 GPa (ISIF=8)
           1
     8.337103    0.000000    0.000000
     0.000000    4.813915    0.000000
     0.000000    0.000000    2.851625
   Al   C 
     8     6
Direct configuration=     9
   0.78579289  0.16057569 -0.00000000
   0.21420711  0.83942431  0.00000000
   0.71420711  0.66057569 -0.00000000
   0.28579289  0.33942431  0.00000000
   0.03219847  0.25288570  0.50000000
   0.96780156  0.74711430  0.50000000
   0.46780153  0.75288570  0.50000000
   0.53219844  0.24711430  0.50000000
   0.00000000  0.00000000  0.00000000
   0.50000000  0.50000000  0.00000000
   0.82401678  0.44521664  0.50000000
   0.17598322  0.55478336  0.50000000
   0.67598322  0.94521664  0.50000000
   0.32401678  0.05478336  0.50000000
Al4C3 Pbam - H(P) scan @ 70 GPa (ISIF=8)
           1
     8.337162    0.000000    0.000000
     0.000000    4.813949    0.000000
     0.000000    0.000000    2.851646
   Al   C 
     8     6
Direct configuration=    10
   0.78586066  0.16056320 -0.00000000
   0.21413934  0.83943680  0.00000000
   0.71413934  0.66056320 -0.00000000
   0.28586066  0.33943680  0.00000000
   0.03226438  0.25285448  0.50000000
   0.96773565  0.74714552  0.50000000
   0.46773562  0.75285448  0.50000000
   0.53226435  0.24714552  0.50000000
   0.00000000  0.00000000  0.00000000
   0.50000000  0.50000000  0.00000000
   0.82403266  0.44509234  0.50000000
   0.17596734  0.55490766  0.50000000
   0.67596734  0.94509234  0.50000000
   0.32403266  0.05490766  0.50000000
Al4C3 Pbam - H(P) scan @ 70 GPa (ISIF=8)
           1
     8.336557    0.000000    0.000000
     0.000000    4.813600    0.000000
     0.000000    0.000000    2.851438
   Al   C 
     8     6
Direct configuration=    11
   0.78594130  0.16036103  0.00000000
   0.21405870  0.83963897 -0.00000000
   0.71405870  0.66036103 -0.00000000
   0.28594130  0.33963897  0.00000000
   0.03241581  0.25292825  0.50000000
   0.96758421  0.74707175  0.50000000
   0.46758418  0.75292825  0.50000000
   0.53241579  0.24707175  0.50000000
   0.00000000  0.00000000  0.00000000
   0.50000000  0.50000000  0.00000000
   0.82403635  0.44507273  0.50000000
   0.17596365  0.55492727  0.50000000
   0.67596365  0.94507273  0.50000000
   0.32403635  0.05492727  0.50000000
Al4C3 Pbam - H(P) scan @ 70 GPa (ISIF=8)
           1
     8.336572    0.000000    0.000000
     0.000000    4.813609    0.000000
     0.000000    0.000000    2.851444
   Al   C 
     8     6
Direct configuration=    12
   0.78593930  0.16036604  0.00000000
   0.21406070  0.83963396 -0.00000000
   0.71406070  0.66036604 -0.00000000
   0.28593930  0.33963396  0.00000000
   0.03241206  0.25292642  0.50000000
   0.96758797  0.74707358  0.50000000
   0.46758794  0.75292642  0.50000000
   0.53241203  0.24707358  0.50000000
   0.00000000  0.00000000  0.00000000
   0.50000000  0.50000000  0.00000000
   0.82403626  0.44507322  0.50000000
   0.17596374  0.55492678  0.50000000
   0.67596374  0.94507322  0.50000000
   0.32403626  0.05492678  0.50000000
Al4C3 Pbam - H(P) scan @ 70 GPa (ISIF=8)
           1
     8.337257    0.000000    0.000000
     0.000000    4.814004    0.000000
     0.000000    0.000000    2.851678
   Al   C 
     8     6
Direct configuration=    13
   0.78598486  0.16018134  0.00000000
   0.21401514  0.83981866 -0.00000000
   0.71401514  0.66018134 -0.00000000
   0.28598486  0.33981866  0.00000000
   0.03245872  0.25287264  0.50000000
   0.96754131  0.74712736  0.50000000
   0.46754128  0.75287264  0.50000000
   0.53245869  0.24712736  0.50000000
   0.00000000  0.00000000  0.00000000
   0.50000000  0.50000000  0.00000000
   0.82399830  0.44500483  0.50000000
   0.17600170  0.55499517  0.50000000
   0.67600170  0.94500483  0.50000000
   0.32399830  0.05499517  0.50000000
