       N       E                     dE             d eps       ncg     rms          rms(c)
DAV:   1    -0.152382960301E+03   -0.15238E+03   -0.10498E+02  4308   0.332E+01    0.246E+01
DAV:   2    -0.129326982667E+03    0.23056E+02   -0.72144E+01  4128   0.280E+01    0.793E+00
DAV:   3    -0.128688048772E+03    0.63893E+00   -0.94907E+00  4392   0.117E+01    0.467E+00
DAV:   4    -0.128651211208E+03    0.36838E-01   -0.10708E+00  4236   0.389E+00    0.175E+00
DAV:   5    -0.128611629173E+03    0.39582E-01   -0.17435E-01  4428   0.167E+00    0.298E-01
DAV:   6    -0.128613035973E+03   -0.14068E-02   -0.18484E-02  4512   0.542E-01    0.211E-01
DAV:   7    -0.128613436977E+03   -0.40100E-03   -0.86361E-04  4404   0.129E-01    0.944E-02
DAV:   8    -0.128613469599E+03   -0.32622E-04   -0.65750E-04  4476   0.102E-01    0.160E-02
DAV:   9    -0.128613471714E+03   -0.21154E-05   -0.23743E-05  3360   0.225E-02
   1 F= -.11483677E+03 E0= -.11483677E+03  d E =-.114837E+03
       N       E                     dE             d eps       ncg     rms          rms(c)
DAV:   1    -0.130545365893E+03   -0.19319E+01   -0.18237E+01  4236   0.193E+01    0.451E+00
DAV:   2    -0.130006686102E+03    0.53868E+00   -0.15948E+00  4224   0.444E+00    0.176E+00
DAV:   3    -0.129976849201E+03    0.29837E-01   -0.20315E-01  4476   0.148E+00    0.574E-01
DAV:   4    -0.129969761782E+03    0.70874E-02   -0.20561E-02  4380   0.471E-01    0.229E-01
DAV:   5    -0.129968387919E+03    0.13739E-02   -0.37787E-03  4452   0.208E-01    0.116E-01
DAV:   6    -0.129968136361E+03    0.25156E-03   -0.52533E-04  4380   0.811E-02    0.249E-02
DAV:   7    -0.129968137911E+03   -0.15501E-05   -0.72743E-05  4380   0.312E-02
   2 F= -.11484521E+03 E0= -.11484521E+03  d E =-.844725E-02
       N       E                     dE             d eps       ncg     rms          rms(c)
DAV:   1    -0.129729736756E+03    0.23840E+00   -0.47822E+00  4164   0.103E+01    0.227E+00
DAV:   2    -0.129595649905E+03    0.13409E+00   -0.39405E-01  4272   0.222E+00    0.904E-01
DAV:   3    -0.129587538466E+03    0.81114E-02   -0.50663E-02  4464   0.754E-01    0.290E-01
DAV:   4    -0.129585864735E+03    0.16737E-02   -0.45598E-03  4392   0.230E-01    0.116E-01
DAV:   5    -0.129585585803E+03    0.27893E-03   -0.74180E-04  4440   0.943E-02    0.605E-02
DAV:   6    -0.129585549371E+03    0.36432E-04   -0.11111E-04  4404   0.370E-02    0.107E-02
DAV:   7    -0.129585547452E+03    0.19188E-05   -0.12575E-05  2700   0.142E-02
   3 F= -.11515086E+03 E0= -.11515086E+03  d E =-.314098E+00
       N       E                     dE             d eps       ncg     rms          rms(c)
DAV:   1    -0.129581164132E+03    0.43852E-02   -0.21300E-04  4260   0.684E-02    0.169E-02
DAV:   2    -0.129581157849E+03    0.62834E-05   -0.19352E-05  2400   0.163E-02
   4 F= -.11515088E+03 E0= -.11515088E+03  d E =-.314113E+00
       N       E                     dE             d eps       ncg     rms          rms(c)
DAV:   1    -0.129579824878E+03    0.13393E-02   -0.92127E-06  2136   0.144E-02    0.472E-03
DAV:   2    -0.129579825120E+03   -0.24236E-06   -0.10188E-06  2004   0.412E-03
   5 F= -.11515088E+03 E0= -.11515088E+03  d E =-.314113E+00
       N       E                     dE             d eps       ncg     rms          rms(c)
DAV:   1    -0.129580484085E+03   -0.65921E-03   -0.57277E-06  1992   0.109E-02    0.227E-03
DAV:   2    -0.129580483970E+03    0.11508E-06   -0.49415E-07  1944   0.298E-03
   6 F= -.11515088E+03 E0= -.11515088E+03  d E =-.314114E+00
       N       E                     dE             d eps       ncg     rms          rms(c)
DAV:   1    -0.129580821732E+03   -0.33765E-03   -0.67279E-07  1932   0.434E-03    0.125E-03
DAV:   2    -0.129580821653E+03    0.78262E-07   -0.50017E-08  1932   0.117E-03
   7 F= -.11515088E+03 E0= -.11515088E+03  d E =-.314114E+00
       N       E                     dE             d eps       ncg     rms          rms(c)
DAV:   1    -0.129584414703E+03   -0.35930E-02   -0.83470E-02  3816   0.133E+00    0.743E-02
DAV:   2    -0.129584250161E+03    0.16454E-03   -0.32144E-03  4848   0.250E-01    0.626E-02
DAV:   3    -0.129584185358E+03    0.64803E-04   -0.35980E-04  4572   0.819E-02    0.372E-02
DAV:   4    -0.129584157159E+03    0.28199E-04   -0.11238E-04  4632   0.411E-02    0.128E-02
DAV:   5    -0.129584154599E+03    0.25597E-05   -0.11608E-05  3240   0.192E-02
   8 F= -.11515089E+03 E0= -.11515089E+03  d E =-.816163E-05
       N       E                     dE             d eps       ncg     rms          rms(c)
DAV:   1    -0.129583354163E+03    0.80300E-03   -0.20713E-02  3816   0.661E-01    0.374E-02
DAV:   2    -0.129583305028E+03    0.49135E-04   -0.76460E-04  4824   0.123E-01    0.312E-02
DAV:   3    -0.129583288903E+03    0.16125E-04   -0.95605E-05  4536   0.422E-02    0.183E-02
DAV:   4    -0.129583282409E+03    0.64942E-05   -0.24841E-05  3360   0.193E-02
   9 F= -.11515167E+03 E0= -.11515167E+03  d E =-.793348E-03
       N       E                     dE             d eps       ncg     rms          rms(c)
DAV:   1    -0.129583715160E+03   -0.42626E-03   -0.73717E-03  3708   0.368E-01    0.174E-02
DAV:   2    -0.129583707840E+03    0.73196E-05   -0.18785E-04  4464   0.596E-02    0.112E-02
DAV:   3    -0.129583703400E+03    0.44395E-05   -0.13317E-05  2856   0.184E-02
  10 F= -.11515181E+03 E0= -.11515181E+03  d E =-.134562E-03
