Al4C3 R-3m - H(P) scan @ 10 GPa (ISIF=8)
           1
     3.242540    0.000000    0.000000
    -1.621270    2.808122    0.000000
     0.000000    0.000000   24.241238
   Al   C 
    12     9
Direct configuration=     1
   0.00000000  0.00000000  0.62970758
   0.00000000  0.00000000  0.37029242
   0.66666669  0.33333334  0.96304089
   0.66666669  0.33333334  0.70362574
   0.33333334  0.66666669  0.29637423
   0.33333334  0.66666669  0.03695909
   0.00000000  0.00000000  0.20627632
   0.00000000  0.00000000  0.79372368
   0.66666669  0.33333334  0.53960964
   0.66666669  0.33333334  0.12705701
   0.33333334  0.66666669  0.87294301
   0.33333334  0.66666669  0.46039033
   0.00000000  0.00000000  0.71672655
   0.00000000  0.00000000  0.28327345
   0.66666669  0.33333334  0.05005989
   0.66666669  0.33333334  0.61660676
   0.33333334  0.66666669  0.38339321
   0.33333334  0.66666669  0.94994013
   0.00000000  0.00000000  0.50000000
   0.66666669  0.33333334  0.83333331
   0.33333334  0.66666669  0.16666667
Al4C3 R-3m - H(P) scan @ 10 GPa (ISIF=8)
           1
     3.344892    0.000000    0.000000
    -1.672446    2.896761    0.000000
     0.000000    0.000000   25.006425
   Al   C 
    12     9
Direct configuration=     2
  -0.00000000 -0.00000000  0.62972316
   0.00000000  0.00000000  0.37027684
   0.66666669  0.33333334  0.96305647
   0.66666669  0.33333334  0.70361016
   0.33333334  0.66666669  0.29638981
   0.33333334  0.66666669  0.03694351
  -0.00000000 -0.00000000  0.20627684
   0.00000000  0.00000000  0.79372316
   0.66666669  0.33333334  0.53961015
   0.66666669  0.33333334  0.12705649
   0.33333334  0.66666669  0.87294353
   0.33333334  0.66666669  0.46038982
   0.00000000 -0.00000000  0.71671401
   0.00000000  0.00000000  0.28328599
   0.66666669  0.33333334  0.05004734
   0.66666669  0.33333334  0.61661930
   0.33333334  0.66666669  0.38338067
   0.33333334  0.66666669  0.94995268
   0.00000000  0.00000000  0.50000000
   0.66666669  0.33333334  0.83333331
   0.33333334  0.66666669  0.16666667
Al4C3 R-3m - H(P) scan @ 10 GPa (ISIF=8)
           1
     3.293360    0.000000    0.000000
    -1.646680    2.852134    0.000000
     0.000000    0.000000   24.621174
   Al   C 
    12     9
Direct configuration=     3
  -0.00000000 -0.00000000  0.62971555
   0.00000000  0.00000000  0.37028445
   0.66666669  0.33333334  0.96304887
   0.66666669  0.33333334  0.70361776
   0.33333334  0.66666669  0.29638221
   0.33333334  0.66666669  0.03695112
  -0.00000000 -0.00000000  0.20627659
   0.00000000  0.00000000  0.79372341
   0.66666669  0.33333334  0.53960990
   0.66666669  0.33333334  0.12705674
   0.33333334  0.66666669  0.87294327
   0.33333334  0.66666669  0.46039007
   0.00000000 -0.00000000  0.71672013
   0.00000000  0.00000000  0.28327987
   0.66666669  0.33333334  0.05005346
   0.66666669  0.33333334  0.61661318
   0.33333334  0.66666669  0.38338679
   0.33333334  0.66666669  0.94994655
   0.00000000  0.00000000  0.50000000
   0.66666669  0.33333334  0.83333331
   0.33333334  0.66666669  0.16666667
Al4C3 R-3m - H(P) scan @ 10 GPa (ISIF=8)
           1
     3.293025    0.000000    0.000000
    -1.646513    2.851844    0.000000
     0.000000    0.000000   24.618670
   Al   C 
    12     9
Direct configuration=     4
  -0.00000000 -0.00000000  0.62971550
   0.00000000  0.00000000  0.37028450
   0.66666669  0.33333334  0.96304882
   0.66666669  0.33333334  0.70361781
   0.33333334  0.66666669  0.29638216
   0.33333334  0.66666669  0.03695117
  -0.00000000 -0.00000000  0.20627659
   0.00000000  0.00000000  0.79372341
   0.66666669  0.33333334  0.53960990
   0.66666669  0.33333334  0.12705674
   0.33333334  0.66666669  0.87294327
   0.33333334  0.66666669  0.46039007
   0.00000000 -0.00000000  0.71672017
   0.00000000  0.00000000  0.28327983
   0.66666669  0.33333334  0.05005351
   0.66666669  0.33333334  0.61661314
   0.33333334  0.66666669  0.38338683
   0.33333334  0.66666669  0.94994651
   0.00000000  0.00000000  0.50000000
   0.66666669  0.33333334  0.83333331
   0.33333334  0.66666669  0.16666667
Al4C3 R-3m - H(P) scan @ 10 GPa (ISIF=8)
           1
     3.292924    0.000000    0.000000
    -1.646462    2.851756    0.000000
     0.000000    0.000000   24.617912
   Al   C 
    12     9
Direct configuration=     5
  -0.00000000 -0.00000000  0.62971549
   0.00000000  0.00000000  0.37028451
   0.66666669  0.33333334  0.96304880
   0.66666669  0.33333334  0.70361783
   0.33333334  0.66666669  0.29638214
   0.33333334  0.66666669  0.03695118
  -0.00000000 -0.00000000  0.20627659
   0.00000000  0.00000000  0.79372341
   0.66666669  0.33333334  0.53960990
   0.66666669  0.33333334  0.12705674
   0.33333334  0.66666669  0.87294327
   0.33333334  0.66666669  0.46039007
   0.00000000 -0.00000000  0.71672019
   0.00000000  0.00000000  0.28327981
   0.66666669  0.33333334  0.05005352
   0.66666669  0.33333334  0.61661313
   0.33333334  0.66666669  0.38338684
   0.33333334  0.66666669  0.94994650
   0.00000000  0.00000000  0.50000000
   0.66666669  0.33333334  0.83333331
   0.33333334  0.66666669  0.16666667
Al4C3 R-3m - H(P) scan @ 10 GPa (ISIF=8)
           1
     3.292974    0.000000    0.000000
    -1.646487    2.851799    0.000000
     0.000000    0.000000   24.618286
   Al   C 
    12     9
Direct configuration=     6
  -0.00000000 -0.00000000  0.62971549
   0.00000000  0.00000000  0.37028451
   0.66666669  0.33333334  0.96304881
   0.66666669  0.33333334  0.70361782
   0.33333334  0.66666669  0.29638215
   0.33333334  0.66666669  0.03695117
  -0.00000000 -0.00000000  0.20627659
   0.00000000  0.00000000  0.79372341
   0.66666669  0.33333334  0.53960990
   0.66666669  0.33333334  0.12705674
   0.33333334  0.66666669  0.87294327
   0.33333334  0.66666669  0.46039007
   0.00000000 -0.00000000  0.71672018
   0.00000000  0.00000000  0.28327982
   0.66666669  0.33333334  0.05005351
   0.66666669  0.33333334  0.61661313
   0.33333334  0.66666669  0.38338684
   0.33333334  0.66666669  0.94994651
   0.00000000  0.00000000  0.50000000
   0.66666669  0.33333334  0.83333331
   0.33333334  0.66666669  0.16666667
Al4C3 R-3m - H(P) scan @ 10 GPa (ISIF=8)
           1
     3.293000    0.000000    0.000000
    -1.646500    2.851821    0.000000
     0.000000    0.000000   24.618478
   Al   C 
    12     9
Direct configuration=     7
  -0.00000000 -0.00000000  0.62971550
   0.00000000  0.00000000  0.37028450
   0.66666669  0.33333334  0.96304881
   0.66666669  0.33333334  0.70361782
   0.33333334  0.66666669  0.29638215
   0.33333334  0.66666669  0.03695117
  -0.00000000 -0.00000000  0.20627659
   0.00000000  0.00000000  0.79372341
   0.66666669  0.33333334  0.53960990
   0.66666669  0.33333334  0.12705674
   0.33333334  0.66666669  0.87294327
   0.33333334  0.66666669  0.46039007
   0.00000000 -0.00000000  0.71672018
   0.00000000  0.00000000  0.28327982
   0.66666669  0.33333334  0.05005351
   0.66666669  0.33333334  0.61661314
   0.33333334  0.66666669  0.38338683
   0.33333334  0.66666669  0.94994651
   0.00000000  0.00000000  0.50000000
   0.66666669  0.33333334  0.83333331
   0.33333334  0.66666669  0.16666667
Al4C3 R-3m - H(P) scan @ 10 GPa (ISIF=8)
           1
     3.293252    0.000000    0.000000
    -1.646626    2.852040    0.000000
     0.000000    0.000000   24.620369
   Al   C 
    12     9
Direct configuration=     8
  -0.00000000 -0.00000000  0.62977140
   0.00000000  0.00000000  0.37022860
   0.66666669  0.33333334  0.96310471
   0.66666669  0.33333334  0.70356191
   0.33333334  0.66666669  0.29643806
   0.33333334  0.66666669  0.03689527
  -0.00000000 -0.00000000  0.20644294
   0.00000000  0.00000000  0.79355706
   0.66666669  0.33333334  0.53977625
   0.66666669  0.33333334  0.12689039
   0.33333334  0.66666669  0.87310962
   0.33333334  0.66666669  0.46022372
  -0.00000000 -0.00000000  0.71680304
   0.00000000  0.00000000  0.28319696
   0.66666669  0.33333334  0.05013637
   0.66666669  0.33333334  0.61653027
   0.33333334  0.66666669  0.38346970
   0.33333334  0.66666669  0.94986365
  -0.00000000  0.00000000  0.50000000
   0.66666669  0.33333334  0.83333331
   0.33333334  0.66666669  0.16666667
Al4C3 R-3m - H(P) scan @ 10 GPa (ISIF=8)
           1
     3.293126    0.000000    0.000000
    -1.646563    2.851931    0.000000
     0.000000    0.000000   24.619426
   Al   C 
    12     9
Direct configuration=     9
  -0.00000000 -0.00000000  0.62974354
   0.00000000  0.00000000  0.37025646
   0.66666669  0.33333334  0.96307685
   0.66666669  0.33333334  0.70358978
   0.33333334  0.66666669  0.29641019
   0.33333334  0.66666669  0.03692313
  -0.00000000 -0.00000000  0.20636002
   0.00000000  0.00000000  0.79363998
   0.66666669  0.33333334  0.53969334
   0.66666669  0.33333334  0.12697331
   0.33333334  0.66666669  0.87302671
   0.33333334  0.66666669  0.46030663
  -0.00000000 -0.00000000  0.71676174
   0.00000000  0.00000000  0.28323826
   0.66666669  0.33333334  0.05009507
   0.66666669  0.33333334  0.61657158
   0.33333334  0.66666669  0.38342839
   0.33333334  0.66666669  0.94990495
   0.00000000  0.00000000  0.50000000
   0.66666669  0.33333334  0.83333331
   0.33333334  0.66666669  0.16666667
Al4C3 R-3m - H(P) scan @ 10 GPa (ISIF=8)
           1
     3.293148    0.000000    0.000000
    -1.646574    2.851950    0.000000
     0.000000    0.000000   24.619589
   Al   C 
    12     9
Direct configuration=    10
  -0.00000000 -0.00000000  0.62978162
  -0.00000000  0.00000000  0.37021838
   0.66666669  0.33333334  0.96311494
   0.66666669  0.33333334  0.70355169
   0.33333334  0.66666669  0.29644828
   0.33333334  0.66666669  0.03688504
  -0.00000000  0.00000000  0.20637335
  -0.00000000  0.00000000  0.79362665
   0.66666669  0.33333334  0.53970666
   0.66666669  0.33333334  0.12695998
   0.33333334  0.66666669  0.87304003
   0.33333334  0.66666669  0.46029331
  -0.00000000 -0.00000000  0.71673728
   0.00000000  0.00000000  0.28326272
   0.66666669  0.33333334  0.05007062
   0.66666669  0.33333334  0.61659603
   0.33333334  0.66666669  0.38340394
   0.33333334  0.66666669  0.94992940
   0.00000000 -0.00000000  0.50000000
   0.66666669  0.33333334  0.83333331
   0.33333334  0.66666669  0.16666667
