  21  21   0   0
  0.1164766E+02  0.3355464E-09  0.3355464E-09  0.2508546E-08  0.5000000E-15
  1.000000000000000E-004
  CAR 
 Al4C3 R-3m - r2SCAN H(P) scan @ 0 GPa (I
     15.32681250     -8.11996716  301      7.59425996      1.00000000
     -8.120  0.0000E+00  0.0000E+00
     -8.042  0.0000E+00  0.0000E+00
     -7.964  0.0000E+00  0.0000E+00
     -7.885  0.0000E+00  0.0000E+00
     -7.807  0.0000E+00  0.0000E+00
     -7.729  0.0000E+00  0.0000E+00
     -7.651  0.0000E+00  0.0000E+00
     -7.573  0.0000E+00  0.0000E+00
     -7.495  0.0000E+00  0.0000E+00
     -7.417  0.0000E+00  0.0000E+00
     -7.338  0.2348E-18  0.1835E-19
     -7.260  0.1486E-11  0.1162E-12
     -7.182  0.8009E-07  0.6260E-08
     -7.104  0.4894E-04  0.3831E-05
     -7.026  0.7964E-03  0.6607E-04
     -6.948  0.2341E-02  0.2490E-03
     -6.869  0.7397E-02  0.8272E-03
     -6.791  0.5509E-02  0.1258E-02
     -6.713  0.5733E-02  0.1706E-02
     -6.635  0.7809E-02  0.2316E-02
     -6.557  0.8549E-02  0.2984E-02
     -6.479  0.1106E-01  0.3849E-02
     -6.401  0.7109E-02  0.4404E-02
     -6.322  0.3826E-02  0.4703E-02
     -6.244  0.3625E-02  0.4987E-02
     -6.166  0.1549E-01  0.6197E-02
     -6.088  0.1387E-01  0.7281E-02
     -6.010  0.1539E-01  0.8484E-02
     -5.932  0.1309E-01  0.9507E-02
     -5.853  0.1400E-01  0.1060E-01
     -5.775  0.1360E-01  0.1166E-01
     -5.697  0.8227E-02  0.1231E-01
     -5.619  0.1121E-01  0.1318E-01
     -5.541  0.2206E-01  0.1491E-01
     -5.463  0.2866E-01  0.1715E-01
     -5.385  0.2562E-01  0.1915E-01
     -5.306  0.1152E-01  0.2005E-01
     -5.228  0.1123E-01  0.2093E-01
     -5.150  0.1851E-01  0.2237E-01
     -5.072  0.1073E-01  0.2321E-01
     -4.994  0.1356E-01  0.2427E-01
     -4.916  0.2455E-01  0.2619E-01
     -4.837  0.2602E-01  0.2822E-01
     -4.759  0.2965E-01  0.3054E-01
     -4.681  0.2330E-01  0.3236E-01
     -4.603  0.2383E-01  0.3423E-01
     -4.525  0.1895E-01  0.3571E-01
     -4.447  0.1773E-01  0.3709E-01
     -4.368  0.1905E-01  0.3858E-01
     -4.290  0.4519E-01  0.4211E-01
     -4.212  0.5163E-01  0.4615E-01
     -4.134  0.3952E-01  0.4924E-01
     -4.056  0.2949E-01  0.5154E-01
     -3.978  0.2527E-01  0.5352E-01
     -3.900  0.3554E-01  0.5630E-01
     -3.821  0.4995E-01  0.6020E-01
     -3.743  0.3508E-01  0.6294E-01
     -3.665  0.2682E-01  0.6504E-01
     -3.587  0.1961E-01  0.6657E-01
     -3.509  0.2665E-01  0.6865E-01
     -3.431  0.3088E-01  0.7107E-01
     -3.352  0.1539E-01  0.7227E-01
     -3.274  0.5275E-01  0.7639E-01
     -3.196  0.8276E-01  0.8286E-01
     -3.118  0.6757E-01  0.8814E-01
     -3.040  0.2276E-01  0.8992E-01
     -2.962  0.1038E-02  0.9000E-01
     -2.884  0.2196E-05  0.9000E-01
     -2.805  0.6264E-10  0.9000E-01
     -2.727  0.1550E-16  0.9000E-01
     -2.649  0.0000E+00  0.9000E-01
     -2.571  0.0000E+00  0.9000E-01
     -2.493  0.0000E+00  0.9000E-01
     -2.415  0.0000E+00  0.9000E-01
     -2.336  0.0000E+00  0.9000E-01
     -2.258  0.0000E+00  0.9000E-01
     -2.180  0.0000E+00  0.9000E-01
     -2.102  0.0000E+00  0.9000E-01
     -2.024  0.0000E+00  0.9000E-01
     -1.946  0.0000E+00  0.9000E-01
     -1.867  0.0000E+00  0.9000E-01
     -1.789  0.0000E+00  0.9000E-01
     -1.711  0.0000E+00  0.9000E-01
     -1.633  0.0000E+00  0.9000E-01
     -1.555  0.0000E+00  0.9000E-01
     -1.477  0.0000E+00  0.9000E-01
     -1.399  0.0000E+00  0.9000E-01
     -1.320  0.0000E+00  0.9000E-01
     -1.242  0.0000E+00  0.9000E-01
     -1.164  0.0000E+00  0.9000E-01
     -1.086  0.0000E+00  0.9000E-01
     -1.008  0.0000E+00  0.9000E-01
     -0.930  0.0000E+00  0.9000E-01
     -0.851  0.0000E+00  0.9000E-01
     -0.773  0.0000E+00  0.9000E-01
     -0.695  0.0000E+00  0.9000E-01
     -0.617  0.7451E-12  0.9000E-01
     -0.539  0.9381E-07  0.9000E-01
     -0.461  0.1257E-03  0.9001E-01
     -0.383  0.4424E-02  0.9036E-01
     -0.304  0.1129E-01  0.9124E-01
     -0.226  0.1082E-01  0.9208E-01
     -0.148  0.8830E-02  0.9277E-01
     -0.070  0.2739E-02  0.9299E-01
      0.008  0.6554E-02  0.9350E-01
      0.086  0.2065E-01  0.9511E-01
      0.165  0.2622E-01  0.9716E-01
      0.243  0.1622E-01  0.9843E-01
      0.321  0.1324E-01  0.9947E-01
      0.399  0.1392E-01  0.1006E+00
      0.477  0.1831E-01  0.1020E+00
      0.555  0.1937E-01  0.1035E+00
      0.633  0.1355E-01  0.1046E+00
      0.712  0.1509E-01  0.1057E+00
      0.790  0.1776E-01  0.1071E+00
      0.868  0.1635E-01  0.1084E+00
      0.946  0.1603E-01  0.1097E+00
      1.024  0.1710E-01  0.1110E+00
      1.102  0.1653E-01  0.1123E+00
      1.181  0.2482E-01  0.1142E+00
      1.259  0.3684E-01  0.1171E+00
      1.337  0.3653E-01  0.1200E+00
      1.415  0.3451E-01  0.1227E+00
      1.493  0.4438E-01  0.1261E+00
      1.571  0.2995E-01  0.1285E+00
      1.650  0.3588E-01  0.1313E+00
      1.728  0.3766E-01  0.1342E+00
      1.806  0.3005E-01  0.1366E+00
      1.884  0.2995E-01  0.1389E+00
      1.962  0.3047E-01  0.1413E+00
      2.040  0.3550E-01  0.1441E+00
      2.118  0.4500E-01  0.1476E+00
      2.197  0.4285E-01  0.1509E+00
      2.275  0.3800E-01  0.1539E+00
      2.353  0.4501E-01  0.1574E+00
      2.431  0.3378E-01  0.1601E+00
      2.509  0.1823E-01  0.1615E+00
      2.587  0.4182E-01  0.1647E+00
      2.666  0.4718E-01  0.1684E+00
      2.744  0.3486E-01  0.1712E+00
      2.822  0.4957E-01  0.1750E+00
      2.900  0.4241E-01  0.1783E+00
      2.978  0.2358E-01  0.1802E+00
      3.056  0.2088E-01  0.1818E+00
      3.134  0.3412E-01  0.1845E+00
      3.213  0.2819E-01  0.1867E+00
      3.291  0.4226E-01  0.1900E+00
      3.369  0.3479E-01  0.1927E+00
      3.447  0.1992E-01  0.1943E+00
      3.525  0.2043E-01  0.1959E+00
      3.603  0.2641E-01  0.1979E+00
      3.682  0.5142E-01  0.2020E+00
      3.760  0.3693E-01  0.2048E+00
      3.838  0.2987E-01  0.2072E+00
      3.916  0.5114E-01  0.2112E+00
      3.994  0.3626E-01  0.2140E+00
      4.072  0.2903E-01  0.2163E+00
      4.151  0.3287E-01  0.2188E+00
      4.229  0.2944E-01  0.2211E+00
      4.307  0.4002E-01  0.2243E+00
      4.385  0.4745E-01  0.2280E+00
      4.463  0.4167E-01  0.2312E+00
      4.541  0.4438E-01  0.2347E+00
      4.619  0.4813E-01  0.2385E+00
      4.698  0.4548E-01  0.2420E+00
      4.776  0.5163E-01  0.2461E+00
      4.854  0.3228E-01  0.2486E+00
      4.932  0.4666E-01  0.2522E+00
      5.010  0.4389E-01  0.2557E+00
      5.088  0.4331E-01  0.2590E+00
      5.167  0.3292E-01  0.2616E+00
      5.245  0.5174E-01  0.2657E+00
      5.323  0.6669E-01  0.2709E+00
      5.401  0.8209E-01  0.2773E+00
      5.479  0.6448E-01  0.2823E+00
      5.557  0.5701E-01  0.2868E+00
      5.635  0.4525E-01  0.2903E+00
      5.714  0.6673E-01  0.2955E+00
      5.792  0.5787E-01  0.3001E+00
      5.870  0.6539E-01  0.3052E+00
      5.948  0.5965E-01  0.3098E+00
      6.026  0.4786E-01  0.3136E+00
      6.104  0.5320E-01  0.3177E+00
      6.183  0.5291E-01  0.3219E+00
      6.261  0.3898E-01  0.3249E+00
      6.339  0.5762E-01  0.3294E+00
      6.417  0.6134E-01  0.3342E+00
      6.495  0.5044E-01  0.3381E+00
      6.573  0.3795E-01  0.3411E+00
      6.652  0.4262E-01  0.3444E+00
      6.730  0.3211E-01  0.3470E+00
      6.808  0.3063E-01  0.3493E+00
      6.886  0.3210E-01  0.3519E+00
      6.964  0.1806E-01  0.3533E+00
      7.042  0.2075E-01  0.3549E+00
      7.120  0.2079E-01  0.3565E+00
      7.199  0.1457E-01  0.3577E+00
      7.277  0.9625E-02  0.3584E+00
      7.355  0.1476E-01  0.3596E+00
      7.433  0.5508E-02  0.3600E+00
      7.511  0.1563E-03  0.3600E+00
      7.589  0.1329E-06  0.3600E+00
      7.668  0.1531E-11  0.3600E+00
      7.746  0.2348E-18  0.3600E+00
      7.824  0.0000E+00  0.3600E+00
      7.902  0.0000E+00  0.3600E+00
      7.980  0.0000E+00  0.3600E+00
      8.058  0.0000E+00  0.3600E+00
      8.136  0.0000E+00  0.3600E+00
      8.215  0.0000E+00  0.3600E+00
      8.293  0.0000E+00  0.3600E+00
      8.371  0.0000E+00  0.3600E+00
      8.449  0.0000E+00  0.3600E+00
      8.527  0.0000E+00  0.3600E+00
      8.605  0.0000E+00  0.3600E+00
      8.684  0.0000E+00  0.3600E+00
      8.762  0.0000E+00  0.3600E+00
      8.840  0.0000E+00  0.3600E+00
      8.918  0.5191E-12  0.3600E+00
      8.996  0.7610E-07  0.3600E+00
      9.074  0.1182E-03  0.3600E+00
      9.152  0.3682E-02  0.3603E+00
      9.231  0.9848E-02  0.3611E+00
      9.309  0.5060E-02  0.3615E+00
      9.387  0.3254E-03  0.3615E+00
      9.465  0.1199E-03  0.3615E+00
      9.543  0.4063E-02  0.3618E+00
      9.621  0.1251E-01  0.3628E+00
      9.700  0.1425E-01  0.3639E+00
      9.778  0.1170E-01  0.3648E+00
      9.856  0.1463E-01  0.3660E+00
      9.934  0.9124E-02  0.3667E+00
     10.012  0.8738E-02  0.3674E+00
     10.090  0.1864E-02  0.3675E+00
     10.169  0.1633E-01  0.3688E+00
     10.247  0.1895E-01  0.3703E+00
     10.325  0.2624E-01  0.3723E+00
     10.403  0.2122E-01  0.3740E+00
     10.481  0.2390E-01  0.3758E+00
     10.559  0.1961E-01  0.3774E+00
     10.637  0.1755E-01  0.3787E+00
     10.716  0.1998E-01  0.3803E+00
     10.794  0.1353E-01  0.3814E+00
     10.872  0.2049E-01  0.3830E+00
     10.950  0.2105E-01  0.3846E+00
     11.028  0.1554E-01  0.3858E+00
     11.106  0.2192E-01  0.3875E+00
     11.185  0.1977E-01  0.3891E+00
     11.263  0.2930E-01  0.3914E+00
     11.341  0.3237E-01  0.3939E+00
     11.419  0.4838E-01  0.3977E+00
     11.497  0.6675E-01  0.4029E+00
     11.575  0.6228E-01  0.4078E+00
     11.653  0.3359E-01  0.4104E+00
     11.732  0.3253E-01  0.4129E+00
     11.810  0.1757E-01  0.4143E+00
     11.888  0.2422E-01  0.4162E+00
     11.966  0.3684E-01  0.4191E+00
     12.044  0.2684E-01  0.4212E+00
     12.122  0.1830E-01  0.4226E+00
     12.201  0.1088E-01  0.4235E+00
     12.279  0.1426E-01  0.4246E+00
     12.357  0.2000E-01  0.4261E+00
     12.435  0.4107E-01  0.4293E+00
     12.513  0.4328E-01  0.4327E+00
     12.591  0.5065E-01  0.4367E+00
     12.670  0.3447E-01  0.4394E+00
     12.748  0.5077E-01  0.4434E+00
     12.826  0.4412E-01  0.4468E+00
     12.904  0.5460E-01  0.4511E+00
     12.982  0.6058E-01  0.4558E+00
     13.060  0.4803E-01  0.4596E+00
     13.138  0.2723E-01  0.4617E+00
     13.217  0.2404E-01  0.4636E+00
     13.295  0.2978E-01  0.4659E+00
     13.373  0.2776E-01  0.4681E+00
     13.451  0.2845E-01  0.4703E+00
     13.529  0.2844E-01  0.4725E+00
     13.607  0.2121E-01  0.4742E+00
     13.686  0.8235E-02  0.4748E+00
     13.764  0.6058E-02  0.4753E+00
     13.842  0.2055E-01  0.4769E+00
     13.920  0.1625E-01  0.4782E+00
     13.998  0.1450E-01  0.4793E+00
     14.076  0.4732E-02  0.4797E+00
     14.154  0.1180E-02  0.4798E+00
     14.233  0.6818E-03  0.4798E+00
     14.311  0.2251E-02  0.4800E+00
     14.389  0.2525E-03  0.4800E+00
     14.467  0.4721E-06  0.4800E+00
     14.545  0.8903E-11  0.4800E+00
     14.623  0.1409E-17  0.4800E+00
     14.702  0.0000E+00  0.4800E+00
     14.780  0.0000E+00  0.4800E+00
     14.858  0.0000E+00  0.4800E+00
     14.936  0.0000E+00  0.4800E+00
     15.014  0.0000E+00  0.4800E+00
     15.092  0.0000E+00  0.4800E+00
     15.171  0.0000E+00  0.4800E+00
     15.249  0.0000E+00  0.4800E+00
     15.327  0.0000E+00  0.4800E+00
