       N       E                     dE             d eps       ncg     rms          rms(c)
DAV:   1    -0.184161404340E+03   -0.18416E+03   -0.24596E+02  3804   0.451E+01    0.632E+00
DAV:   2    -0.174977305239E+03    0.91841E+01   -0.32460E+01  3660   0.148E+01    0.476E+00
DAV:   3    -0.175226980496E+03   -0.24968E+00   -0.68395E-01  3720   0.325E+00    0.370E+00
DAV:   4    -0.175255702416E+03   -0.28722E-01   -0.35029E-01  3756   0.206E+00    0.748E-01
DAV:   5    -0.175243438024E+03    0.12264E-01   -0.46852E-02  3696   0.794E-01    0.352E-01
DAV:   6    -0.175242261930E+03    0.11761E-02   -0.18864E-02  3792   0.476E-01    0.791E-02
DAV:   7    -0.175242327150E+03   -0.65220E-04   -0.96735E-04  3744   0.130E-01    0.515E-02
DAV:   8    -0.175242292662E+03    0.34488E-04   -0.10193E-04  3876   0.413E-02    0.335E-02
DAV:   9    -0.175242288598E+03    0.40639E-05   -0.11890E-04  4188   0.410E-02    0.821E-03
DAV:  10    -0.175242287773E+03    0.82511E-06   -0.61387E-06  2436   0.119E-02
   1 F= -.17524229E+03 E0= -.17524229E+03  d E =-.175242E+03
       N       E                     dE             d eps       ncg     rms          rms(c)
DAV:   1    -0.175311486151E+03   -0.69198E-01   -0.24928E+00  3600   0.751E+00    0.162E+00
DAV:   2    -0.175263842703E+03    0.47643E-01   -0.20505E-01  3684   0.165E+00    0.775E-01
DAV:   3    -0.175263371816E+03    0.47089E-03   -0.27568E-02  3816   0.560E-01    0.287E-01
DAV:   4    -0.175263715197E+03   -0.34338E-03   -0.80349E-04  3768   0.136E-01    0.129E-01
DAV:   5    -0.175263748712E+03   -0.33515E-04   -0.21225E-04  3828   0.708E-02    0.960E-02
DAV:   6    -0.175263777784E+03   -0.29071E-04   -0.10280E-04  3804   0.439E-02    0.321E-02
DAV:   7    -0.175263774641E+03    0.31430E-05   -0.23606E-05  2556   0.197E-02
   2 F= -.17526377E+03 E0= -.17526377E+03  d E =-.214869E-01
       N       E                     dE             d eps       ncg     rms          rms(c)
DAV:   1    -0.175302196098E+03   -0.38418E-01   -0.45057E-01  3636   0.315E+00    0.698E-01
DAV:   2    -0.175293969630E+03    0.82265E-02   -0.37933E-02  3708   0.704E-01    0.334E-01
DAV:   3    -0.175293947051E+03    0.22579E-04   -0.50838E-03  3768   0.238E-01    0.123E-01
DAV:   4    -0.175293920650E+03    0.26401E-04   -0.14784E-04  3780   0.582E-02    0.547E-02
DAV:   5    -0.175293930683E+03   -0.10034E-04   -0.40406E-05  3480   0.307E-02    0.403E-02
DAV:   6    -0.175293917557E+03    0.13126E-04   -0.17742E-05  2496   0.195E-02    0.119E-02
DAV:   7    -0.175293913618E+03    0.39395E-05   -0.27887E-06  1980   0.857E-03
   3 F= -.17529391E+03 E0= -.17529391E+03  d E =-.516258E-01
       N       E                     dE             d eps       ncg     rms          rms(c)
DAV:   1    -0.175294576391E+03   -0.65883E-03   -0.48652E-02  3192   0.937E-01    0.532E-02
DAV:   2    -0.175294523009E+03    0.53382E-04   -0.20329E-03  3828   0.203E-01    0.440E-02
DAV:   3    -0.175294502594E+03    0.20415E-04   -0.21798E-04  3984   0.646E-02    0.303E-02
DAV:   4    -0.175294501016E+03    0.15783E-05   -0.55968E-05  3828   0.315E-02
   4 F= -.17529450E+03 E0= -.17529450E+03  d E =-.587398E-03
       N       E                     dE             d eps       ncg     rms          rms(c)
DAV:   1    -0.175294622798E+03   -0.12020E-03   -0.37802E-03  3228   0.260E-01    0.134E-02
DAV:   2    -0.175294620715E+03    0.20831E-05   -0.16673E-04  3756   0.557E-02    0.117E-02
DAV:   3    -0.175294619429E+03    0.12860E-05   -0.12301E-05  2412   0.161E-02
   5 F= -.17529462E+03 E0= -.17529462E+03  d E =-.705811E-03
       N       E                     dE             d eps       ncg     rms          rms(c)
DAV:   1    -0.175294844455E+03   -0.22374E-03   -0.51406E-03  3348   0.348E-01    0.232E-02
DAV:   2    -0.175294861873E+03   -0.17418E-04   -0.19832E-04  3960   0.604E-02    0.128E-02
DAV:   3    -0.175294863751E+03   -0.18778E-05   -0.69080E-06  2340   0.128E-02
   6 F= -.17529486E+03 E0= -.17529486E+03  d E =-.244323E-03
