Al4C3 anti-CaFe2O4-type, volume pre-scal
   1.00000000000000     
     2.8882452021784215    0.0000000000000000    0.0000000000000000
     0.0000000000000000    8.8236133404848118    0.0000000000000000
     0.0000000000000000    0.0000000000000000   10.2355376251821788
   Al   C 
    16    12
Direct
  0.2500000000000000  0.4185798924580826  0.5838288635293991
  0.7500000000000000  0.5814201075419173  0.4161711364706006
  0.2500000000000000  0.9185798924580827  0.9161711364706009
  0.7500000000000000  0.0814201075419173  0.0838288635293993
  0.2500000000000000  0.4858912537811219  0.2061769755172506
  0.7500000000000000  0.5141087462188781  0.7938230244827493
  0.2500000000000000  0.9858912537811219  0.2938230244827492
  0.7500000000000000  0.0141087462188780  0.7061769755172507
  0.2500000000000000  0.1408381391725330  0.5181432124300284
  0.7500000000000000  0.8591618608274599  0.4818567875699719
  0.2500000000000000  0.6408381391725401  0.9818567875699716
  0.7500000000000000  0.3591618608274671  0.0181432124300282
  0.7500000000000000  0.2724043333971196  0.3032440236972916
  0.2500000000000000  0.7275956666028801  0.6967559763027082
  0.2500000000000000  0.2275956666028804  0.8032440236972918
  0.7500000000000000  0.7724043333971199  0.1967559763027084
  0.7500000000000000  0.7469885602720294  0.8598506916959482
  0.2500000000000000  0.2530114397279706  0.1401493083040517
  0.7500000000000000  0.2469885602720294  0.6401493083040518
  0.2500000000000000  0.7530114397279706  0.3598506916959482
  0.2500000000000000  0.9252703033507087  0.6112784025688168
  0.7500000000000000  0.5747296966492913  0.1112784025688169
  0.2500000000000000  0.4252703033507084  0.8887215974311832
  0.7500000000000000  0.0747296966492915  0.3887215974311831
  0.7500000000000000  0.0876858280191667  0.8863935061897685
  0.2500000000000000  0.9123141719808332  0.1136064938102315
  0.7500000000000000  0.5876858280191668  0.6136064938102315
  0.2500000000000000  0.4123141719808333  0.3863935061897684
 
  0.00000000E+00  0.00000000E+00  0.00000000E+00
  0.00000000E+00  0.00000000E+00  0.00000000E+00
  0.00000000E+00  0.00000000E+00  0.00000000E+00
  0.00000000E+00  0.00000000E+00  0.00000000E+00
  0.00000000E+00  0.00000000E+00  0.00000000E+00
  0.00000000E+00  0.00000000E+00  0.00000000E+00
  0.00000000E+00  0.00000000E+00  0.00000000E+00
  0.00000000E+00  0.00000000E+00  0.00000000E+00
  0.00000000E+00  0.00000000E+00  0.00000000E+00
  0.00000000E+00  0.00000000E+00  0.00000000E+00
  0.00000000E+00  0.00000000E+00  0.00000000E+00
  0.00000000E+00  0.00000000E+00  0.00000000E+00
  0.00000000E+00  0.00000000E+00  0.00000000E+00
  0.00000000E+00  0.00000000E+00  0.00000000E+00
  0.00000000E+00  0.00000000E+00  0.00000000E+00
  0.00000000E+00  0.00000000E+00  0.00000000E+00
  0.00000000E+00  0.00000000E+00  0.00000000E+00
  0.00000000E+00  0.00000000E+00  0.00000000E+00
  0.00000000E+00  0.00000000E+00  0.00000000E+00
  0.00000000E+00  0.00000000E+00  0.00000000E+00
  0.00000000E+00  0.00000000E+00  0.00000000E+00
  0.00000000E+00  0.00000000E+00  0.00000000E+00
  0.00000000E+00  0.00000000E+00  0.00000000E+00
  0.00000000E+00  0.00000000E+00  0.00000000E+00
  0.00000000E+00  0.00000000E+00  0.00000000E+00
  0.00000000E+00  0.00000000E+00  0.00000000E+00
  0.00000000E+00  0.00000000E+00  0.00000000E+00
  0.00000000E+00  0.00000000E+00  0.00000000E+00
