       N       E                     dE             d eps       ncg     rms          rms(c)
DAV:   1    -0.187388467848E+03   -0.18739E+03   -0.10101E+02  9666   0.275E+01    0.267E+01
DAV:   2    -0.163664220434E+03    0.23724E+02   -0.73364E+01  9402   0.236E+01    0.836E+00
DAV:   3    -0.163018208727E+03    0.64601E+00   -0.73163E+00  9450   0.838E+00    0.486E+00
DAV:   4    -0.162917826310E+03    0.10038E+00   -0.47270E-01  9648   0.244E+00    0.149E+00
DAV:   5    -0.162896982931E+03    0.20843E-01   -0.84998E-02  9942   0.106E+00    0.389E-01
DAV:   6    -0.162895677729E+03    0.13052E-02   -0.11039E-02  9882   0.394E-01    0.197E-01
DAV:   7    -0.162895809714E+03   -0.13198E-03   -0.20803E-03  9960   0.162E-01    0.905E-02
DAV:   8    -0.162895827738E+03   -0.18024E-04   -0.28261E-04  9960   0.544E-02    0.328E-02
DAV:   9    -0.162895808950E+03    0.18788E-04   -0.11816E-04  9576   0.346E-02    0.899E-03
DAV:  10    -0.162895808624E+03    0.32545E-06   -0.84872E-06  5034   0.111E-02
   1 F= -.13157090E+03 E0= -.13157090E+03  d E =-.131571E+03
       N       E                     dE             d eps       ncg     rms          rms(c)
DAV:   1    -0.165851289068E+03   -0.29555E+01   -0.16813E+01  9540   0.160E+01    0.429E+00
DAV:   2    -0.165417794280E+03    0.43349E+00   -0.12914E+00  9720   0.346E+00    0.178E+00
DAV:   3    -0.165392369015E+03    0.25425E-01   -0.14211E-01  9792   0.111E+00    0.587E-01
DAV:   4    -0.165386866352E+03    0.55027E-02   -0.12000E-02  9882   0.319E-01    0.214E-01
DAV:   5    -0.165385849895E+03    0.10165E-02   -0.20757E-03  9912   0.137E-01    0.109E-01
DAV:   6    -0.165385727797E+03    0.12210E-03   -0.26525E-04  9834   0.507E-02    0.414E-02
DAV:   7    -0.165385717805E+03    0.99924E-05   -0.45939E-05  9060   0.221E-02
   2 F= -.13146541E+03 E0= -.13146534E+03  d E =0.105482E+00
       N       E                     dE             d eps       ncg     rms          rms(c)
DAV:   1    -0.164476117287E+03    0.90961E+00   -0.51493E+00  9540   0.912E+00    0.233E+00
DAV:   2    -0.164349668574E+03    0.12645E+00   -0.36978E-01  9678   0.187E+00    0.986E-01
DAV:   3    -0.164341609219E+03    0.80594E-02   -0.42005E-02  9792   0.615E-01    0.321E-01
DAV:   4    -0.164340066320E+03    0.15429E-02   -0.30775E-03  9852   0.166E-01    0.116E-01
DAV:   5    -0.164339829685E+03    0.23663E-03   -0.43945E-04  9834   0.656E-02    0.615E-02
DAV:   6    -0.164339809292E+03    0.20393E-04   -0.55357E-05  9270   0.240E-02    0.187E-02
DAV:   7    -0.164339809641E+03   -0.34966E-06   -0.10575E-05  5100   0.112E-02
   3 F= -.13185025E+03 E0= -.13185024E+03  d E =-.279352E+00
       N       E                     dE             d eps       ncg     rms          rms(c)
DAV:   1    -0.164330797644E+03    0.90116E-02   -0.22496E-04  9786   0.602E-02    0.154E-02
DAV:   2    -0.164330793499E+03    0.41456E-05   -0.15184E-05  5082   0.127E-02
   4 F= -.13185027E+03 E0= -.13185026E+03  d E =-.279372E+00
       N       E                     dE             d eps       ncg     rms          rms(c)
DAV:   1    -0.164361175211E+03   -0.30378E-01   -0.58631E-01  8316   0.310E+00    0.139E-01
DAV:   2    -0.164361273622E+03   -0.98411E-04   -0.98521E-03 10200   0.362E-01    0.952E-02
DAV:   3    -0.164361022414E+03    0.25121E-03   -0.58095E-04 10248   0.995E-02    0.447E-02
DAV:   4    -0.164361006466E+03    0.15948E-04   -0.27691E-04  9912   0.563E-02    0.190E-02
DAV:   5    -0.164361006515E+03   -0.49065E-07   -0.23730E-05  6300   0.186E-02
   5 F= -.13185771E+03 E0= -.13185771E+03  d E =-.744423E-02
       N       E                     dE             d eps       ncg     rms          rms(c)
DAV:   1    -0.164374993382E+03   -0.13987E-01   -0.18568E-01  8328   0.174E+00    0.789E-02
DAV:   2    -0.164375024738E+03   -0.31356E-04   -0.31121E-03 10224   0.204E-01    0.542E-02
DAV:   3    -0.164374945303E+03    0.79435E-04   -0.18851E-04 10248   0.566E-02    0.256E-02
DAV:   4    -0.164374940772E+03    0.45311E-05   -0.87204E-05  9396   0.316E-02
   6 F= -.13185884E+03 E0= -.13185883E+03  d E =-.856938E-02
       N       E                     dE             d eps       ncg     rms          rms(c)
DAV:   1    -0.164393881930E+03   -0.18937E-01   -0.68250E-01  8316   0.329E+00    0.141E-01
DAV:   2    -0.164393763451E+03    0.11848E-03   -0.12223E-02 10236   0.412E-01    0.929E-02
DAV:   3    -0.164393484556E+03    0.27890E-03   -0.76866E-04  9876   0.113E-01    0.396E-02
DAV:   4    -0.164393488844E+03   -0.42878E-05   -0.31862E-04 10044   0.541E-02    0.182E-02
DAV:   5    -0.164393489667E+03   -0.82355E-06   -0.10577E-05  5742   0.127E-02
   7 F= -.13186274E+03 E0= -.13186273E+03  d E =-.390435E-02
       N       E                     dE             d eps       ncg     rms          rms(c)
DAV:   1    -0.164395857226E+03   -0.23684E-02   -0.16605E-02  8352   0.513E-01    0.227E-02
DAV:   2    -0.164395854708E+03    0.25185E-05   -0.29916E-04 10284   0.645E-02    0.147E-02
DAV:   3    -0.164395847645E+03    0.70628E-05   -0.17744E-05  6252   0.180E-02
   8 F= -.13186282E+03 E0= -.13186281E+03  d E =-.397893E-02
       N       E                     dE             d eps       ncg     rms          rms(c)
DAV:   1    -0.164407718723E+03   -0.11864E-01   -0.39458E-01  8316   0.256E+00    0.104E-01
DAV:   2    -0.164407937360E+03   -0.21864E-03   -0.80510E-03 10248   0.329E-01    0.754E-02
DAV:   3    -0.164407826660E+03    0.11070E-03   -0.32587E-04  9966   0.755E-02    0.451E-02
DAV:   4    -0.164407799450E+03    0.27210E-04   -0.30012E-04  9900   0.564E-02    0.158E-02
DAV:   5    -0.164407797398E+03    0.20515E-05   -0.25625E-05  6384   0.206E-02
   9 F= -.13186503E+03 E0= -.13186503E+03  d E =-.221739E-02
       N       E                     dE             d eps       ncg     rms          rms(c)
DAV:   1    -0.164408422576E+03   -0.62313E-03   -0.16062E-03  8682   0.164E-01    0.805E-03
DAV:   2    -0.164408425362E+03   -0.27866E-05   -0.45028E-05 10128   0.242E-02
  10 F= -.13186504E+03 E0= -.13186504E+03  d E =-.222838E-02
       N       E                     dE             d eps       ncg     rms          rms(c)
DAV:   1    -0.164412905908E+03   -0.44833E-02   -0.10351E-01  8316   0.132E+00    0.518E-02
DAV:   2    -0.164412970912E+03   -0.65004E-04   -0.14371E-03 10344   0.139E-01    0.338E-02
DAV:   3    -0.164412941992E+03    0.28920E-04   -0.74544E-05 10320   0.357E-02    0.169E-02
DAV:   4    -0.164412940605E+03    0.13874E-05   -0.35752E-05  6780   0.207E-02
  11 F= -.13186649E+03 E0= -.13186649E+03  d E =-.144665E-02
       N       E                     dE             d eps       ncg     rms          rms(c)
DAV:   1    -0.164418292204E+03   -0.53502E-02   -0.23373E-01  8316   0.199E+00    0.766E-02
DAV:   2    -0.164418447491E+03   -0.15529E-03   -0.32240E-03 10326   0.208E-01    0.500E-02
DAV:   3    -0.164418385862E+03    0.61629E-04   -0.16553E-04 10308   0.529E-02    0.253E-02
DAV:   4    -0.164418382813E+03    0.30485E-05   -0.79859E-05  9306   0.304E-02
  12 F= -.13186732E+03 E0= -.13186731E+03  d E =-.227613E-02
       N       E                     dE             d eps       ncg     rms          rms(c)
DAV:   1    -0.164425170962E+03   -0.67851E-02   -0.15296E-01  8316   0.160E+00    0.662E-02
DAV:   2    -0.164425261649E+03   -0.90687E-04   -0.25876E-03 10350   0.191E-01    0.463E-02
DAV:   3    -0.164425213828E+03    0.47821E-04   -0.17537E-04 10410   0.544E-02    0.217E-02
DAV:   4    -0.164425212323E+03    0.15051E-05   -0.65267E-05  8670   0.273E-02
  13 F= -.13186837E+03 E0= -.13186836E+03  d E =-.104810E-02
       N       E                     dE             d eps       ncg     rms          rms(c)
DAV:   1    -0.164427376122E+03   -0.21623E-02   -0.19827E-02  8328   0.577E-01    0.245E-02
DAV:   2    -0.164427391170E+03   -0.15048E-04   -0.34030E-04 10362   0.686E-02    0.170E-02
DAV:   3    -0.164427385111E+03    0.60592E-05   -0.18417E-05  6774   0.190E-02
  14 F= -.13186845E+03 E0= -.13186844E+03  d E =-.112911E-02
       N       E                     dE             d eps       ncg     rms          rms(c)
DAV:   1    -0.164425529371E+03    0.18618E-02   -0.20906E-01  8316   0.187E+00    0.757E-02
DAV:   2    -0.164425556446E+03   -0.27075E-04   -0.26314E-03 10194   0.197E-01    0.456E-02
DAV:   3    -0.164425490064E+03    0.66383E-04   -0.24034E-04 10164   0.628E-02    0.180E-02
DAV:   4    -0.164425493145E+03   -0.30815E-05   -0.71062E-05  7692   0.269E-02
  15 F= -.13186942E+03 E0= -.13186941E+03  d E =-.968534E-03
       N       E                     dE             d eps       ncg     rms          rms(c)
DAV:   1    -0.164423996709E+03    0.14934E-02   -0.71047E-02  8328   0.109E+00    0.448E-02
DAV:   2    -0.164424006282E+03   -0.95730E-05   -0.89186E-04 10212   0.115E-01    0.272E-02
DAV:   3    -0.164423984833E+03    0.21450E-04   -0.91121E-05 10242   0.385E-02    0.110E-02
DAV:   4    -0.164423985984E+03   -0.11518E-05   -0.24624E-05  5904   0.164E-02
  16 F= -.13186958E+03 E0= -.13186957E+03  d E =-.112826E-02
       N       E                     dE             d eps       ncg     rms          rms(c)
DAV:   1    -0.164447064253E+03   -0.23079E-01   -0.17495E-01  8316   0.169E+00    0.778E-02
DAV:   2    -0.164446995151E+03    0.69102E-04   -0.26506E-03 10086   0.190E-01    0.487E-02
DAV:   3    -0.164446930760E+03    0.64391E-04   -0.22959E-04 10308   0.604E-02    0.188E-02
DAV:   4    -0.164446932643E+03   -0.18827E-05   -0.67768E-05  7596   0.256E-02
  17 F= -.13186984E+03 E0= -.13186983E+03  d E =-.257311E-03
       N       E                     dE             d eps       ncg     rms          rms(c)
DAV:   1    -0.164439583064E+03    0.73477E-02   -0.18987E-02  8328   0.557E-01    0.262E-02
DAV:   2    -0.164439575858E+03    0.72060E-05   -0.30077E-04 10062   0.637E-02    0.160E-02
DAV:   3    -0.164439568935E+03    0.69232E-05   -0.23713E-05  7536   0.201E-02
  18 F= -.13186992E+03 E0= -.13186991E+03  d E =-.337926E-03
       N       E                     dE             d eps       ncg     rms          rms(c)
DAV:   1    -0.164424441227E+03    0.15135E-01   -0.15917E-02  8328   0.516E-01    0.349E-02
DAV:   2    -0.164424461252E+03   -0.20025E-04   -0.60774E-04 10278   0.887E-02    0.240E-02
DAV:   3    -0.164424452269E+03    0.89823E-05   -0.31920E-05  7902   0.235E-02
  19 F= -.13186992E+03 E0= -.13186991E+03  d E =-.252227E-05
       N       E                     dE             d eps       ncg     rms          rms(c)
DAV:   1    -0.164431956599E+03   -0.74953E-02   -0.39104E-03  8340   0.256E-01    0.155E-02
DAV:   2    -0.164431962962E+03   -0.63626E-05   -0.17048E-04 10248   0.462E-02    0.112E-02
DAV:   3    -0.164431960127E+03    0.28344E-05   -0.62658E-06  4782   0.112E-02
  20 F= -.13187000E+03 E0= -.13186999E+03  d E =-.790233E-04
