Al4C3 anti-CaFe2O4 - H(P) scan @ 20 GPa 
           1
     2.851196    0.000000    0.000000
     0.000000    8.710429    0.000000
     0.000000    0.000000   10.104242
   Al   C 
    16    12
Direct configuration=     1
   0.25000000  0.42068357  0.58514906
   0.75000000  0.57931643  0.41485094
   0.25000000  0.92068357  0.91485094
   0.75000000  0.07931643  0.08514906
   0.25000000  0.48379199  0.20622190
   0.75000000  0.51620801  0.79377810
   0.25000000  0.98379199  0.29377810
   0.75000000  0.01620801  0.70622190
   0.25000000  0.14360618  0.51665607
   0.75000000  0.85639382  0.48334393
   0.25000000  0.64360618  0.98334393
   0.75000000  0.35639382  0.01665607
   0.75000000  0.27012436  0.30192930
   0.25000000  0.72987564  0.69807070
   0.25000000  0.22987564  0.80192930
   0.75000000  0.77012436  0.19807070
   0.75000000  0.74946556  0.85947453
   0.25000000  0.25053444  0.14052547
   0.75000000  0.24946556  0.64052547
   0.25000000  0.75053444  0.35947453
   0.25000000  0.92701773  0.61113891
   0.75000000  0.57298227  0.11113891
   0.25000000  0.42701773  0.88886109
   0.75000000  0.07298227  0.38886109
   0.75000000  0.09108848  0.88745152
   0.25000000  0.90891152  0.11254848
   0.75000000  0.59108848  0.61254848
   0.25000000  0.40891152  0.38745152
Al4C3 anti-CaFe2O4 - H(P) scan @ 20 GPa 
           1
     2.927861    0.000000    0.000000
     0.000000    8.944640    0.000000
     0.000000    0.000000   10.375930
   Al   C 
    16    12
Direct configuration=     2
   0.25000000  0.42068519  0.58512858
   0.75000000  0.57931481  0.41487142
   0.25000000  0.92068519  0.91487142
   0.75000000  0.07931481  0.08512858
   0.25000000  0.48378929  0.20624086
   0.75000000  0.51621071  0.79375914
   0.25000000  0.98378929  0.29375914
   0.75000000  0.01621071  0.70624086
   0.25000000  0.14362570  0.51665513
   0.75000000  0.85637430  0.48334487
   0.25000000  0.64362570  0.98334487
   0.75000000  0.35637430  0.01665513
   0.75000000  0.27012435  0.30193797
   0.25000000  0.72987565  0.69806203
   0.25000000  0.22987565  0.80193797
   0.75000000  0.77012435  0.19806203
   0.75000000  0.74949705  0.85948841
   0.25000000  0.25050295  0.14051159
   0.75000000  0.24949705  0.64051159
   0.25000000  0.75050295  0.35948841
   0.25000000  0.92699032  0.61114015
   0.75000000  0.57300968  0.11114015
   0.25000000  0.42699032  0.88885985
   0.75000000  0.07300968  0.38885985
   0.75000000  0.09108090  0.88744744
   0.25000000  0.90891910  0.11255256
   0.75000000  0.59108090  0.61255256
   0.25000000  0.40891910  0.38744744
Al4C3 anti-CaFe2O4 - H(P) scan @ 20 GPa 
           1
     2.886103    0.000000    0.000000
     0.000000    8.817068    0.000000
     0.000000    0.000000   10.227945
   Al   C 
    16    12
Direct configuration=     3
   0.25000000  0.42068433  0.58513945
   0.75000000  0.57931567  0.41486055
   0.25000000  0.92068433  0.91486055
   0.75000000  0.07931567  0.08513945
   0.25000000  0.48379072  0.20623080
   0.75000000  0.51620928  0.79376920
   0.25000000  0.98379072  0.29376920
   0.75000000  0.01620928  0.70623080
   0.25000000  0.14361535  0.51665563
   0.75000000  0.85638465  0.48334437
   0.25000000  0.64361535  0.98334437
   0.75000000  0.35638465  0.01665563
   0.75000000  0.27012436  0.30193337
   0.25000000  0.72987564  0.69806663
   0.25000000  0.22987564  0.80193337
   0.75000000  0.77012436  0.19806663
   0.75000000  0.74948035  0.85948105
   0.25000000  0.25051965  0.14051895
   0.75000000  0.24948035  0.64051895
   0.25000000  0.75051965  0.35948105
   0.25000000  0.92700486  0.61113949
   0.75000000  0.57299514  0.11113949
   0.25000000  0.42700486  0.88886051
   0.75000000  0.07299514  0.38886051
   0.75000000  0.09108492  0.88744960
   0.25000000  0.90891508  0.11255040
   0.75000000  0.59108492  0.61255040
   0.25000000  0.40891508  0.38744960
Al4C3 anti-CaFe2O4 - H(P) scan @ 20 GPa 
           1
     2.885835    0.000000    0.000000
     0.000000    8.816251    0.000000
     0.000000    0.000000   10.226997
   Al   C 
    16    12
Direct configuration=     4
   0.25000000  0.42068433  0.58513952
   0.75000000  0.57931567  0.41486048
   0.25000000  0.92068433  0.91486048
   0.75000000  0.07931567  0.08513952
   0.25000000  0.48379073  0.20623074
   0.75000000  0.51620927  0.79376926
   0.25000000  0.98379073  0.29376926
   0.75000000  0.01620927  0.70623074
   0.25000000  0.14361528  0.51665563
   0.75000000  0.85638472  0.48334437
   0.25000000  0.64361528  0.98334437
   0.75000000  0.35638472  0.01665563
   0.75000000  0.27012436  0.30193334
   0.25000000  0.72987564  0.69806666
   0.25000000  0.22987564  0.80193334
   0.75000000  0.77012436  0.19806666
   0.75000000  0.74948024  0.85948100
   0.25000000  0.25051976  0.14051900
   0.75000000  0.24948024  0.64051900
   0.25000000  0.75051976  0.35948100
   0.25000000  0.92700495  0.61113949
   0.75000000  0.57299505  0.11113949
   0.25000000  0.42700495  0.88886051
   0.75000000  0.07299505  0.38886051
   0.75000000  0.09108495  0.88744962
   0.25000000  0.90891505  0.11255038
   0.75000000  0.59108495  0.61255038
   0.25000000  0.40891505  0.38744962
Al4C3 anti-CaFe2O4 - H(P) scan @ 20 GPa 
           1
     2.886509    0.000000    0.000000
     0.000000    8.818311    0.000000
     0.000000    0.000000   10.229386
   Al   C 
    16    12
Direct configuration=     5
   0.25000000  0.42073184  0.58473790
   0.75000000  0.57926816  0.41526210
   0.25000000  0.92073184  0.91526210
   0.75000000  0.07926816  0.08473790
   0.25000000  0.48372492  0.20589110
   0.75000000  0.51627508  0.79410890
   0.25000000  0.98372492  0.29410890
   0.75000000  0.01627508  0.70589110
   0.25000000  0.14313565  0.51672218
   0.75000000  0.85686435  0.48327782
   0.25000000  0.64313565  0.98327782
   0.75000000  0.35686435  0.01672218
   0.75000000  0.27001857  0.30215726
   0.25000000  0.72998143  0.69784274
   0.25000000  0.22998143  0.80215726
   0.75000000  0.77001857  0.19784274
   0.75000000  0.74916028  0.85961970
   0.25000000  0.25083972  0.14038030
   0.75000000  0.24916028  0.64038030
   0.25000000  0.75083972  0.35961970
   0.25000000  0.92695138  0.61148471
   0.75000000  0.57304862  0.11148471
   0.25000000  0.42695138  0.88851529
   0.75000000  0.07304862  0.38851529
   0.75000000  0.09061159  0.88697865
   0.25000000  0.90938841  0.11302135
   0.75000000  0.59061159  0.61302135
   0.25000000  0.40938841  0.38697865
Al4C3 anti-CaFe2O4 - H(P) scan @ 20 GPa 
           1
     2.886889    0.000000    0.000000
     0.000000    8.819469    0.000000
     0.000000    0.000000   10.230730
   Al   C 
    16    12
Direct configuration=     6
   0.25000000  0.42075855  0.58451210
   0.75000000  0.57924145  0.41548790
   0.25000000  0.92075855  0.91548790
   0.75000000  0.07924145  0.08451210
   0.25000000  0.48368792  0.20570015
   0.75000000  0.51631208  0.79429985
   0.25000000  0.98368792  0.29429985
   0.75000000  0.01631208  0.70570015
   0.25000000  0.14286599  0.51675960
   0.75000000  0.85713401  0.48324040
   0.25000000  0.64286599  0.98324040
   0.75000000  0.35713401  0.01675960
   0.75000000  0.26995909  0.30228316
   0.25000000  0.73004091  0.69771684
   0.25000000  0.23004091  0.80228316
   0.75000000  0.76995909  0.19771684
   0.75000000  0.74898039  0.85969767
   0.25000000  0.25101961  0.14030233
   0.75000000  0.24898039  0.64030233
   0.25000000  0.75101961  0.35969767
   0.25000000  0.92692126  0.61167881
   0.75000000  0.57307874  0.11167881
   0.25000000  0.42692126  0.88832119
   0.75000000  0.07307874  0.38832119
   0.75000000  0.09034545  0.88671386
   0.25000000  0.90965455  0.11328614
   0.75000000  0.59034545  0.61328614
   0.25000000  0.40965455  0.38671386
Al4C3 anti-CaFe2O4 - H(P) scan @ 20 GPa 
           1
     2.887322    0.000000    0.000000
     0.000000    8.820793    0.000000
     0.000000    0.000000   10.232266
   Al   C 
    16    12
Direct configuration=     7
   0.25000000  0.42039488  0.58424861
   0.75000000  0.57960512  0.41575139
   0.25000000  0.92039488  0.91575139
   0.75000000  0.07960512  0.08424861
   0.25000000  0.48328534  0.20572710
   0.75000000  0.51671466  0.79427290
   0.25000000  0.98328534  0.29427290
   0.75000000  0.01671466  0.70572710
   0.25000000  0.14247739  0.51697806
   0.75000000  0.85752261  0.48302194
   0.25000000  0.64247739  0.98302194
   0.75000000  0.35752261  0.01697806
   0.75000000  0.27032393  0.30230553
   0.25000000  0.72967607  0.69769447
   0.25000000  0.22967607  0.80230553
   0.75000000  0.77032393  0.19769447
   0.75000000  0.74855756  0.86003492
   0.25000000  0.25144244  0.13996508
   0.75000000  0.24855756  0.63996508
   0.25000000  0.75144244  0.36003492
   0.25000000  0.92676082  0.61152461
   0.75000000  0.57323918  0.11152461
   0.25000000  0.42676082  0.88847539
   0.75000000  0.07323918  0.38847539
   0.75000000  0.08973944  0.88638605
   0.25000000  0.91026056  0.11361395
   0.75000000  0.58973944  0.61361395
   0.25000000  0.41026056  0.38638605
Al4C3 anti-CaFe2O4 - H(P) scan @ 20 GPa 
           1
     2.887389    0.000000    0.000000
     0.000000    8.820999    0.000000
     0.000000    0.000000   10.232505
   Al   C 
    16    12
Direct configuration=     8
   0.25000000  0.42033819  0.58420754
   0.75000000  0.57966181  0.41579246
   0.25000000  0.92033819  0.91579246
   0.75000000  0.07966181  0.08420754
   0.25000000  0.48322259  0.20573130
   0.75000000  0.51677741  0.79426870
   0.25000000  0.98322259  0.29426870
   0.75000000  0.01677741  0.70573130
   0.25000000  0.14241682  0.51701211
   0.75000000  0.85758318  0.48298789
   0.25000000  0.64241682  0.98298789
   0.75000000  0.35758318  0.01701211
   0.75000000  0.27038080  0.30230902
   0.25000000  0.72961920  0.69769098
   0.25000000  0.22961920  0.80230902
   0.75000000  0.77038080  0.19769098
   0.75000000  0.74849165  0.86008748
   0.25000000  0.25150835  0.13991252
   0.75000000  0.24849165  0.63991252
   0.25000000  0.75150835  0.36008748
   0.25000000  0.92673581  0.61150057
   0.75000000  0.57326419  0.11150057
   0.25000000  0.42673581  0.88849943
   0.75000000  0.07326419  0.38849943
   0.75000000  0.08964498  0.88633495
   0.25000000  0.91035502  0.11366505
   0.75000000  0.58964498  0.61366505
   0.25000000  0.41035502  0.38633495
Al4C3 anti-CaFe2O4 - H(P) scan @ 20 GPa 
           1
     2.887677    0.000000    0.000000
     0.000000    8.821879    0.000000
     0.000000    0.000000   10.233525
   Al   C 
    16    12
Direct configuration=     9
   0.25000000  0.41969495  0.58420530
   0.75000000  0.58030505  0.41579470
   0.25000000  0.91969495  0.91579470
   0.75000000  0.08030505  0.08420530
   0.25000000  0.48333858  0.20552559
   0.75000000  0.51666142  0.79447441
   0.25000000  0.98333858  0.29447441
   0.75000000  0.01666142  0.70552559
   0.25000000  0.14200015  0.51708822
   0.75000000  0.85799985  0.48291178
   0.25000000  0.64200015  0.98291178
   0.75000000  0.35799985  0.01708822
   0.75000000  0.27056547  0.30238796
   0.25000000  0.72943453  0.69761204
   0.25000000  0.22943453  0.80238796
   0.75000000  0.77056547  0.19761204
   0.75000000  0.74814794  0.86037507
   0.25000000  0.25185206  0.13962493
   0.75000000  0.24814794  0.63962493
   0.25000000  0.75185206  0.36037507
   0.25000000  0.92648060  0.61146513
   0.75000000  0.57351940  0.11146513
   0.25000000  0.42648060  0.88853487
   0.75000000  0.07351940  0.38853487
   0.75000000  0.08915606  0.88646180
   0.25000000  0.91084394  0.11353820
   0.75000000  0.58915606  0.61353820
   0.25000000  0.41084394  0.38646180
Al4C3 anti-CaFe2O4 - H(P) scan @ 20 GPa 
           1
     2.887696    0.000000    0.000000
     0.000000    8.821934    0.000000
     0.000000    0.000000   10.233590
   Al   C 
    16    12
Direct configuration=    10
   0.25000000  0.41965418  0.58420516
   0.75000000  0.58034582  0.41579484
   0.25000000  0.91965418  0.91579484
   0.75000000  0.08034582  0.08420516
   0.25000000  0.48334593  0.20551255
   0.75000000  0.51665407  0.79448745
   0.25000000  0.98334593  0.29448745
   0.75000000  0.01665407  0.70551255
   0.25000000  0.14197374  0.51709305
   0.75000000  0.85802626  0.48290695
   0.25000000  0.64197374  0.98290695
   0.75000000  0.35802626  0.01709305
   0.75000000  0.27057717  0.30239296
   0.25000000  0.72942283  0.69760704
   0.25000000  0.22942283  0.80239296
   0.75000000  0.77057717  0.19760704
   0.75000000  0.74812615  0.86039330
   0.25000000  0.25187385  0.13960670
   0.75000000  0.24812615  0.63960670
   0.25000000  0.75187385  0.36039330
   0.25000000  0.92646443  0.61146289
   0.75000000  0.57353557  0.11146289
   0.25000000  0.42646443  0.88853711
   0.75000000  0.07353557  0.38853711
   0.75000000  0.08912507  0.88646984
   0.25000000  0.91087493  0.11353016
   0.75000000  0.58912507  0.61353016
   0.25000000  0.41087493  0.38646984
Al4C3 anti-CaFe2O4 - H(P) scan @ 20 GPa 
           1
     2.887786    0.000000    0.000000
     0.000000    8.822212    0.000000
     0.000000    0.000000   10.233912
   Al   C 
    16    12
Direct configuration=    11
   0.25000000  0.41937477  0.58421483
   0.75000000  0.58062523  0.41578517
   0.25000000  0.91937477  0.91578517
   0.75000000  0.08062523  0.08421483
   0.25000000  0.48362989  0.20561614
   0.75000000  0.51637011  0.79438386
   0.25000000  0.98362989  0.29438386
   0.75000000  0.01637011  0.70561614
   0.25000000  0.14182166  0.51704527
   0.75000000  0.85817834  0.48295473
   0.25000000  0.64182166  0.98295473
   0.75000000  0.35817834  0.01704527
   0.75000000  0.27091302  0.30260322
   0.25000000  0.72908698  0.69739678
   0.25000000  0.22908698  0.80260322
   0.75000000  0.77091302  0.19739678
   0.75000000  0.74785716  0.86038960
   0.25000000  0.25214284  0.13961040
   0.75000000  0.24785716  0.63961040
   0.25000000  0.75214284  0.36038960
   0.25000000  0.92628166  0.61152132
   0.75000000  0.57371834  0.11152132
   0.25000000  0.42628166  0.88847868
   0.75000000  0.07371834  0.38847868
   0.75000000  0.08895177  0.88642006
   0.25000000  0.91104823  0.11357994
   0.75000000  0.58895177  0.61357994
   0.25000000  0.41104823  0.38642006
Al4C3 anti-CaFe2O4 - H(P) scan @ 20 GPa 
           1
     2.887923    0.000000    0.000000
     0.000000    8.822628    0.000000
     0.000000    0.000000   10.234395
   Al   C 
    16    12
Direct configuration=    12
   0.25000000  0.41895479  0.58422935
   0.75000000  0.58104521  0.41577065
   0.25000000  0.91895479  0.91577065
   0.75000000  0.08104521  0.08422935
   0.25000000  0.48405670  0.20577182
   0.75000000  0.51594330  0.79422818
   0.25000000  0.98405670  0.29422818
   0.75000000  0.01594330  0.70577182
   0.25000000  0.14159308  0.51697346
   0.75000000  0.85840692  0.48302654
   0.25000000  0.64159308  0.98302654
   0.75000000  0.35840692  0.01697346
   0.75000000  0.27141781  0.30291924
   0.25000000  0.72858219  0.69708076
   0.25000000  0.22858219  0.80291924
   0.75000000  0.77141781  0.19708076
   0.75000000  0.74745287  0.86038403
   0.25000000  0.25254713  0.13961597
   0.75000000  0.24745287  0.63961597
   0.25000000  0.75254713  0.36038403
   0.25000000  0.92600696  0.61160914
   0.75000000  0.57399304  0.11160914
   0.25000000  0.42600696  0.88839086
   0.75000000  0.07399304  0.38839086
   0.75000000  0.08869128  0.88634525
   0.25000000  0.91130872  0.11365475
   0.75000000  0.58869128  0.61365475
   0.25000000  0.41130872  0.38634525
Al4C3 anti-CaFe2O4 - H(P) scan @ 20 GPa 
           1
     2.888094    0.000000    0.000000
     0.000000    8.823151    0.000000
     0.000000    0.000000   10.235001
   Al   C 
    16    12
Direct configuration=    13
   0.25000000  0.41884419  0.58405703
   0.75000000  0.58115581  0.41594297
   0.25000000  0.91884419  0.91594297
   0.75000000  0.08115581  0.08405703
   0.25000000  0.48445683  0.20587865
   0.75000000  0.51554317  0.79412135
   0.25000000  0.98445683  0.29412135
   0.75000000  0.01554317  0.70587865
   0.25000000  0.14143831  0.51723189
   0.75000000  0.85856169  0.48276811
   0.25000000  0.64143831  0.98276811
   0.75000000  0.35856169  0.01723189
   0.75000000  0.27189724  0.30304870
   0.25000000  0.72810276  0.69695130
   0.25000000  0.22810276  0.80304870
   0.75000000  0.77189724  0.19695130
   0.75000000  0.74727523  0.86027783
   0.25000000  0.25272477  0.13972217
   0.75000000  0.24727523  0.63972217
   0.25000000  0.75272477  0.36027783
   0.25000000  0.92584522  0.61165162
   0.75000000  0.57415478  0.11165162
   0.25000000  0.42584522  0.88834838
   0.75000000  0.07415478  0.38834838
   0.75000000  0.08839581  0.88651504
   0.25000000  0.91160419  0.11348496
   0.75000000  0.58839581  0.61348496
   0.25000000  0.41160419  0.38651504
Al4C3 anti-CaFe2O4 - H(P) scan @ 20 GPa 
           1
     2.888156    0.000000    0.000000
     0.000000    8.823340    0.000000
     0.000000    0.000000   10.235220
   Al   C 
    16    12
Direct configuration=    14
   0.25000000  0.41880418  0.58399469
   0.75000000  0.58119582  0.41600531
   0.25000000  0.91880418  0.91600531
   0.75000000  0.08119582  0.08399469
   0.25000000  0.48460158  0.20591730
   0.75000000  0.51539842  0.79408270
   0.25000000  0.98460158  0.29408270
   0.75000000  0.01539842  0.70591730
   0.25000000  0.14138232  0.51732538
   0.75000000  0.85861768  0.48267462
   0.25000000  0.64138232  0.98267462
   0.75000000  0.35861768  0.01732538
   0.75000000  0.27207068  0.30309553
   0.25000000  0.72792932  0.69690447
   0.25000000  0.22792932  0.80309553
   0.75000000  0.77207068  0.19690447
   0.75000000  0.74721096  0.86023941
   0.25000000  0.25278904  0.13976059
   0.75000000  0.24721096  0.63976059
   0.25000000  0.75278904  0.36023941
   0.25000000  0.92578672  0.61166698
   0.75000000  0.57421328  0.11166698
   0.25000000  0.42578672  0.88833302
   0.75000000  0.07421328  0.38833302
   0.75000000  0.08828892  0.88657646
   0.25000000  0.91171108  0.11342354
   0.75000000  0.58828892  0.61342354
   0.25000000  0.41171108  0.38657646
Al4C3 anti-CaFe2O4 - H(P) scan @ 20 GPa 
           1
     2.888071    0.000000    0.000000
     0.000000    8.823081    0.000000
     0.000000    0.000000   10.234920
   Al   C 
    16    12
Direct configuration=    15
   0.25000000  0.41873142  0.58394779
   0.75000000  0.58126858  0.41605221
   0.25000000  0.91873142  0.91605221
   0.75000000  0.08126858  0.08394779
   0.25000000  0.48512753  0.20607299
   0.75000000  0.51487247  0.79392701
   0.25000000  0.98512753  0.29392701
   0.75000000  0.01487247  0.70607299
   0.25000000  0.14113321  0.51771052
   0.75000000  0.85886679  0.48228948
   0.25000000  0.64113321  0.98228948
   0.75000000  0.35886679  0.01771052
   0.75000000  0.27218725  0.30318869
   0.25000000  0.72781275  0.69681131
   0.25000000  0.22781275  0.80318869
   0.75000000  0.77218725  0.19681131
   0.75000000  0.74709319  0.86005825
   0.25000000  0.25290681  0.13994175
   0.75000000  0.24709319  0.63994175
   0.25000000  0.75290681  0.36005825
   0.25000000  0.92545702  0.61158484
   0.75000000  0.57454298  0.11158484
   0.25000000  0.42545702  0.88841516
   0.75000000  0.07454298  0.38841516
   0.75000000  0.08796735  0.88654953
   0.25000000  0.91203265  0.11345047
   0.75000000  0.58796735  0.61345047
   0.25000000  0.41203265  0.38654953
Al4C3 anti-CaFe2O4 - H(P) scan @ 20 GPa 
           1
     2.888022    0.000000    0.000000
     0.000000    8.822931    0.000000
     0.000000    0.000000   10.234746
   Al   C 
    16    12
Direct configuration=    16
   0.25000000  0.41868902  0.58392046
   0.75000000  0.58131098  0.41607954
   0.25000000  0.91868902  0.91607954
   0.75000000  0.08131098  0.08392046
   0.25000000  0.48543404  0.20616372
   0.75000000  0.51456596  0.79383628
   0.25000000  0.98543404  0.29383628
   0.75000000  0.01456596  0.70616372
   0.25000000  0.14098803  0.51793497
   0.75000000  0.85901197  0.48206503
   0.25000000  0.64098803  0.98206503
   0.75000000  0.35901197  0.01793497
   0.75000000  0.27225519  0.30324298
   0.25000000  0.72774481  0.69675702
   0.25000000  0.22774481  0.80324298
   0.75000000  0.77225519  0.19675702
   0.75000000  0.74702455  0.85995267
   0.25000000  0.25297545  0.14004733
   0.75000000  0.24702455  0.64004733
   0.25000000  0.75297545  0.35995267
   0.25000000  0.92526488  0.61153696
   0.75000000  0.57473512  0.11153696
   0.25000000  0.42526488  0.88846304
   0.75000000  0.07473512  0.38846304
   0.75000000  0.08777994  0.88653384
   0.25000000  0.91222006  0.11346616
   0.75000000  0.58777994  0.61346616
   0.25000000  0.41222006  0.38653384
Al4C3 anti-CaFe2O4 - H(P) scan @ 20 GPa 
           1
     2.888693    0.000000    0.000000
     0.000000    8.824980    0.000000
     0.000000    0.000000   10.237123
   Al   C 
    16    12
Direct configuration=    17
   0.25000000  0.41858763  0.58385830
   0.75000000  0.58141237  0.41614170
   0.25000000  0.91858763  0.91614170
   0.75000000  0.08141237  0.08385830
   0.25000000  0.48590871  0.20625268
   0.75000000  0.51409129  0.79374732
   0.25000000  0.98590871  0.29374732
   0.75000000  0.01409129  0.70625268
   0.25000000  0.14080892  0.51820354
   0.75000000  0.85919108  0.48179646
   0.25000000  0.64080892  0.98179646
   0.75000000  0.35919108  0.01820354
   0.75000000  0.27245949  0.30324172
   0.25000000  0.72754051  0.69675828
   0.25000000  0.22754051  0.80324172
   0.75000000  0.77245949  0.19675828
   0.75000000  0.74694088  0.85981508
   0.25000000  0.25305912  0.14018492
   0.75000000  0.24694088  0.64018492
   0.25000000  0.75305912  0.35981508
   0.25000000  0.92526194  0.61122539
   0.75000000  0.57473806  0.11122539
   0.25000000  0.42526194  0.88877461
   0.75000000  0.07473806  0.38877461
   0.75000000  0.08765524  0.88634476
   0.25000000  0.91234476  0.11365524
   0.75000000  0.58765524  0.61365524
   0.25000000  0.41234476  0.38634476
Al4C3 anti-CaFe2O4 - H(P) scan @ 20 GPa 
           1
     2.888472    0.000000    0.000000
     0.000000    8.824308    0.000000
     0.000000    0.000000   10.236343
   Al   C 
    16    12
Direct configuration=    18
   0.25000000  0.41862088  0.58387869
   0.75000000  0.58137912  0.41612131
   0.25000000  0.91862088  0.91612131
   0.75000000  0.08137912  0.08387869
   0.25000000  0.48575304  0.20622350
   0.75000000  0.51424696  0.79377650
   0.25000000  0.98575304  0.29377650
   0.75000000  0.01424696  0.70622350
   0.25000000  0.14086767  0.51811546
   0.75000000  0.85913233  0.48188454
   0.25000000  0.64086767  0.98188454
   0.75000000  0.35913233  0.01811546
   0.75000000  0.27239249  0.30324213
   0.25000000  0.72760751  0.69675787
   0.25000000  0.22760751  0.80324213
   0.75000000  0.77239249  0.19675787
   0.75000000  0.74696832  0.85986021
   0.25000000  0.25303168  0.14013979
   0.75000000  0.24696832  0.64013979
   0.25000000  0.75303168  0.35986021
   0.25000000  0.92526290  0.61132758
   0.75000000  0.57473710  0.11132758
   0.25000000  0.42526290  0.88867242
   0.75000000  0.07473710  0.38867242
   0.75000000  0.08769614  0.88640677
   0.25000000  0.91230386  0.11359323
   0.75000000  0.58769614  0.61359323
   0.25000000  0.41230386  0.38640677
Al4C3 anti-CaFe2O4 - H(P) scan @ 20 GPa 
           1
     2.888025    0.000000    0.000000
     0.000000    8.822942    0.000000
     0.000000    0.000000   10.234759
   Al   C 
    16    12
Direct configuration=    19
   0.25000000  0.41854025  0.58378068
   0.75000000  0.58145975  0.41621932
   0.25000000  0.91854025  0.91621932
   0.75000000  0.08145975  0.08378068
   0.25000000  0.48602492  0.20613198
   0.75000000  0.51397508  0.79386802
   0.25000000  0.98602492  0.29386802
   0.75000000  0.01397508  0.70613198
   0.25000000  0.14080959  0.51817005
   0.75000000  0.85919041  0.48182995
   0.25000000  0.64080959  0.98182995
   0.75000000  0.35919041  0.01817005
   0.75000000  0.27241579  0.30324585
   0.25000000  0.72758421  0.69675415
   0.25000000  0.22758421  0.80324585
   0.75000000  0.77241579  0.19675415
   0.75000000  0.74700813  0.85984149
   0.25000000  0.25299187  0.14015851
   0.75000000  0.24700813  0.64015851
   0.25000000  0.75299187  0.35984149
   0.25000000  0.92527746  0.61123085
   0.75000000  0.57472254  0.11123085
   0.25000000  0.42527746  0.88876915
   0.75000000  0.07472254  0.38876915
   0.75000000  0.08767586  0.88638068
   0.25000000  0.91232414  0.11361932
   0.75000000  0.58767586  0.61361932
   0.25000000  0.41232414  0.38638068
Al4C3 anti-CaFe2O4 - H(P) scan @ 20 GPa 
           1
     2.888245    0.000000    0.000000
     0.000000    8.823613    0.000000
     0.000000    0.000000   10.235538
   Al   C 
    16    12
Direct configuration=    20
   0.25000000  0.41857989  0.58382886
   0.75000000  0.58142011  0.41617114
   0.25000000  0.91857989  0.91617114
   0.75000000  0.08142011  0.08382886
   0.25000000  0.48589125  0.20617698
   0.75000000  0.51410875  0.79382302
   0.25000000  0.98589125  0.29382302
   0.75000000  0.01410875  0.70617698
   0.25000000  0.14083814  0.51814321
   0.75000000  0.85916186  0.48185679
   0.25000000  0.64083814  0.98185679
   0.75000000  0.35916186  0.01814321
   0.75000000  0.27240433  0.30324402
   0.25000000  0.72759567  0.69675598
   0.25000000  0.22759567  0.80324402
   0.75000000  0.77240433  0.19675598
   0.75000000  0.74698856  0.85985069
   0.25000000  0.25301144  0.14014931
   0.75000000  0.24698856  0.64014931
   0.25000000  0.75301144  0.35985069
   0.25000000  0.92527030  0.61127840
   0.75000000  0.57472970  0.11127840
   0.25000000  0.42527030  0.88872160
   0.75000000  0.07472970  0.38872160
   0.75000000  0.08768583  0.88639351
   0.25000000  0.91231417  0.11360649
   0.75000000  0.58768583  0.61360649
   0.25000000  0.41231417  0.38639351
