       N       E                     dE             d eps       ncg     rms          rms(c)
DAV:   1    -0.342801354751E+03   -0.34280E+03   -0.22276E-04  2592   0.974E-02    0.292E-02
DAV:   2    -0.342801384533E+03   -0.29782E-04   -0.36370E-06  1314   0.119E-02    0.163E-02
DAV:   3    -0.342801398532E+03   -0.14000E-04   -0.62667E-06  1314   0.153E-02    0.155E-03
DAV:   4    -0.342801398533E+03   -0.16553E-09   -0.22262E-07  1278   0.224E-03
   1 F= -.23530133E+03 E0= -.23530133E+03  d E =-.235301E+03
       N       E                     dE             d eps       ncg     rms          rms(c)
DAV:   1    -0.333815778901E+03    0.89856E+01   -0.49309E+01  2628   0.215E+01    0.737E+00
DAV:   2    -0.332501527471E+03    0.13143E+01   -0.36621E+00  2808   0.434E+00    0.317E+00
DAV:   3    -0.332404303903E+03    0.97224E-01   -0.53745E-01  2814   0.160E+00    0.990E-01
DAV:   4    -0.332391051924E+03    0.13252E-01   -0.51480E-02  2886   0.507E-01    0.378E-01
DAV:   5    -0.332388400663E+03    0.26513E-02   -0.10884E-02  2862   0.225E-01    0.218E-01
DAV:   6    -0.332387947973E+03    0.45269E-03   -0.19107E-03  2784   0.102E-01    0.116E-01
DAV:   7    -0.332387858584E+03    0.89389E-04   -0.47395E-04  3234   0.649E-02    0.502E-02
DAV:   8    -0.332387845205E+03    0.13379E-04   -0.18724E-04  2736   0.350E-02    0.106E-02
DAV:   9    -0.332387846400E+03   -0.11955E-05   -0.21181E-05  1554   0.117E-02
   2 F= -.23452717E+03 E0= -.23452717E+03  d E =0.774155E+00
       N       E                     dE             d eps       ncg     rms          rms(c)
DAV:   1    -0.339965825836E+03   -0.75780E+01   -0.16440E+01  2598   0.120E+01    0.434E+00
DAV:   2    -0.339502074214E+03    0.46375E+00   -0.13058E+00  2820   0.256E+00    0.181E+00
DAV:   3    -0.339470027822E+03    0.32046E-01   -0.17843E-01  2796   0.909E-01    0.590E-01
DAV:   4    -0.339465115834E+03    0.49120E-02   -0.19461E-02  2892   0.310E-01    0.218E-01
DAV:   5    -0.339464023726E+03    0.10921E-02   -0.48893E-03  2856   0.148E-01    0.123E-01
DAV:   6    -0.339463803301E+03    0.22043E-03   -0.87573E-04  2820   0.685E-02    0.720E-02
DAV:   7    -0.339463763467E+03    0.39834E-04   -0.23525E-04  3240   0.446E-02    0.430E-02
DAV:   8    -0.339463723178E+03    0.40289E-04   -0.16181E-04  2694   0.290E-02    0.120E-02
DAV:   9    -0.339463724391E+03   -0.12128E-05   -0.10379E-05  1344   0.871E-03
   3 F= -.23600304E+03 E0= -.23600304E+03  d E =-.701717E+00
       N       E                     dE             d eps       ncg     rms          rms(c)
DAV:   1    -0.339413192714E+03    0.50530E-01   -0.13278E-03  2634   0.108E-01    0.365E-02
DAV:   2    -0.339413166973E+03    0.25741E-04   -0.90095E-05  2796   0.214E-02    0.162E-02
DAV:   3    -0.339413168461E+03   -0.14880E-05   -0.11192E-05  1296   0.757E-03
   4 F= -.23600318E+03 E0= -.23600318E+03  d E =-.701856E+00
       N       E                     dE             d eps       ncg     rms          rms(c)
DAV:   1    -0.339332162609E+03    0.81004E-01   -0.22817E-01  2778   0.142E+00    0.174E-01
DAV:   2    -0.339335313222E+03   -0.31506E-02   -0.34231E-02  2874   0.495E-01    0.204E-01
DAV:   3    -0.339335420535E+03   -0.10731E-03   -0.67363E-04  3090   0.655E-02    0.216E-01
DAV:   4    -0.339335268109E+03    0.15243E-03   -0.28222E-05  2286   0.158E-02    0.212E-01
DAV:   5    -0.339334838056E+03    0.43005E-03   -0.37716E-03  2850   0.144E-01    0.301E-01
DAV:   6    -0.339334416004E+03    0.42205E-03   -0.63404E-04  3048   0.775E-02    0.169E-01
DAV:   7    -0.339334365101E+03    0.50903E-04   -0.23209E-04  3060   0.348E-02    0.124E-01
DAV:   8    -0.339334348236E+03    0.16865E-04   -0.36472E-05  2226   0.176E-02    0.110E-01
DAV:   9    -0.339334358703E+03   -0.10467E-04   -0.80529E-05  2586   0.208E-02    0.484E-02
DAV:  10    -0.339334326390E+03    0.32313E-04   -0.83718E-05  2904   0.314E-02    0.198E-02
DAV:  11    -0.339334326642E+03   -0.25114E-06   -0.48032E-05  2166   0.147E-02
   5 F= -.23600527E+03 E0= -.23600527E+03  d E =-.209004E-02
       N       E                     dE             d eps       ncg     rms          rms(c)
DAV:   1    -0.339376110407E+03   -0.41784E-01   -0.47829E-02  2766   0.650E-01    0.806E-02
DAV:   2    -0.339376779957E+03   -0.66955E-03   -0.72697E-03  2874   0.227E-01    0.935E-02
DAV:   3    -0.339376795399E+03   -0.15442E-04   -0.13784E-04  3054   0.300E-02    0.969E-02
DAV:   4    -0.339376784744E+03    0.10655E-04   -0.20511E-06  1584   0.490E-03    0.966E-02
DAV:   5    -0.339376844079E+03   -0.59335E-04   -0.87014E-04  2856   0.837E-02    0.192E-01
DAV:   6    -0.339376779442E+03    0.64637E-04   -0.47210E-05  2730   0.230E-02    0.173E-01
DAV:   7    -0.339376695015E+03    0.84427E-04   -0.37414E-05  2484   0.200E-02    0.143E-01
DAV:   8    -0.339376642699E+03    0.52315E-04   -0.25510E-05  2112   0.165E-02    0.114E-01
DAV:   9    -0.339376682214E+03   -0.39514E-04   -0.18702E-05  1662   0.137E-02    0.124E-01
DAV:  10    -0.339376600280E+03    0.81934E-04   -0.48316E-05  2490   0.270E-02    0.649E-02
DAV:  11    -0.339376596195E+03    0.40848E-05   -0.27924E-05  1818   0.109E-02
   6 F= -.23601051E+03 E0= -.23601051E+03  d E =-.732376E-02
