Al4C3 Fd-3m polymorph (findsym-output) -
   1.00000000000000     
     7.9505272751490041    0.0000000000000000    0.0000000000000000
     0.0000000000000000    7.9505272751490041    0.0000000000000000
     0.0000000000000000    0.0000000000000000    7.9505272751490041
   Al   C 
    32    24
Direct
  0.7599988731936513  0.7599988731936513  0.7599988731936513
  0.2400011268063486  0.2400011268063486  0.2400011268063486
  0.9900011268063487  0.4900011268063486  0.2599988731936514
  0.0099988731936514  0.5099988731936513  0.7400011268063487
  0.4900011268063486  0.2599988731936514  0.9900011268063487
  0.5099988731936513  0.7400011268063487  0.0099988731936514
  0.2599988731936514  0.9900011268063487  0.4900011268063486
  0.7400011268063487  0.0099988731936514  0.5099988731936513
  0.5099988731936513  0.0099988731936514  0.7400011268063487
  0.4900011268063486  0.9900011268063487  0.2599988731936514
  0.0099988731936514  0.7400011268063487  0.5099988731936513
  0.9900011268063487  0.2599988731936514  0.4900011268063486
  0.7400011268063487  0.5099988731936513  0.0099988731936514
  0.2599988731936514  0.4900011268063486  0.9900011268063487
  0.7599988731936513  0.2599988731936514  0.2599988731936514
  0.2400011268063486  0.7400011268063487  0.7400011268063487
  0.9900011268063487  0.9900011268063487  0.7599988731936513
  0.0099988731936514  0.0099988731936514  0.2400011268063486
  0.4900011268063486  0.7599988731936513  0.4900011268063486
  0.5099988731936513  0.2400011268063486  0.5099988731936513
  0.5099988731936513  0.5099988731936513  0.2400011268063486
  0.4900011268063486  0.4900011268063486  0.7599988731936513
  0.0099988731936514  0.2400011268063486  0.0099988731936514
  0.9900011268063487  0.7599988731936513  0.9900011268063487
  0.2599988731936514  0.7599988731936513  0.2599988731936514
  0.7400011268063487  0.2400011268063486  0.7400011268063487
  0.7599988731936513  0.9900011268063487  0.9900011268063487
  0.2400011268063486  0.0099988731936514  0.0099988731936514
  0.2400011268063486  0.5099988731936513  0.5099988731936513
  0.7599988731936513  0.4900011268063486  0.4900011268063486
  0.2599988731936514  0.2599988731936514  0.7599988731936513
  0.7400011268063487  0.7400011268063487  0.2400011268063486
 -0.0000000000000000 -0.0000000000000000  0.0000000000000000
  0.7500000000000000  0.2500000000000000  0.5000000000000000
  0.2500000000000000  0.7500000000000000  0.5000000000000000
  0.2500000000000000  0.5000000000000000  0.7500000000000000
  0.7500000000000000  0.5000000000000000  0.2500000000000000
  0.5000000000000000  0.7500000000000000  0.2500000000000000
  0.5000000000000000  0.2500000000000000  0.7500000000000000
 -0.0000000000000000  0.5000000000000000  0.5000000000000000
  0.7500000000000000  0.7500000000000000  0.0000000000000000
  0.2500000000000000  0.2500000000000000  0.0000000000000000
  0.2500000000000000 -0.0000000000000000  0.2500000000000000
  0.7500000000000000 -0.0000000000000000  0.7500000000000000
  0.5000000000000000 -0.0000000000000000  0.5000000000000000
 -0.0000000000000000  0.7500000000000000  0.7500000000000000
 -0.0000000000000000  0.2500000000000000  0.2500000000000000
  0.5000000000000000  0.5000000000000000  0.0000000000000000
  0.3750000000000000  0.3750000000000000  0.3750000000000000
  0.6250000000000000  0.6250000000000000  0.6250000000000000
  0.3750000000000000  0.8750000000000000  0.8750000000000000
  0.6250000000000000  0.1250000000000000  0.1250000000000000
  0.8750000000000000  0.8750000000000000  0.3750000000000000
  0.1250000000000000  0.1250000000000000  0.6250000000000000
  0.8750000000000000  0.3750000000000000  0.8750000000000000
  0.1250000000000000  0.6250000000000000  0.1250000000000000
 
  0.00000000E+00  0.00000000E+00  0.00000000E+00
  0.00000000E+00  0.00000000E+00  0.00000000E+00
  0.00000000E+00  0.00000000E+00  0.00000000E+00
  0.00000000E+00  0.00000000E+00  0.00000000E+00
  0.00000000E+00  0.00000000E+00  0.00000000E+00
  0.00000000E+00  0.00000000E+00  0.00000000E+00
  0.00000000E+00  0.00000000E+00  0.00000000E+00
  0.00000000E+00  0.00000000E+00  0.00000000E+00
  0.00000000E+00  0.00000000E+00  0.00000000E+00
  0.00000000E+00  0.00000000E+00  0.00000000E+00
  0.00000000E+00  0.00000000E+00  0.00000000E+00
  0.00000000E+00  0.00000000E+00  0.00000000E+00
  0.00000000E+00  0.00000000E+00  0.00000000E+00
  0.00000000E+00  0.00000000E+00  0.00000000E+00
  0.00000000E+00  0.00000000E+00  0.00000000E+00
  0.00000000E+00  0.00000000E+00  0.00000000E+00
  0.00000000E+00  0.00000000E+00  0.00000000E+00
  0.00000000E+00  0.00000000E+00  0.00000000E+00
  0.00000000E+00  0.00000000E+00  0.00000000E+00
  0.00000000E+00  0.00000000E+00  0.00000000E+00
  0.00000000E+00  0.00000000E+00  0.00000000E+00
  0.00000000E+00  0.00000000E+00  0.00000000E+00
  0.00000000E+00  0.00000000E+00  0.00000000E+00
  0.00000000E+00  0.00000000E+00  0.00000000E+00
  0.00000000E+00  0.00000000E+00  0.00000000E+00
  0.00000000E+00  0.00000000E+00  0.00000000E+00
  0.00000000E+00  0.00000000E+00  0.00000000E+00
  0.00000000E+00  0.00000000E+00  0.00000000E+00
  0.00000000E+00  0.00000000E+00  0.00000000E+00
  0.00000000E+00  0.00000000E+00  0.00000000E+00
  0.00000000E+00  0.00000000E+00  0.00000000E+00
  0.00000000E+00  0.00000000E+00  0.00000000E+00
  0.00000000E+00  0.00000000E+00  0.00000000E+00
  0.00000000E+00  0.00000000E+00  0.00000000E+00
  0.00000000E+00  0.00000000E+00  0.00000000E+00
  0.00000000E+00  0.00000000E+00  0.00000000E+00
  0.00000000E+00  0.00000000E+00  0.00000000E+00
  0.00000000E+00  0.00000000E+00  0.00000000E+00
  0.00000000E+00  0.00000000E+00  0.00000000E+00
  0.00000000E+00  0.00000000E+00  0.00000000E+00
  0.00000000E+00  0.00000000E+00  0.00000000E+00
  0.00000000E+00  0.00000000E+00  0.00000000E+00
  0.00000000E+00  0.00000000E+00  0.00000000E+00
  0.00000000E+00  0.00000000E+00  0.00000000E+00
  0.00000000E+00  0.00000000E+00  0.00000000E+00
  0.00000000E+00  0.00000000E+00  0.00000000E+00
  0.00000000E+00  0.00000000E+00  0.00000000E+00
  0.00000000E+00  0.00000000E+00  0.00000000E+00
  0.00000000E+00  0.00000000E+00  0.00000000E+00
  0.00000000E+00  0.00000000E+00  0.00000000E+00
  0.00000000E+00  0.00000000E+00  0.00000000E+00
  0.00000000E+00  0.00000000E+00  0.00000000E+00
  0.00000000E+00  0.00000000E+00  0.00000000E+00
  0.00000000E+00  0.00000000E+00  0.00000000E+00
  0.00000000E+00  0.00000000E+00  0.00000000E+00
  0.00000000E+00  0.00000000E+00  0.00000000E+00
