  14  14   0   0
  0.7819065E+01  0.8214367E-09  0.4743046E-09  0.2809645E-09  0.5000000E-15
  1.000000000000000E-004
  CAR 
 Al4C3 Pbam - r2SCAN H(P) scan @ 90 GPa (
     24.03397285     -6.64108325  301     12.71316038      1.00000000
     -6.641  0.0000E+00  0.0000E+00
     -6.539  0.0000E+00  0.0000E+00
     -6.437  0.0000E+00  0.0000E+00
     -6.334  0.0000E+00  0.0000E+00
     -6.232  0.0000E+00  0.0000E+00
     -6.130  0.0000E+00  0.0000E+00
     -6.028  0.0000E+00  0.0000E+00
     -5.925  0.0000E+00  0.0000E+00
     -5.823  0.0000E+00  0.0000E+00
     -5.721  0.0000E+00  0.0000E+00
     -5.619  0.0000E+00  0.0000E+00
     -5.516  0.3571E-17  0.3651E-18
     -5.414  0.3228E-09  0.3300E-10
     -5.312  0.9563E-05  0.9778E-06
     -5.210  0.2565E-03  0.2721E-04
     -5.107  0.1281E-02  0.1582E-03
     -5.005  0.2373E-02  0.4008E-03
     -4.903  0.2447E-02  0.6510E-03
     -4.801  0.1869E-02  0.8421E-03
     -4.698  0.2176E-02  0.1065E-02
     -4.596  0.6248E-02  0.1703E-02
     -4.494  0.6219E-02  0.2339E-02
     -4.392  0.7417E-03  0.2415E-02
     -4.289  0.2530E-02  0.2674E-02
     -4.187  0.6234E-02  0.3311E-02
     -4.085  0.7013E-02  0.4028E-02
     -3.983  0.6320E-02  0.4675E-02
     -3.880  0.4761E-02  0.5161E-02
     -3.778  0.4172E-02  0.5588E-02
     -3.676  0.8502E-02  0.6457E-02
     -3.574  0.1004E-01  0.7484E-02
     -3.471  0.3029E-02  0.7793E-02
     -3.369  0.5831E-02  0.8390E-02
     -3.267  0.8266E-02  0.9235E-02
     -3.165  0.6342E-02  0.9883E-02
     -3.062  0.9108E-02  0.1081E-01
     -2.960  0.5130E-02  0.1134E-01
     -2.858  0.5510E-02  0.1190E-01
     -2.756  0.8123E-02  0.1273E-01
     -2.653  0.6151E-02  0.1336E-01
     -2.551  0.7098E-02  0.1409E-01
     -2.449  0.4125E-02  0.1451E-01
     -2.347  0.1085E-01  0.1562E-01
     -2.244  0.1517E-01  0.1717E-01
     -2.142  0.8855E-02  0.1808E-01
     -2.040  0.6514E-02  0.1874E-01
     -1.938  0.1056E-01  0.1982E-01
     -1.835  0.1528E-01  0.2138E-01
     -1.733  0.7198E-02  0.2212E-01
     -1.631  0.5591E-02  0.2269E-01
     -1.529  0.9191E-02  0.2363E-01
     -1.426  0.1294E-01  0.2496E-01
     -1.324  0.1293E-01  0.2628E-01
     -1.222  0.1215E-01  0.2752E-01
     -1.120  0.1464E-01  0.2902E-01
     -1.017  0.1346E-01  0.3039E-01
     -0.915  0.1420E-01  0.3185E-01
     -0.813  0.1465E-01  0.3334E-01
     -0.711  0.1836E-01  0.3522E-01
     -0.608  0.1956E-01  0.3722E-01
     -0.506  0.1414E-01  0.3867E-01
     -0.404  0.2455E-01  0.4118E-01
     -0.302  0.2902E-01  0.4414E-01
     -0.199  0.1586E-01  0.4577E-01
     -0.097  0.9229E-02  0.4671E-01
      0.005  0.1882E-01  0.4863E-01
      0.107  0.1138E-01  0.4980E-01
      0.210  0.5161E-02  0.5033E-01
      0.312  0.9138E-02  0.5126E-01
      0.414  0.1349E-01  0.5264E-01
      0.516  0.8667E-02  0.5353E-01
      0.619  0.6459E-02  0.5419E-01
      0.721  0.5678E-02  0.5477E-01
      0.823  0.9157E-02  0.5570E-01
      0.925  0.8038E-02  0.5652E-01
      1.028  0.4463E-02  0.5698E-01
      1.130  0.3135E-02  0.5730E-01
      1.232  0.3499E-02  0.5766E-01
      1.334  0.3596E-02  0.5803E-01
      1.437  0.4050E-02  0.5844E-01
      1.539  0.2861E-02  0.5873E-01
      1.641  0.2453E-02  0.5898E-01
      1.743  0.1321E-02  0.5912E-01
      1.846  0.2239E-02  0.5935E-01
      1.948  0.9637E-03  0.5945E-01
      2.050  0.1633E-02  0.5961E-01
      2.152  0.1748E-02  0.5979E-01
      2.255  0.6853E-03  0.5986E-01
      2.357  0.8343E-03  0.5995E-01
      2.459  0.2184E-03  0.5997E-01
      2.561  0.2098E-03  0.5999E-01
      2.664  0.1872E-03  0.6001E-01
      2.766  0.1389E-02  0.6015E-01
      2.868  0.3038E-02  0.6046E-01
      2.970  0.1987E-02  0.6067E-01
      3.073  0.3476E-02  0.6102E-01
      3.175  0.7765E-02  0.6182E-01
      3.277  0.6240E-02  0.6245E-01
      3.379  0.1265E-01  0.6375E-01
      3.482  0.1602E-01  0.6539E-01
      3.584  0.1645E-01  0.6707E-01
      3.686  0.1776E-01  0.6888E-01
      3.788  0.1497E-01  0.7041E-01
      3.891  0.1146E-01  0.7159E-01
      3.993  0.1757E-01  0.7338E-01
      4.095  0.2096E-01  0.7553E-01
      4.197  0.2163E-01  0.7774E-01
      4.300  0.2332E-01  0.8012E-01
      4.402  0.2137E-01  0.8231E-01
      4.504  0.1221E-01  0.8356E-01
      4.606  0.1445E-01  0.8503E-01
      4.709  0.1116E-01  0.8618E-01
      4.811  0.1126E-01  0.8733E-01
      4.913  0.1485E-01  0.8885E-01
      5.015  0.1233E-01  0.9011E-01
      5.118  0.2057E-01  0.9221E-01
      5.220  0.1783E-01  0.9403E-01
      5.322  0.1816E-01  0.9589E-01
      5.424  0.1886E-01  0.9782E-01
      5.527  0.1948E-01  0.9981E-01
      5.629  0.1636E-01  0.1015E+00
      5.731  0.1417E-01  0.1029E+00
      5.833  0.1631E-01  0.1046E+00
      5.936  0.1508E-01  0.1061E+00
      6.038  0.2112E-01  0.1083E+00
      6.140  0.1515E-01  0.1099E+00
      6.242  0.1311E-01  0.1112E+00
      6.345  0.1837E-01  0.1131E+00
      6.447  0.1508E-01  0.1146E+00
      6.549  0.2183E-01  0.1168E+00
      6.651  0.2241E-01  0.1191E+00
      6.754  0.1817E-01  0.1210E+00
      6.856  0.1597E-01  0.1226E+00
      6.958  0.2050E-01  0.1247E+00
      7.060  0.1644E-01  0.1264E+00
      7.163  0.1655E-01  0.1281E+00
      7.265  0.2107E-01  0.1303E+00
      7.367  0.2088E-01  0.1324E+00
      7.469  0.2086E-01  0.1345E+00
      7.572  0.1964E-01  0.1365E+00
      7.674  0.2124E-01  0.1387E+00
      7.776  0.1876E-01  0.1406E+00
      7.878  0.2156E-01  0.1428E+00
      7.981  0.2200E-01  0.1451E+00
      8.083  0.2259E-01  0.1474E+00
      8.185  0.1946E-01  0.1494E+00
      8.287  0.2651E-01  0.1521E+00
      8.390  0.1187E-01  0.1533E+00
      8.492  0.1141E-01  0.1545E+00
      8.594  0.1568E-01  0.1561E+00
      8.696  0.3088E-01  0.1592E+00
      8.799  0.2163E-01  0.1614E+00
      8.901  0.2496E-01  0.1640E+00
      9.003  0.1798E-01  0.1658E+00
      9.105  0.1526E-01  0.1674E+00
      9.208  0.2056E-01  0.1695E+00
      9.310  0.2608E-01  0.1722E+00
      9.412  0.2232E-01  0.1744E+00
      9.514  0.1960E-01  0.1764E+00
      9.617  0.2028E-01  0.1785E+00
      9.719  0.2450E-01  0.1810E+00
      9.821  0.1956E-01  0.1830E+00
      9.923  0.1814E-01  0.1849E+00
     10.026  0.2369E-01  0.1873E+00
     10.128  0.2360E-01  0.1897E+00
     10.230  0.2777E-01  0.1925E+00
     10.332  0.2702E-01  0.1953E+00
     10.435  0.1712E-01  0.1971E+00
     10.537  0.2375E-01  0.1995E+00
     10.639  0.2767E-01  0.2023E+00
     10.741  0.2632E-01  0.2050E+00
     10.844  0.2603E-01  0.2077E+00
     10.946  0.2215E-01  0.2099E+00
     11.048  0.1955E-01  0.2119E+00
     11.150  0.2144E-01  0.2141E+00
     11.253  0.2011E-01  0.2162E+00
     11.355  0.2598E-01  0.2188E+00
     11.457  0.3054E-01  0.2220E+00
     11.559  0.2611E-01  0.2246E+00
     11.662  0.2881E-01  0.2276E+00
     11.764  0.2644E-01  0.2303E+00
     11.866  0.2363E-01  0.2327E+00
     11.968  0.1792E-01  0.2345E+00
     12.071  0.1567E-01  0.2361E+00
     12.173  0.1167E-01  0.2373E+00
     12.275  0.6346E-02  0.2380E+00
     12.377  0.7768E-02  0.2388E+00
     12.480  0.5241E-02  0.2393E+00
     12.582  0.3378E-02  0.2397E+00
     12.684  0.2735E-02  0.2399E+00
     12.786  0.2175E-02  0.2402E+00
     12.889  0.6039E-03  0.2402E+00
     12.991  0.1872E-02  0.2404E+00
     13.093  0.1528E-02  0.2406E+00
     13.195  0.6190E-03  0.2406E+00
     13.298  0.1690E-03  0.2406E+00
     13.400  0.1984E-02  0.2408E+00
     13.502  0.7137E-03  0.2409E+00
     13.604  0.1847E-02  0.2411E+00
     13.707  0.4142E-03  0.2411E+00
     13.809  0.8888E-03  0.2412E+00
     13.911  0.1620E-02  0.2414E+00
     14.013  0.4081E-02  0.2418E+00
     14.116  0.2964E-02  0.2421E+00
     14.218  0.2785E-02  0.2424E+00
     14.320  0.2959E-02  0.2427E+00
     14.422  0.3491E-02  0.2431E+00
     14.525  0.2260E-02  0.2433E+00
     14.627  0.2701E-02  0.2436E+00
     14.729  0.5026E-02  0.2441E+00
     14.831  0.6749E-02  0.2448E+00
     14.934  0.1015E-02  0.2449E+00
     15.036  0.1392E-02  0.2450E+00
     15.138  0.3335E-02  0.2454E+00
     15.240  0.6696E-02  0.2461E+00
     15.343  0.7084E-02  0.2468E+00
     15.445  0.1157E-01  0.2480E+00
     15.547  0.7076E-02  0.2487E+00
     15.649  0.8395E-02  0.2495E+00
     15.752  0.7810E-02  0.2503E+00
     15.854  0.1516E-01  0.2519E+00
     15.956  0.1050E-01  0.2530E+00
     16.058  0.1571E-01  0.2546E+00
     16.161  0.1107E-01  0.2557E+00
     16.263  0.1571E-01  0.2573E+00
     16.365  0.2183E-01  0.2595E+00
     16.467  0.1138E-01  0.2607E+00
     16.570  0.1224E-01  0.2620E+00
     16.672  0.1239E-01  0.2632E+00
     16.774  0.1109E-01  0.2644E+00
     16.876  0.1513E-01  0.2659E+00
     16.979  0.1849E-01  0.2678E+00
     17.081  0.1330E-01  0.2692E+00
     17.183  0.2200E-01  0.2714E+00
     17.285  0.1911E-01  0.2734E+00
     17.388  0.2121E-01  0.2755E+00
     17.490  0.1223E-01  0.2768E+00
     17.592  0.9914E-02  0.2778E+00
     17.694  0.7748E-02  0.2786E+00
     17.797  0.1494E-01  0.2801E+00
     17.899  0.9689E-02  0.2811E+00
     18.001  0.8135E-02  0.2819E+00
     18.103  0.8620E-02  0.2828E+00
     18.206  0.1942E-01  0.2848E+00
     18.308  0.1595E-01  0.2864E+00
     18.410  0.8946E-02  0.2873E+00
     18.512  0.1313E-01  0.2887E+00
     18.615  0.1834E-01  0.2906E+00
     18.717  0.1122E-01  0.2917E+00
     18.819  0.1212E-01  0.2930E+00
     18.921  0.1990E-01  0.2950E+00
     19.024  0.1638E-01  0.2967E+00
     19.126  0.1989E-01  0.2987E+00
     19.228  0.2221E-01  0.3010E+00
     19.330  0.2463E-01  0.3035E+00
     19.433  0.1803E-01  0.3053E+00
     19.535  0.2460E-01  0.3078E+00
     19.637  0.2002E-01  0.3099E+00
     19.739  0.1932E-01  0.3119E+00
     19.842  0.1577E-01  0.3135E+00
     19.944  0.1795E-01  0.3153E+00
     20.046  0.2171E-01  0.3175E+00
     20.148  0.2790E-01  0.3204E+00
     20.251  0.1885E-01  0.3223E+00
     20.353  0.1536E-01  0.3239E+00
     20.455  0.2254E-01  0.3262E+00
     20.557  0.2036E-01  0.3283E+00
     20.660  0.2088E-01  0.3304E+00
     20.762  0.1767E-01  0.3322E+00
     20.864  0.1942E-01  0.3342E+00
     20.966  0.2166E-01  0.3364E+00
     21.069  0.2336E-01  0.3388E+00
     21.171  0.2279E-01  0.3411E+00
     21.273  0.1934E-01  0.3431E+00
     21.375  0.1996E-01  0.3452E+00
     21.478  0.1827E-01  0.3470E+00
     21.580  0.2113E-01  0.3492E+00
     21.682  0.1909E-01  0.3511E+00
     21.784  0.2044E-01  0.3532E+00
     21.887  0.1876E-01  0.3551E+00
     21.989  0.1058E-01  0.3562E+00
     22.091  0.1243E-01  0.3575E+00
     22.193  0.7676E-02  0.3583E+00
     22.296  0.9432E-02  0.3592E+00
     22.398  0.2730E-02  0.3595E+00
     22.500  0.1837E-02  0.3597E+00
     22.602  0.1347E-02  0.3598E+00
     22.705  0.1476E-02  0.3600E+00
     22.807  0.3835E-04  0.3600E+00
     22.909  0.9392E-09  0.3600E+00
     23.011  0.8531E-17  0.3600E+00
     23.114  0.0000E+00  0.3600E+00
     23.216  0.0000E+00  0.3600E+00
     23.318  0.0000E+00  0.3600E+00
     23.420  0.0000E+00  0.3600E+00
     23.523  0.0000E+00  0.3600E+00
     23.625  0.0000E+00  0.3600E+00
     23.727  0.0000E+00  0.3600E+00
     23.829  0.0000E+00  0.3600E+00
     23.932  0.0000E+00  0.3600E+00
     24.034  0.0000E+00  0.3600E+00
