Al4C3 Pbam polymorph (findsym-output) - 
   1.00000000000000     
     8.2143667534455780    0.0000000000000000    0.0000000000000000
     0.0000000000000000    4.7430463551942568    0.0000000000000000
     0.0000000000000000    0.0000000000000000    2.8096445703952786
   Al   C 
     8     6
Direct
  0.7859861414301538  0.1601330432755685  0.0000000000000000
  0.2140138585698462  0.8398669567244316 -0.0000000000000000
  0.7140138585698462  0.6601330432755684  0.0000000000000000
  0.2859861414301538  0.3398669567244315 -0.0000000000000000
  0.0334797103953111  0.2528664999862780  0.5000000000000000
  0.9665203136046909  0.7471335000137220  0.5000000000000000
  0.4665202836046883  0.7528664999862780  0.5000000000000000
  0.5334796863953091  0.2471335000137219  0.5000000000000000
  0.0000000000000000  0.0000000000000000  0.0000000000000000
  0.5000000000000000  0.5000000000000000  0.0000000000000000
  0.8235456465325395  0.4435513714721148  0.5000000000000000
  0.1764543534674605  0.5564486285278850  0.5000000000000000
  0.6764543534674605  0.9435513714721150  0.5000000000000000
  0.3235456465325395  0.0564486285278852  0.5000000000000000
 
  0.00000000E+00  0.00000000E+00  0.00000000E+00
  0.00000000E+00  0.00000000E+00  0.00000000E+00
  0.00000000E+00  0.00000000E+00  0.00000000E+00
  0.00000000E+00  0.00000000E+00  0.00000000E+00
  0.00000000E+00  0.00000000E+00  0.00000000E+00
  0.00000000E+00  0.00000000E+00  0.00000000E+00
  0.00000000E+00  0.00000000E+00  0.00000000E+00
  0.00000000E+00  0.00000000E+00  0.00000000E+00
  0.00000000E+00  0.00000000E+00  0.00000000E+00
  0.00000000E+00  0.00000000E+00  0.00000000E+00
  0.00000000E+00  0.00000000E+00  0.00000000E+00
  0.00000000E+00  0.00000000E+00  0.00000000E+00
  0.00000000E+00  0.00000000E+00  0.00000000E+00
  0.00000000E+00  0.00000000E+00  0.00000000E+00
