Al4C3 Pnma (POSCAR.IV, symmetrized via s
   1.00000000000000     
     8.0262696812879142    0.0000000000000000    0.0000000000000000
     0.0000000000000000    2.7689171797205465    0.0000000000000000
     0.0000000000000000    0.0000000000000000    9.5409744784763717
   Al   C 
    16    12
Direct
  0.2611490303317264  0.2500000000000000  0.2969259783642532
  0.2388509696682735  0.7500000000000000  0.7969259783642531
  0.7388509696682733  0.7500000000000000  0.7030740216357469
  0.7611490303317267  0.2500000000000000  0.2030740216357469
  0.3433659703499460  0.2500000000000000  0.0108281345045813
  0.1566340296500540  0.7500000000000000  0.5108281345045813
  0.6566340296500539  0.7500000000000000  0.9891718654954187
  0.8433659703499461  0.2500000000000000  0.4891718654954186
  0.5226800550593330  0.2500000000000000  0.7933852017064300
  0.9773199449406670  0.7500000000000000  0.2933852017064298
  0.4773199449406669  0.7500000000000000  0.2066147982935701
  0.0226800550593331  0.2500000000000000  0.7066147982935700
  0.0657715529298630  0.2500000000000000  0.0911145629940649
  0.4342284470701441  0.7500000000000000  0.5911145629940647
  0.9342284470701370  0.7500000000000000  0.9088854370059353
  0.5657715529298630  0.2500000000000000  0.4088854370059351
  0.2625764231070404  0.2500000000000000  0.6427830283865772
  0.2374235768929595  0.7500000000000000  0.1427830283865771
  0.7374235768929596  0.7500000000000000  0.3572169716134229
  0.7625764231070404  0.2500000000000000  0.8572169716134228
  0.6083644083298574  0.2500000000000000  0.6063771463971106
  0.8916355916701426  0.7500000000000000  0.1063771463971103
  0.3916355916701427  0.7500000000000000  0.3936228536028897
  0.1083644083298573  0.2500000000000000  0.8936228536028894
  0.0623565118540669  0.2500000000000000  0.3905169476917975
  0.4376434881459331  0.7500000000000000  0.8905169476917975
  0.9376434881459333  0.7500000000000000  0.6094830523082025
  0.5623565118540667  0.2500000000000000  0.1094830523082025
 
  0.00000000E+00  0.00000000E+00  0.00000000E+00
  0.00000000E+00  0.00000000E+00  0.00000000E+00
  0.00000000E+00  0.00000000E+00  0.00000000E+00
  0.00000000E+00  0.00000000E+00  0.00000000E+00
  0.00000000E+00  0.00000000E+00  0.00000000E+00
  0.00000000E+00  0.00000000E+00  0.00000000E+00
  0.00000000E+00  0.00000000E+00  0.00000000E+00
  0.00000000E+00  0.00000000E+00  0.00000000E+00
  0.00000000E+00  0.00000000E+00  0.00000000E+00
  0.00000000E+00  0.00000000E+00  0.00000000E+00
  0.00000000E+00  0.00000000E+00  0.00000000E+00
  0.00000000E+00  0.00000000E+00  0.00000000E+00
  0.00000000E+00  0.00000000E+00  0.00000000E+00
  0.00000000E+00  0.00000000E+00  0.00000000E+00
  0.00000000E+00  0.00000000E+00  0.00000000E+00
  0.00000000E+00  0.00000000E+00  0.00000000E+00
  0.00000000E+00  0.00000000E+00  0.00000000E+00
  0.00000000E+00  0.00000000E+00  0.00000000E+00
  0.00000000E+00  0.00000000E+00  0.00000000E+00
  0.00000000E+00  0.00000000E+00  0.00000000E+00
  0.00000000E+00  0.00000000E+00  0.00000000E+00
  0.00000000E+00  0.00000000E+00  0.00000000E+00
  0.00000000E+00  0.00000000E+00  0.00000000E+00
  0.00000000E+00  0.00000000E+00  0.00000000E+00
  0.00000000E+00  0.00000000E+00  0.00000000E+00
  0.00000000E+00  0.00000000E+00  0.00000000E+00
  0.00000000E+00  0.00000000E+00  0.00000000E+00
  0.00000000E+00  0.00000000E+00  0.00000000E+00
