Al4C3 Pnma - H(P) scan @ 100 GPa (ISIF=8
           1
     8.026270    0.000000    0.000000
     0.000000    2.768917    0.000000
     0.000000    0.000000    9.540974
   Al   C 
    16    12
Direct configuration=     1
   0.26114903  0.25000000  0.29692598
   0.23885097  0.75000000  0.79692598
   0.73885097  0.75000000  0.70307402
   0.76114903  0.25000000  0.20307402
   0.34336597  0.25000000  0.01082813
   0.15663403  0.75000000  0.51082813
   0.65663403  0.75000000  0.98917187
   0.84336597  0.25000000  0.48917187
   0.52268006  0.25000000  0.79338520
   0.97731994  0.75000000  0.29338520
   0.47731994  0.75000000  0.20661480
   0.02268006  0.25000000  0.70661480
   0.06577155  0.25000000  0.09111456
   0.43422845  0.75000000  0.59111456
   0.93422845  0.75000000  0.90888544
   0.56577155  0.25000000  0.40888544
   0.26257642  0.25000000  0.64278303
   0.23742358  0.75000000  0.14278303
   0.73742358  0.75000000  0.35721697
   0.76257642  0.25000000  0.85721697
   0.60836441  0.25000000  0.60637715
   0.89163559  0.75000000  0.10637715
   0.39163559  0.75000000  0.39362285
   0.10836441  0.25000000  0.89362285
   0.06235651  0.25000000  0.39051695
   0.43764349  0.75000000  0.89051695
   0.93764349  0.75000000  0.60948305
   0.56235651  0.25000000  0.10948305
Al4C3 Pnma - H(P) scan @ 100 GPa (ISIF=8
           1
     7.844836    0.000000    0.000000
     0.000000    2.706326    0.000000
     0.000000    0.000000    9.325301
   Al   C 
    16    12
Direct configuration=     2
   0.26117478  0.25000000  0.29692258
   0.23882522  0.75000000  0.79692258
   0.73882522  0.75000000  0.70307742
   0.76117478  0.25000000  0.20307742
   0.34332732  0.25000000  0.01079389
   0.15667268  0.75000000  0.51079389
   0.65667268  0.75000000  0.98920611
   0.84332732  0.25000000  0.48920611
   0.52273729  0.25000000  0.79339465
   0.97726271  0.75000000  0.29339465
   0.47726271  0.75000000  0.20660535
   0.02273729  0.25000000  0.70660535
   0.06576226  0.25000000  0.09113164
   0.43423774  0.75000000  0.59113164
   0.93423774  0.75000000  0.90886836
   0.56576226  0.25000000  0.40886836
   0.26254179  0.25000000  0.64275355
   0.23745821  0.75000000  0.14275355
   0.73745821  0.75000000  0.35724645
   0.76254179  0.25000000  0.85724645
   0.60837676  0.25000000  0.60636101
   0.89162324  0.75000000  0.10636101
   0.39162324  0.75000000  0.39363899
   0.10837676  0.25000000  0.89363899
   0.06231182  0.25000000  0.39049405
   0.43768818  0.75000000  0.89049405
   0.93768818  0.75000000  0.60950595
   0.56231182  0.25000000  0.10950595
Al4C3 Pnma - H(P) scan @ 100 GPa (ISIF=8
           1
     7.975256    0.000000    0.000000
     0.000000    2.751318    0.000000
     0.000000    0.000000    9.480334
   Al   C 
    16    12
Direct configuration=     3
   0.26115584  0.25000000  0.29692508
   0.23884416  0.75000000  0.79692508
   0.73884416  0.75000000  0.70307492
   0.76115584  0.25000000  0.20307492
   0.34335574  0.25000000  0.01081908
   0.15664426  0.75000000  0.51081908
   0.65664426  0.75000000  0.98918092
   0.84335574  0.25000000  0.48918092
   0.52269520  0.25000000  0.79338770
   0.97730480  0.75000000  0.29338770
   0.47730480  0.75000000  0.20661230
   0.02269520  0.25000000  0.70661230
   0.06576910  0.25000000  0.09111908
   0.43423090  0.75000000  0.59111908
   0.93423090  0.75000000  0.90888092
   0.56576910  0.25000000  0.40888092
   0.26256726  0.25000000  0.64277523
   0.23743274  0.75000000  0.14277523
   0.73743274  0.75000000  0.35722477
   0.76256726  0.25000000  0.85722477
   0.60836767  0.25000000  0.60637288
   0.89163233  0.75000000  0.10637288
   0.39163233  0.75000000  0.39362712
   0.10836767  0.25000000  0.89362712
   0.06234469  0.25000000  0.39051089
   0.43765531  0.75000000  0.89051089
   0.93765531  0.75000000  0.60948911
   0.56234469  0.25000000  0.10948911
Al4C3 Pnma - H(P) scan @ 100 GPa (ISIF=8
           1
     7.974378    0.000000    0.000000
     0.000000    2.751016    0.000000
     0.000000    0.000000    9.479290
   Al   C 
    16    12
Direct configuration=     4
   0.26115597  0.25000000  0.29692506
   0.23884403  0.75000000  0.79692506
   0.73884403  0.75000000  0.70307494
   0.76115597  0.25000000  0.20307494
   0.34335556  0.25000000  0.01081891
   0.15664444  0.75000000  0.51081891
   0.65664444  0.75000000  0.98918109
   0.84335556  0.25000000  0.48918109
   0.52269547  0.25000000  0.79338775
   0.97730453  0.75000000  0.29338775
   0.47730453  0.75000000  0.20661225
   0.02269547  0.25000000  0.70661225
   0.06576905  0.25000000  0.09111916
   0.43423095  0.75000000  0.59111916
   0.93423095  0.75000000  0.90888084
   0.56576905  0.25000000  0.40888084
   0.26256709  0.25000000  0.64277509
   0.23743291  0.75000000  0.14277509
   0.73743291  0.75000000  0.35722491
   0.76256709  0.25000000  0.85722491
   0.60836774  0.25000000  0.60637280
   0.89163226  0.75000000  0.10637280
   0.39163226  0.75000000  0.39362720
   0.10836774  0.25000000  0.89362720
   0.06234447  0.25000000  0.39051078
   0.43765553  0.75000000  0.89051078
   0.93765553  0.75000000  0.60948922
   0.56234447  0.25000000  0.10948922
Al4C3 Pnma - H(P) scan @ 100 GPa (ISIF=8
           1
     7.974266    0.000000    0.000000
     0.000000    2.750977    0.000000
     0.000000    0.000000    9.479157
   Al   C 
    16    12
Direct configuration=     5
   0.26115598  0.25000000  0.29692506
   0.23884402  0.75000000  0.79692506
   0.73884402  0.75000000  0.70307494
   0.76115598  0.25000000  0.20307494
   0.34335553  0.25000000  0.01081889
   0.15664447  0.75000000  0.51081889
   0.65664447  0.75000000  0.98918111
   0.84335553  0.25000000  0.48918111
   0.52269551  0.25000000  0.79338775
   0.97730449  0.75000000  0.29338775
   0.47730449  0.75000000  0.20661225
   0.02269551  0.25000000  0.70661225
   0.06576904  0.25000000  0.09111918
   0.43423096  0.75000000  0.59111918
   0.93423096  0.75000000  0.90888082
   0.56576904  0.25000000  0.40888082
   0.26256707  0.25000000  0.64277507
   0.23743293  0.75000000  0.14277507
   0.73743293  0.75000000  0.35722493
   0.76256707  0.25000000  0.85722493
   0.60836774  0.25000000  0.60637279
   0.89163226  0.75000000  0.10637279
   0.39163226  0.75000000  0.39362721
   0.10836774  0.25000000  0.89362721
   0.06234444  0.25000000  0.39051076
   0.43765556  0.75000000  0.89051076
   0.93765556  0.75000000  0.60948924
   0.56234444  0.25000000  0.10948924
Al4C3 Pnma - H(P) scan @ 100 GPa (ISIF=8
           1
     7.974315    0.000000    0.000000
     0.000000    2.750994    0.000000
     0.000000    0.000000    9.479215
   Al   C 
    16    12
Direct configuration=     6
   0.26115598  0.25000000  0.29692506
   0.23884402  0.75000000  0.79692506
   0.73884402  0.75000000  0.70307494
   0.76115598  0.25000000  0.20307494
   0.34335554  0.25000000  0.01081890
   0.15664446  0.75000000  0.51081890
   0.65664446  0.75000000  0.98918110
   0.84335554  0.25000000  0.48918110
   0.52269549  0.25000000  0.79338775
   0.97730451  0.75000000  0.29338775
   0.47730451  0.75000000  0.20661225
   0.02269549  0.25000000  0.70661225
   0.06576905  0.25000000  0.09111917
   0.43423095  0.75000000  0.59111917
   0.93423095  0.75000000  0.90888083
   0.56576905  0.25000000  0.40888083
   0.26256708  0.25000000  0.64277508
   0.23743292  0.75000000  0.14277508
   0.73743292  0.75000000  0.35722492
   0.76256708  0.25000000  0.85722492
   0.60836774  0.25000000  0.60637279
   0.89163226  0.75000000  0.10637279
   0.39163226  0.75000000  0.39362721
   0.10836774  0.25000000  0.89362721
   0.06234446  0.25000000  0.39051077
   0.43765554  0.75000000  0.89051077
   0.93765554  0.75000000  0.60948923
   0.56234446  0.25000000  0.10948923
Al4C3 Pnma - H(P) scan @ 100 GPa (ISIF=8
           1
     7.973424    0.000000    0.000000
     0.000000    2.750686    0.000000
     0.000000    0.000000    9.478156
   Al   C 
    16    12
Direct configuration=     7
   0.26136349  0.25000000  0.29677428
   0.23863651  0.75000000  0.79677428
   0.73863651  0.75000000  0.70322572
   0.76136349  0.25000000  0.20322572
   0.34302333  0.25000000  0.01081645
   0.15697667  0.75000000  0.51081645
   0.65697667  0.75000000  0.98918355
   0.84302333  0.25000000  0.48918355
   0.52266787  0.25000000  0.79309746
   0.97733213  0.75000000  0.29309746
   0.47733213  0.75000000  0.20690254
   0.02266787  0.25000000  0.70690254
   0.06571029  0.25000000  0.09139579
   0.43428971  0.75000000  0.59139579
   0.93428971  0.75000000  0.90860421
   0.56571029  0.25000000  0.40860421
   0.26272563  0.25000000  0.64272310
   0.23727437  0.75000000  0.14272310
   0.73727437  0.75000000  0.35727690
   0.76272563  0.25000000  0.85727690
   0.60867253  0.25000000  0.60615162
   0.89132747  0.75000000  0.10615162
   0.39132747  0.75000000  0.39384838
   0.10867253  0.25000000  0.89384838
   0.06225779  0.25000000  0.39079925
   0.43774221  0.75000000  0.89079925
   0.93774221  0.75000000  0.60920075
   0.56225779  0.25000000  0.10920075
Al4C3 Pnma - H(P) scan @ 100 GPa (ISIF=8
           1
     7.973663    0.000000    0.000000
     0.000000    2.750769    0.000000
     0.000000    0.000000    9.478440
   Al   C 
    16    12
Direct configuration=     8
   0.26130786  0.25000000  0.29681470
   0.23869214  0.75000000  0.79681470
   0.73869214  0.75000000  0.70318530
   0.76130786  0.25000000  0.20318530
   0.34311239  0.25000000  0.01081711
   0.15688761  0.75000000  0.51081711
   0.65688761  0.75000000  0.98918289
   0.84311239  0.25000000  0.48918289
   0.52267528  0.25000000  0.79317528
   0.97732472  0.75000000  0.29317528
   0.47732472  0.75000000  0.20682472
   0.02267528  0.25000000  0.70682472
   0.06572604  0.25000000  0.09132163
   0.43427396  0.75000000  0.59132163
   0.93427396  0.75000000  0.90867837
   0.56572604  0.25000000  0.40867837
   0.26268313  0.25000000  0.64273703
   0.23731687  0.75000000  0.14273703
   0.73731687  0.75000000  0.35726297
   0.76268313  0.25000000  0.85726297
   0.60859083  0.25000000  0.60621091
   0.89140917  0.75000000  0.10621091
   0.39140917  0.75000000  0.39378909
   0.10859083  0.25000000  0.89378909
   0.06228102  0.25000000  0.39072191
   0.43771898  0.75000000  0.89072191
   0.93771898  0.75000000  0.60927809
   0.56228102  0.25000000  0.10927809
Al4C3 Pnma - H(P) scan @ 100 GPa (ISIF=8
           1
     7.973433    0.000000    0.000000
     0.000000    2.750690    0.000000
     0.000000    0.000000    9.478167
   Al   C 
    16    12
Direct configuration=     9
   0.26115485  0.25000000  0.29678745
   0.23884515  0.75000000  0.79678745
   0.73884515  0.75000000  0.70321255
   0.76115485  0.25000000  0.20321255
   0.34288073  0.25000000  0.01076055
   0.15711927  0.75000000  0.51076055
   0.65711927  0.75000000  0.98923945
   0.84288073  0.25000000  0.48923945
   0.52242391  0.25000000  0.79318997
   0.97757609  0.75000000  0.29318997
   0.47757609  0.75000000  0.20681003
   0.02242391  0.25000000  0.70681003
   0.06553959  0.25000000  0.09145435
   0.43446041  0.75000000  0.59145435
   0.93446041  0.75000000  0.90854565
   0.56553959  0.25000000  0.40854565
   0.26284198  0.25000000  0.64278423
   0.23715802  0.75000000  0.14278423
   0.73715802  0.75000000  0.35721577
   0.76284198  0.25000000  0.85721577
   0.60883668  0.25000000  0.60596450
   0.89116332  0.75000000  0.10596450
   0.39116332  0.75000000  0.39403550
   0.10883668  0.25000000  0.89403550
   0.06223002  0.25000000  0.39070625
   0.43776998  0.75000000  0.89070625
   0.93776998  0.75000000  0.60929375
   0.56223002  0.25000000  0.10929375
Al4C3 Pnma - H(P) scan @ 100 GPa (ISIF=8
           1
     7.973481    0.000000    0.000000
     0.000000    2.750706    0.000000
     0.000000    0.000000    9.478224
   Al   C 
    16    12
Direct configuration=    10
   0.26118667  0.25000000  0.29679312
   0.23881333  0.75000000  0.79679312
   0.73881333  0.75000000  0.70320688
   0.76118667  0.25000000  0.20320688
   0.34292890  0.25000000  0.01077231
   0.15707110  0.75000000  0.51077231
   0.65707110  0.75000000  0.98922769
   0.84292890  0.25000000  0.48922769
   0.52247618  0.25000000  0.79318692
   0.97752382  0.75000000  0.29318692
   0.47752382  0.75000000  0.20681308
   0.02247618  0.25000000  0.70681308
   0.06557837  0.25000000  0.09142675
   0.43442163  0.75000000  0.59142675
   0.93442163  0.75000000  0.90857325
   0.56557837  0.25000000  0.40857325
   0.26280895  0.25000000  0.64277442
   0.23719105  0.75000000  0.14277442
   0.73719105  0.75000000  0.35722558
   0.76280895  0.25000000  0.85722558
   0.60878555  0.25000000  0.60601574
   0.89121445  0.75000000  0.10601574
   0.39121445  0.75000000  0.39398426
   0.10878555  0.25000000  0.89398426
   0.06224063  0.25000000  0.39070950
   0.43775937  0.75000000  0.89070950
   0.93775937  0.75000000  0.60929050
   0.56224063  0.25000000  0.10929050
Al4C3 Pnma - H(P) scan @ 100 GPa (ISIF=8
           1
     7.973262    0.000000    0.000000
     0.000000    2.750631    0.000000
     0.000000    0.000000    9.477963
   Al   C 
    16    12
Direct configuration=    11
   0.26113117  0.25000000  0.29677792
   0.23886883  0.75000000  0.79677792
   0.73886883  0.75000000  0.70322208
   0.76113117  0.25000000  0.20322208
   0.34282048  0.25000000  0.01077246
   0.15717952  0.75000000  0.51077246
   0.65717952  0.75000000  0.98922754
   0.84282048  0.25000000  0.48922754
   0.52248530  0.25000000  0.79315351
   0.97751470  0.75000000  0.29315351
   0.47751470  0.75000000  0.20684649
   0.02248530  0.25000000  0.70684649
   0.06534052  0.25000000  0.09140730
   0.43465948  0.75000000  0.59140730
   0.93465948  0.75000000  0.90859270
   0.56534052  0.25000000  0.40859270
   0.26288525  0.25000000  0.64288954
   0.23711475  0.75000000  0.14288954
   0.73711475  0.75000000  0.35711046
   0.76288525  0.25000000  0.85711046
   0.60890578  0.25000000  0.60602686
   0.89109422  0.75000000  0.10602686
   0.39109422  0.75000000  0.39397314
   0.10890578  0.25000000  0.89397314
   0.06216719  0.25000000  0.39071805
   0.43783281  0.75000000  0.89071805
   0.93783281  0.75000000  0.60928195
   0.56216719  0.25000000  0.10928195
Al4C3 Pnma - H(P) scan @ 100 GPa (ISIF=8
           1
     7.973252    0.000000    0.000000
     0.000000    2.750627    0.000000
     0.000000    0.000000    9.477951
   Al   C 
    16    12
Direct configuration=    12
   0.26112858  0.25000000  0.29677721
   0.23887142  0.75000000  0.79677721
   0.73887142  0.75000000  0.70322279
   0.76112858  0.25000000  0.20322279
   0.34281541  0.25000000  0.01077247
   0.15718459  0.75000000  0.51077247
   0.65718459  0.75000000  0.98922753
   0.84281541  0.25000000  0.48922753
   0.52248572  0.25000000  0.79315195
   0.97751428  0.75000000  0.29315195
   0.47751428  0.75000000  0.20684805
   0.02248572  0.25000000  0.70684805
   0.06532942  0.25000000  0.09140639
   0.43467058  0.75000000  0.59140639
   0.93467058  0.75000000  0.90859361
   0.56532942  0.25000000  0.40859361
   0.26288881  0.25000000  0.64289491
   0.23711119  0.75000000  0.14289491
   0.73711119  0.75000000  0.35710509
   0.76288881  0.25000000  0.85710509
   0.60891140  0.25000000  0.60602738
   0.89108860  0.75000000  0.10602738
   0.39108860  0.75000000  0.39397262
   0.10891140  0.25000000  0.89397262
   0.06216377  0.25000000  0.39071845
   0.43783623  0.75000000  0.89071845
   0.93783623  0.75000000  0.60928155
   0.56216377  0.25000000  0.10928155
Al4C3 Pnma - H(P) scan @ 100 GPa (ISIF=8
           1
     7.973323    0.000000    0.000000
     0.000000    2.750652    0.000000
     0.000000    0.000000    9.478036
   Al   C 
    16    12
Direct configuration=    13
   0.26102423  0.25000000  0.29674036
   0.23897577  0.75000000  0.79674036
   0.73897577  0.75000000  0.70325964
   0.76102423  0.25000000  0.20325964
   0.34279606  0.25000000  0.01081038
   0.15720394  0.75000000  0.51081038
   0.65720394  0.75000000  0.98918962
   0.84279606  0.25000000  0.48918962
   0.52256330  0.25000000  0.79317338
   0.97743670  0.75000000  0.29317338
   0.47743670  0.75000000  0.20682662
   0.02256330  0.25000000  0.70682662
   0.06528690  0.25000000  0.09140659
   0.43471310  0.75000000  0.59140659
   0.93471310  0.75000000  0.90859341
   0.56528690  0.25000000  0.40859341
   0.26300075  0.25000000  0.64292498
   0.23699925  0.75000000  0.14292498
   0.73699925  0.75000000  0.35707502
   0.76300075  0.25000000  0.85707502
   0.60895520  0.25000000  0.60602929
   0.89104480  0.75000000  0.10602929
   0.39104480  0.75000000  0.39397071
   0.10895520  0.25000000  0.89397071
   0.06211024  0.25000000  0.39074908
   0.43788976  0.75000000  0.89074908
   0.93788976  0.75000000  0.60925092
   0.56211024  0.25000000  0.10925092
Al4C3 Pnma - H(P) scan @ 100 GPa (ISIF=8
           1
     7.973379    0.000000    0.000000
     0.000000    2.750671    0.000000
     0.000000    0.000000    9.478102
   Al   C 
    16    12
Direct configuration=    14
   0.26094279  0.25000000  0.29671159
   0.23905721  0.75000000  0.79671159
   0.73905721  0.75000000  0.70328841
   0.76094279  0.25000000  0.20328841
   0.34278094  0.25000000  0.01083996
   0.15721906  0.75000000  0.51083996
   0.65721906  0.75000000  0.98916004
   0.84278094  0.25000000  0.48916004
   0.52262386  0.25000000  0.79319011
   0.97737614  0.75000000  0.29319011
   0.47737614  0.75000000  0.20680989
   0.02262386  0.25000000  0.70680989
   0.06525371  0.25000000  0.09140675
   0.43474629  0.75000000  0.59140675
   0.93474629  0.75000000  0.90859325
   0.56525371  0.25000000  0.40859325
   0.26308813  0.25000000  0.64294845
   0.23691187  0.75000000  0.14294845
   0.73691187  0.75000000  0.35705155
   0.76308813  0.25000000  0.85705155
   0.60898939  0.25000000  0.60603078
   0.89101061  0.75000000  0.10603078
   0.39101061  0.75000000  0.39396922
   0.10898939  0.25000000  0.89396922
   0.06206846  0.25000000  0.39077299
   0.43793154  0.75000000  0.89077299
   0.93793154  0.75000000  0.60922701
   0.56206846  0.25000000  0.10922701
Al4C3 Pnma - H(P) scan @ 100 GPa (ISIF=8
           1
     7.972976    0.000000    0.000000
     0.000000    2.750532    0.000000
     0.000000    0.000000    9.477623
   Al   C 
    16    12
Direct configuration=    15
   0.26086291  0.25000000  0.29675088
   0.23913709  0.75000000  0.79675088
   0.73913709  0.75000000  0.70324912
   0.76086291  0.25000000  0.20324912
   0.34275966  0.25000000  0.01080344
   0.15724034  0.75000000  0.51080344
   0.65724034  0.75000000  0.98919656
   0.84275966  0.25000000  0.48919656
   0.52271434  0.25000000  0.79321594
   0.97728566  0.75000000  0.29321594
   0.47728566  0.75000000  0.20678406
   0.02271434  0.25000000  0.70678406
   0.06521291  0.25000000  0.09141254
   0.43478709  0.75000000  0.59141254
   0.93478709  0.75000000  0.90858746
   0.56521291  0.25000000  0.40858746
   0.26315471  0.25000000  0.64291610
   0.23684529  0.75000000  0.14291610
   0.73684529  0.75000000  0.35708390
   0.76315471  0.25000000  0.85708390
   0.60905598  0.25000000  0.60604344
   0.89094402  0.75000000  0.10604344
   0.39094402  0.75000000  0.39395656
   0.10905598  0.25000000  0.89395656
   0.06201596  0.25000000  0.39079432
   0.43798404  0.75000000  0.89079432
   0.93798404  0.75000000  0.60920568
   0.56201596  0.25000000  0.10920568
