  28  28   0   0
  0.1160546E+02  0.9644711E-09  0.3313796E-09  0.1016730E-08  0.5000000E-15
  1.000000000000000E-004
  CAR 
 Al4C3 Pnma-VII - r2SCAN H(P) scan @ 0 GP
     15.87578838     -8.12506709  301      7.56049200      1.00000000
     -8.125  0.0000E+00  0.0000E+00
     -8.045  0.0000E+00  0.0000E+00
     -7.965  0.0000E+00  0.0000E+00
     -7.885  0.0000E+00  0.0000E+00
     -7.805  0.0000E+00  0.0000E+00
     -7.725  0.0000E+00  0.0000E+00
     -7.645  0.0000E+00  0.0000E+00
     -7.565  0.0000E+00  0.0000E+00
     -7.485  0.0000E+00  0.0000E+00
     -7.405  0.0000E+00  0.0000E+00
     -7.325  0.8673E-19  0.6939E-20
     -7.245  0.9519E-12  0.7616E-13
     -7.165  0.8331E-07  0.6665E-08
     -7.085  0.5924E-04  0.4746E-05
     -7.005  0.9082E-03  0.7740E-04
     -6.925  0.3682E-02  0.3720E-03
     -6.845  0.6982E-02  0.9306E-03
     -6.765  0.8111E-02  0.1579E-02
     -6.685  0.7943E-02  0.2215E-02
     -6.605  0.1039E-01  0.3046E-02
     -6.525  0.1504E-01  0.4249E-02
     -6.445  0.1357E-01  0.5335E-02
     -6.365  0.1105E-01  0.6219E-02
     -6.285  0.1409E-01  0.7346E-02
     -6.205  0.1555E-01  0.8591E-02
     -6.125  0.1072E-01  0.9449E-02
     -6.045  0.1429E-01  0.1059E-01
     -5.965  0.2420E-01  0.1253E-01
     -5.885  0.1968E-01  0.1410E-01
     -5.805  0.1155E-01  0.1503E-01
     -5.725  0.2331E-01  0.1689E-01
     -5.645  0.2975E-01  0.1927E-01
     -5.565  0.1901E-01  0.2079E-01
     -5.485  0.1349E-01  0.2187E-01
     -5.405  0.1682E-01  0.2322E-01
     -5.325  0.2043E-01  0.2485E-01
     -5.245  0.2564E-01  0.2690E-01
     -5.165  0.2559E-01  0.2895E-01
     -5.085  0.2556E-01  0.3099E-01
     -5.005  0.3041E-01  0.3343E-01
     -4.925  0.2855E-01  0.3571E-01
     -4.845  0.2880E-01  0.3802E-01
     -4.765  0.3252E-01  0.4062E-01
     -4.685  0.2741E-01  0.4281E-01
     -4.605  0.2617E-01  0.4490E-01
     -4.525  0.2513E-01  0.4692E-01
     -4.445  0.3380E-01  0.4962E-01
     -4.365  0.5709E-01  0.5419E-01
     -4.285  0.4315E-01  0.5764E-01
     -4.205  0.3165E-01  0.6017E-01
     -4.125  0.4570E-01  0.6383E-01
     -4.045  0.4740E-01  0.6762E-01
     -3.965  0.5021E-01  0.7164E-01
     -3.885  0.5958E-01  0.7640E-01
     -3.805  0.5607E-01  0.8089E-01
     -3.725  0.5073E-01  0.8495E-01
     -3.645  0.3862E-01  0.8804E-01
     -3.565  0.5098E-01  0.9212E-01
     -3.485  0.4451E-01  0.9568E-01
     -3.405  0.6265E-01  0.1007E+00
     -3.325  0.7228E-01  0.1065E+00
     -3.245  0.7277E-01  0.1123E+00
     -3.165  0.7244E-01  0.1181E+00
     -3.085  0.2344E-01  0.1200E+00
     -3.005  0.4513E-03  0.1200E+00
     -2.925  0.1657E-06  0.1200E+00
     -2.845  0.6848E-12  0.1200E+00
     -2.765  0.0000E+00  0.1200E+00
     -2.685  0.0000E+00  0.1200E+00
     -2.605  0.0000E+00  0.1200E+00
     -2.525  0.0000E+00  0.1200E+00
     -2.445  0.0000E+00  0.1200E+00
     -2.365  0.0000E+00  0.1200E+00
     -2.285  0.0000E+00  0.1200E+00
     -2.205  0.0000E+00  0.1200E+00
     -2.125  0.0000E+00  0.1200E+00
     -2.045  0.0000E+00  0.1200E+00
     -1.965  0.0000E+00  0.1200E+00
     -1.885  0.0000E+00  0.1200E+00
     -1.805  0.0000E+00  0.1200E+00
     -1.725  0.0000E+00  0.1200E+00
     -1.645  0.0000E+00  0.1200E+00
     -1.565  0.0000E+00  0.1200E+00
     -1.485  0.0000E+00  0.1200E+00
     -1.405  0.0000E+00  0.1200E+00
     -1.325  0.0000E+00  0.1200E+00
     -1.245  0.0000E+00  0.1200E+00
     -1.165  0.0000E+00  0.1200E+00
     -1.085  0.0000E+00  0.1200E+00
     -1.005  0.0000E+00  0.1200E+00
     -0.925  0.0000E+00  0.1200E+00
     -0.845  0.0000E+00  0.1200E+00
     -0.765  0.0000E+00  0.1200E+00
     -0.685  0.0000E+00  0.1200E+00
     -0.605  0.1735E-18  0.1200E+00
     -0.525  0.1928E-11  0.1200E+00
     -0.445  0.1696E-06  0.1200E+00
     -0.365  0.1316E-03  0.1200E+00
     -0.285  0.2293E-02  0.1202E+00
     -0.205  0.3980E-02  0.1205E+00
     -0.125  0.8062E-02  0.1212E+00
     -0.045  0.1099E-01  0.1220E+00
      0.035  0.8991E-02  0.1228E+00
      0.115  0.1555E-01  0.1240E+00
      0.195  0.3225E-01  0.1266E+00
      0.275  0.2223E-01  0.1284E+00
      0.355  0.1813E-01  0.1298E+00
      0.435  0.1762E-01  0.1312E+00
      0.515  0.2225E-01  0.1330E+00
      0.595  0.3472E-01  0.1358E+00
      0.675  0.3308E-01  0.1384E+00
      0.755  0.3250E-01  0.1410E+00
      0.835  0.2614E-01  0.1431E+00
      0.915  0.3011E-01  0.1455E+00
      0.995  0.2684E-01  0.1477E+00
      1.075  0.3083E-01  0.1501E+00
      1.155  0.2960E-01  0.1525E+00
      1.235  0.3525E-01  0.1553E+00
      1.315  0.2860E-01  0.1576E+00
      1.395  0.4509E-01  0.1612E+00
      1.475  0.6694E-01  0.1666E+00
      1.555  0.6502E-01  0.1718E+00
      1.635  0.6067E-01  0.1766E+00
      1.715  0.5290E-01  0.1809E+00
      1.795  0.3716E-01  0.1838E+00
      1.875  0.4580E-01  0.1875E+00
      1.955  0.5985E-01  0.1923E+00
      2.035  0.6515E-01  0.1975E+00
      2.115  0.4534E-01  0.2011E+00
      2.195  0.3606E-01  0.2040E+00
      2.275  0.4769E-01  0.2078E+00
      2.355  0.3610E-01  0.2107E+00
      2.435  0.3216E-01  0.2133E+00
      2.515  0.4002E-01  0.2165E+00
      2.595  0.4058E-01  0.2197E+00
      2.675  0.3310E-01  0.2224E+00
      2.755  0.4184E-01  0.2257E+00
      2.835  0.5641E-01  0.2302E+00
      2.915  0.3248E-01  0.2328E+00
      2.995  0.4017E-01  0.2361E+00
      3.075  0.2805E-01  0.2383E+00
      3.155  0.2923E-01  0.2406E+00
      3.235  0.6711E-01  0.2460E+00
      3.315  0.6325E-01  0.2511E+00
      3.395  0.2576E-01  0.2531E+00
      3.475  0.4033E-01  0.2564E+00
      3.555  0.5869E-01  0.2611E+00
      3.635  0.5169E-01  0.2652E+00
      3.715  0.5323E-01  0.2694E+00
      3.795  0.4572E-01  0.2731E+00
      3.875  0.5043E-01  0.2771E+00
      3.955  0.5231E-01  0.2813E+00
      4.035  0.4457E-01  0.2849E+00
      4.115  0.4323E-01  0.2883E+00
      4.195  0.3802E-01  0.2914E+00
      4.275  0.6570E-01  0.2966E+00
      4.355  0.6494E-01  0.3018E+00
      4.435  0.6602E-01  0.3071E+00
      4.515  0.6128E-01  0.3120E+00
      4.595  0.5799E-01  0.3167E+00
      4.675  0.5155E-01  0.3208E+00
      4.755  0.6572E-01  0.3260E+00
      4.835  0.6829E-01  0.3315E+00
      4.915  0.8739E-01  0.3385E+00
      4.995  0.7257E-01  0.3443E+00
      5.075  0.7010E-01  0.3499E+00
      5.155  0.6473E-01  0.3551E+00
      5.235  0.6193E-01  0.3601E+00
      5.315  0.7516E-01  0.3661E+00
      5.395  0.8878E-01  0.3732E+00
      5.475  0.7505E-01  0.3792E+00
      5.555  0.7310E-01  0.3850E+00
      5.635  0.7774E-01  0.3912E+00
      5.715  0.8320E-01  0.3979E+00
      5.795  0.4138E-01  0.4012E+00
      5.875  0.6984E-01  0.4068E+00
      5.955  0.8811E-01  0.4138E+00
      6.035  0.7138E-01  0.4196E+00
      6.115  0.8673E-01  0.4265E+00
      6.195  0.8350E-01  0.4332E+00
      6.275  0.5552E-01  0.4376E+00
      6.355  0.5663E-01  0.4421E+00
      6.435  0.6944E-01  0.4477E+00
      6.515  0.7391E-01  0.4536E+00
      6.595  0.6615E-01  0.4589E+00
      6.675  0.5389E-01  0.4632E+00
      6.755  0.3707E-01  0.4662E+00
      6.835  0.4586E-01  0.4699E+00
      6.915  0.3866E-01  0.4729E+00
      6.995  0.3911E-01  0.4761E+00
      7.075  0.2154E-01  0.4778E+00
      7.155  0.3994E-02  0.4781E+00
      7.235  0.1018E-01  0.4789E+00
      7.315  0.1059E-01  0.4798E+00
      7.395  0.2741E-02  0.4800E+00
      7.475  0.3423E-04  0.4800E+00
      7.555  0.5862E-08  0.4800E+00
      7.635  0.7924E-14  0.4800E+00
      7.715  0.0000E+00  0.4800E+00
      7.796  0.0000E+00  0.4800E+00
      7.876  0.0000E+00  0.4800E+00
      7.956  0.0000E+00  0.4800E+00
      8.036  0.1524E-12  0.4800E+00
      8.116  0.3195E-07  0.4800E+00
      8.196  0.5140E-04  0.4800E+00
      8.276  0.9990E-03  0.4801E+00
      8.356  0.9391E-03  0.4802E+00
      8.436  0.3921E-03  0.4802E+00
      8.516  0.1471E-02  0.4803E+00
      8.596  0.2980E-02  0.4805E+00
      8.676  0.3744E-02  0.4808E+00
      8.756  0.6588E-02  0.4814E+00
      8.836  0.4574E-02  0.4817E+00
      8.916  0.8133E-02  0.4824E+00
      8.996  0.8625E-02  0.4831E+00
      9.076  0.4278E-02  0.4834E+00
      9.156  0.5209E-02  0.4838E+00
      9.236  0.8314E-02  0.4845E+00
      9.316  0.9961E-02  0.4853E+00
      9.396  0.1244E-01  0.4863E+00
      9.476  0.5800E-02  0.4868E+00
      9.556  0.8361E-02  0.4874E+00
      9.636  0.1847E-01  0.4889E+00
      9.716  0.1712E-01  0.4903E+00
      9.796  0.2023E-01  0.4919E+00
      9.876  0.1453E-01  0.4931E+00
      9.956  0.9285E-02  0.4938E+00
     10.036  0.1763E-01  0.4952E+00
     10.116  0.2269E-01  0.4970E+00
     10.196  0.2162E-01  0.4988E+00
     10.276  0.1664E-01  0.5001E+00
     10.356  0.1262E-01  0.5011E+00
     10.436  0.1456E-01  0.5023E+00
     10.516  0.2016E-01  0.5039E+00
     10.596  0.2047E-01  0.5055E+00
     10.676  0.1858E-01  0.5070E+00
     10.756  0.2913E-01  0.5093E+00
     10.836  0.3274E-01  0.5119E+00
     10.916  0.2345E-01  0.5138E+00
     10.996  0.2968E-01  0.5162E+00
     11.076  0.2942E-01  0.5186E+00
     11.156  0.3649E-01  0.5215E+00
     11.236  0.4086E-01  0.5247E+00
     11.316  0.3149E-01  0.5273E+00
     11.396  0.2445E-01  0.5292E+00
     11.476  0.5041E-01  0.5332E+00
     11.556  0.4527E-01  0.5369E+00
     11.636  0.3019E-01  0.5393E+00
     11.716  0.2889E-01  0.5416E+00
     11.796  0.3448E-01  0.5444E+00
     11.876  0.4115E-01  0.5476E+00
     11.956  0.4009E-01  0.5509E+00
     12.036  0.4333E-01  0.5543E+00
     12.116  0.5081E-01  0.5584E+00
     12.196  0.3784E-01  0.5614E+00
     12.276  0.2199E-01  0.5632E+00
     12.356  0.2939E-01  0.5655E+00
     12.436  0.3017E-01  0.5679E+00
     12.516  0.4196E-01  0.5713E+00
     12.596  0.6215E-01  0.5763E+00
     12.676  0.6371E-01  0.5814E+00
     12.756  0.5197E-01  0.5855E+00
     12.836  0.5263E-01  0.5897E+00
     12.916  0.4888E-01  0.5936E+00
     12.996  0.4198E-01  0.5970E+00
     13.076  0.3942E-01  0.6002E+00
     13.156  0.4864E-01  0.6040E+00
     13.236  0.4801E-01  0.6079E+00
     13.316  0.4480E-01  0.6115E+00
     13.396  0.3967E-01  0.6146E+00
     13.476  0.4718E-01  0.6184E+00
     13.556  0.5526E-01  0.6228E+00
     13.636  0.4045E-01  0.6261E+00
     13.716  0.4707E-01  0.6298E+00
     13.796  0.5075E-01  0.6339E+00
     13.876  0.5891E-01  0.6386E+00
     13.956  0.5371E-01  0.6429E+00
     14.036  0.4099E-01  0.6462E+00
     14.116  0.3630E-01  0.6491E+00
     14.196  0.3114E-01  0.6516E+00
     14.276  0.3514E-01  0.6544E+00
     14.356  0.2154E-01  0.6561E+00
     14.436  0.2024E-01  0.6577E+00
     14.516  0.1306E-01  0.6588E+00
     14.596  0.8726E-02  0.6595E+00
     14.676  0.1745E-02  0.6596E+00
     14.756  0.1079E-02  0.6597E+00
     14.836  0.3315E-02  0.6600E+00
     14.916  0.3120E-03  0.6600E+00
     14.996  0.4062E-06  0.6600E+00
     15.076  0.4342E-11  0.6600E+00
     15.156  0.3469E-18  0.6600E+00
     15.236  0.0000E+00  0.6600E+00
     15.316  0.0000E+00  0.6600E+00
     15.396  0.0000E+00  0.6600E+00
     15.476  0.0000E+00  0.6600E+00
     15.556  0.0000E+00  0.6600E+00
     15.636  0.0000E+00  0.6600E+00
     15.716  0.0000E+00  0.6600E+00
     15.796  0.0000E+00  0.6600E+00
     15.876  0.0000E+00  0.6600E+00
