Al4C3 R-3m polymorph (findsym-output, fr
   1.00000000000000     
     3.1517384181938031    0.0000000000000000    0.0000000000000000
    -1.5758692090969015    2.7294855362742654    0.0000000000000000
     0.0000000000000000    0.0000000000000000   23.5624089749654537
   Al   C 
    12     9
Direct
  0.0000000000000000  0.0000000000000000  0.6297883132254748
 -0.0000000000000000  0.0000000000000000  0.3702116867745252
  0.6666666870000029  0.3333333429999996  0.9631216262254719
  0.6666666870000029  0.3333333429999996  0.7035450007745260
  0.3333333429999996  0.6666666870000029  0.2964549692254716
  0.3333333429999996  0.6666666870000029  0.0368783547745300
  0.0000000000000000  0.0000000000000000  0.2061162991619230
  0.0000000000000000  0.0000000000000000  0.7938837008380769
  0.6666666870000029  0.3333333429999996  0.5394496131619239
  0.6666666870000029  0.3333333429999996  0.1272170288380789
  0.3333333429999996  0.6666666870000029  0.8727829861619260
  0.3333333429999996  0.6666666870000029  0.4605503568380738
 -0.0000000000000000  0.0000000000000000  0.7167559402394212
 -0.0000000000000000 -0.0000000000000000  0.2832440597605786
  0.6666666870000029  0.3333333429999996  0.0500892722394236
  0.6666666870000029  0.3333333429999996  0.6165773727605759
  0.3333333429999996  0.6666666870000029  0.3834225972394217
  0.3333333429999996  0.6666666870000029  0.9499107467605745
  0.0000000000000000 -0.0000000000000000  0.5000000000000000
  0.6666666870000029  0.3333333429999996  0.8333333129999971
  0.3333333429999996  0.6666666870000029  0.1666666719999981
 
  0.00000000E+00  0.00000000E+00  0.00000000E+00
  0.00000000E+00  0.00000000E+00  0.00000000E+00
  0.00000000E+00  0.00000000E+00  0.00000000E+00
  0.00000000E+00  0.00000000E+00  0.00000000E+00
  0.00000000E+00  0.00000000E+00  0.00000000E+00
  0.00000000E+00  0.00000000E+00  0.00000000E+00
  0.00000000E+00  0.00000000E+00  0.00000000E+00
  0.00000000E+00  0.00000000E+00  0.00000000E+00
  0.00000000E+00  0.00000000E+00  0.00000000E+00
  0.00000000E+00  0.00000000E+00  0.00000000E+00
  0.00000000E+00  0.00000000E+00  0.00000000E+00
  0.00000000E+00  0.00000000E+00  0.00000000E+00
  0.00000000E+00  0.00000000E+00  0.00000000E+00
  0.00000000E+00  0.00000000E+00  0.00000000E+00
  0.00000000E+00  0.00000000E+00  0.00000000E+00
  0.00000000E+00  0.00000000E+00  0.00000000E+00
  0.00000000E+00  0.00000000E+00  0.00000000E+00
  0.00000000E+00  0.00000000E+00  0.00000000E+00
  0.00000000E+00  0.00000000E+00  0.00000000E+00
  0.00000000E+00  0.00000000E+00  0.00000000E+00
  0.00000000E+00  0.00000000E+00  0.00000000E+00
