  21  21   0   0
  0.9750585E+01  0.3162399E-09  0.3162399E-09  0.2364210E-08  0.5000000E-15
  1.000000000000000E-004
  CAR 
 Al4C3 R-3m - r2SCAN H(P) scan @ 40 GPa (
     18.14542374     -7.72888897  301      9.35893838      1.00000000
     -7.729  0.0000E+00  0.0000E+00
     -7.643  0.0000E+00  0.0000E+00
     -7.556  0.0000E+00  0.0000E+00
     -7.470  0.0000E+00  0.0000E+00
     -7.384  0.0000E+00  0.0000E+00
     -7.298  0.0000E+00  0.0000E+00
     -7.211  0.0000E+00  0.0000E+00
     -7.125  0.0000E+00  0.0000E+00
     -7.039  0.0000E+00  0.0000E+00
     -6.953  0.0000E+00  0.0000E+00
     -6.866  0.0000E+00  0.0000E+00
     -6.780  0.2550E-13  0.2199E-14
     -6.694  0.1338E-07  0.1154E-08
     -6.608  0.2791E-04  0.2408E-05
     -6.521  0.6678E-03  0.6000E-04
     -6.435  0.2690E-02  0.2920E-03
     -6.349  0.6241E-02  0.8303E-03
     -6.263  0.5205E-02  0.1279E-02
     -6.176  0.5565E-02  0.1759E-02
     -6.090  0.6795E-02  0.2345E-02
     -6.004  0.1027E-01  0.3231E-02
     -5.918  0.6069E-02  0.3755E-02
     -5.831  0.2315E-02  0.3954E-02
     -5.745  0.3439E-02  0.4251E-02
     -5.659  0.1119E-01  0.5216E-02
     -5.573  0.1040E-01  0.6114E-02
     -5.486  0.8706E-02  0.6864E-02
     -5.400  0.7841E-02  0.7541E-02
     -5.314  0.7274E-02  0.8168E-02
     -5.228  0.4580E-02  0.8563E-02
     -5.141  0.7871E-02  0.9242E-02
     -5.055  0.2029E-01  0.1099E-01
     -4.969  0.2184E-01  0.1288E-01
     -4.883  0.1283E-01  0.1398E-01
     -4.796  0.9055E-02  0.1476E-01
     -4.710  0.1338E-01  0.1592E-01
     -4.624  0.1708E-01  0.1739E-01
     -4.538  0.7902E-02  0.1807E-01
     -4.451  0.1006E-01  0.1894E-01
     -4.365  0.2160E-01  0.2080E-01
     -4.279  0.1797E-01  0.2235E-01
     -4.193  0.2410E-01  0.2443E-01
     -4.106  0.2014E-01  0.2617E-01
     -4.020  0.1167E-01  0.2718E-01
     -3.934  0.6228E-02  0.2771E-01
     -3.848  0.1484E-01  0.2899E-01
     -3.761  0.1719E-01  0.3047E-01
     -3.675  0.1621E-01  0.3187E-01
     -3.589  0.2818E-01  0.3430E-01
     -3.503  0.3362E-01  0.3720E-01
     -3.417  0.3095E-01  0.3987E-01
     -3.330  0.1795E-01  0.4142E-01
     -3.244  0.1686E-01  0.4287E-01
     -3.158  0.2335E-01  0.4489E-01
     -3.072  0.2928E-01  0.4741E-01
     -2.985  0.2988E-01  0.4999E-01
     -2.899  0.2063E-01  0.5177E-01
     -2.813  0.2651E-01  0.5406E-01
     -2.727  0.3730E-01  0.5727E-01
     -2.640  0.2798E-01  0.5969E-01
     -2.554  0.2276E-01  0.6165E-01
     -2.468  0.1696E-01  0.6311E-01
     -2.382  0.2259E-01  0.6506E-01
     -2.295  0.3424E-01  0.6801E-01
     -2.209  0.1451E-01  0.6927E-01
     -2.123  0.1130E-01  0.7024E-01
     -2.037  0.2152E-01  0.7210E-01
     -1.950  0.4343E-01  0.7584E-01
     -1.864  0.4189E-01  0.7945E-01
     -1.778  0.7545E-01  0.8596E-01
     -1.692  0.3925E-01  0.8935E-01
     -1.605  0.7366E-02  0.8998E-01
     -1.519  0.2072E-03  0.9000E-01
     -1.433  0.1059E-06  0.9000E-01
     -1.347  0.2332E-12  0.9000E-01
     -1.260  0.0000E+00  0.9000E-01
     -1.174  0.0000E+00  0.9000E-01
     -1.088  0.0000E+00  0.9000E-01
     -1.002  0.0000E+00  0.9000E-01
     -0.915  0.0000E+00  0.9000E-01
     -0.829  0.0000E+00  0.9000E-01
     -0.743  0.0000E+00  0.9000E-01
     -0.657  0.0000E+00  0.9000E-01
     -0.570  0.0000E+00  0.9000E-01
     -0.484  0.0000E+00  0.9000E-01
     -0.398  0.0000E+00  0.9000E-01
     -0.312  0.0000E+00  0.9000E-01
     -0.225  0.0000E+00  0.9000E-01
     -0.139  0.0000E+00  0.9000E-01
     -0.053  0.0000E+00  0.9000E-01
      0.033  0.0000E+00  0.9000E-01
      0.120  0.4580E-13  0.9000E-01
      0.206  0.2850E-07  0.9000E-01
      0.292  0.6308E-04  0.9001E-01
      0.378  0.1299E-02  0.9012E-01
      0.465  0.2127E-02  0.9030E-01
      0.551  0.3420E-02  0.9060E-01
      0.637  0.9942E-02  0.9145E-01
      0.723  0.1052E-01  0.9236E-01
      0.810  0.1265E-01  0.9345E-01
      0.896  0.1245E-01  0.9453E-01
      0.982  0.6720E-02  0.9511E-01
      1.068  0.6115E-02  0.9563E-01
      1.155  0.7193E-02  0.9625E-01
      1.241  0.1717E-01  0.9773E-01
      1.327  0.2906E-01  0.1002E+00
      1.413  0.1729E-01  0.1017E+00
      1.500  0.1009E-01  0.1026E+00
      1.586  0.1259E-01  0.1037E+00
      1.672  0.1758E-01  0.1052E+00
      1.758  0.1704E-01  0.1067E+00
      1.845  0.1043E-01  0.1076E+00
      1.931  0.2025E-02  0.1077E+00
      2.017  0.1248E-01  0.1088E+00
      2.103  0.1273E-01  0.1099E+00
      2.190  0.2305E-01  0.1119E+00
      2.276  0.2711E-01  0.1142E+00
      2.362  0.2165E-01  0.1161E+00
      2.448  0.2159E-01  0.1180E+00
      2.535  0.2841E-01  0.1204E+00
      2.621  0.3413E-01  0.1234E+00
      2.707  0.4231E-01  0.1270E+00
      2.793  0.2867E-01  0.1295E+00
      2.880  0.2649E-01  0.1318E+00
      2.966  0.2526E-01  0.1340E+00
      3.052  0.4176E-01  0.1376E+00
      3.138  0.3115E-01  0.1402E+00
      3.225  0.2041E-01  0.1420E+00
      3.311  0.2197E-01  0.1439E+00
      3.397  0.3031E-01  0.1465E+00
      3.483  0.2545E-01  0.1487E+00
      3.570  0.4881E-01  0.1529E+00
      3.656  0.3558E-01  0.1560E+00
      3.742  0.4427E-01  0.1598E+00
      3.828  0.3529E-01  0.1628E+00
      3.915  0.2725E-01  0.1652E+00
      4.001  0.2405E-01  0.1673E+00
      4.087  0.3530E-01  0.1703E+00
      4.173  0.4716E-01  0.1744E+00
      4.260  0.4698E-01  0.1784E+00
      4.346  0.3582E-01  0.1815E+00
      4.432  0.3454E-01  0.1845E+00
      4.518  0.2711E-01  0.1868E+00
      4.605  0.2556E-01  0.1890E+00
      4.691  0.2812E-01  0.1915E+00
      4.777  0.1702E-01  0.1929E+00
      4.863  0.2542E-01  0.1951E+00
      4.950  0.2707E-01  0.1975E+00
      5.036  0.4416E-01  0.2013E+00
      5.122  0.3529E-01  0.2043E+00
      5.208  0.4122E-01  0.2079E+00
      5.295  0.3330E-01  0.2107E+00
      5.381  0.3104E-01  0.2134E+00
      5.467  0.3837E-01  0.2167E+00
      5.553  0.2845E-01  0.2192E+00
      5.640  0.2338E-01  0.2212E+00
      5.726  0.3080E-01  0.2239E+00
      5.812  0.4529E-01  0.2278E+00
      5.898  0.3847E-01  0.2311E+00
      5.984  0.4334E-01  0.2348E+00
      6.071  0.4638E-01  0.2388E+00
      6.157  0.4092E-01  0.2424E+00
      6.243  0.3376E-01  0.2453E+00
      6.329  0.2716E-01  0.2476E+00
      6.416  0.3432E-01  0.2506E+00
      6.502  0.4429E-01  0.2544E+00
      6.588  0.3371E-01  0.2573E+00
      6.674  0.3761E-01  0.2605E+00
      6.761  0.3229E-01  0.2633E+00
      6.847  0.4676E-01  0.2674E+00
      6.933  0.7175E-01  0.2735E+00
      7.019  0.5173E-01  0.2780E+00
      7.106  0.4365E-01  0.2818E+00
      7.192  0.4847E-01  0.2860E+00
      7.278  0.5351E-01  0.2906E+00
      7.364  0.6198E-01  0.2959E+00
      7.451  0.4005E-01  0.2994E+00
      7.537  0.5886E-01  0.3044E+00
      7.623  0.5992E-01  0.3096E+00
      7.709  0.3912E-01  0.3130E+00
      7.796  0.4549E-01  0.3169E+00
      7.882  0.4616E-01  0.3209E+00
      7.968  0.4392E-01  0.3247E+00
      8.054  0.4627E-01  0.3287E+00
      8.141  0.5435E-01  0.3334E+00
      8.227  0.4891E-01  0.3376E+00
      8.313  0.4246E-01  0.3412E+00
      8.399  0.3296E-01  0.3441E+00
      8.486  0.3739E-01  0.3473E+00
      8.572  0.2280E-01  0.3493E+00
      8.658  0.2748E-01  0.3516E+00
      8.744  0.2407E-01  0.3537E+00
      8.831  0.1790E-01  0.3553E+00
      8.917  0.1657E-01  0.3567E+00
      9.003  0.1462E-01  0.3580E+00
      9.089  0.1167E-01  0.3590E+00
      9.176  0.1124E-01  0.3599E+00
      9.262  0.8571E-03  0.3600E+00
      9.348  0.1046E-05  0.3600E+00
      9.434  0.7910E-11  0.3600E+00
      9.521  0.1788E-18  0.3600E+00
      9.607  0.0000E+00  0.3600E+00
      9.693  0.0000E+00  0.3600E+00
      9.779  0.0000E+00  0.3600E+00
      9.866  0.0000E+00  0.3600E+00
      9.952  0.0000E+00  0.3600E+00
     10.038  0.0000E+00  0.3600E+00
     10.124  0.0000E+00  0.3600E+00
     10.211  0.0000E+00  0.3600E+00
     10.297  0.0000E+00  0.3600E+00
     10.383  0.0000E+00  0.3600E+00
     10.469  0.0000E+00  0.3600E+00
     10.556  0.2067E-12  0.3600E+00
     10.642  0.7465E-07  0.3600E+00
     10.728  0.9782E-04  0.3600E+00
     10.814  0.1176E-02  0.3601E+00
     10.901  0.2109E-02  0.3603E+00
     10.987  0.2577E-02  0.3605E+00
     11.073  0.5578E-02  0.3610E+00
     11.159  0.5558E-02  0.3615E+00
     11.246  0.4270E-02  0.3618E+00
     11.332  0.4534E-02  0.3622E+00
     11.418  0.9782E-02  0.3631E+00
     11.504  0.1156E-01  0.3641E+00
     11.591  0.3490E-02  0.3644E+00
     11.677  0.2839E-02  0.3646E+00
     11.763  0.1181E-01  0.3656E+00
     11.849  0.1597E-01  0.3670E+00
     11.936  0.1382E-01  0.3682E+00
     12.022  0.1725E-01  0.3697E+00
     12.108  0.1887E-01  0.3713E+00
     12.194  0.2020E-01  0.3731E+00
     12.281  0.7277E-02  0.3737E+00
     12.367  0.1356E-01  0.3749E+00
     12.453  0.7858E-02  0.3755E+00
     12.539  0.1027E-01  0.3764E+00
     12.626  0.2213E-01  0.3783E+00
     12.712  0.2640E-01  0.3806E+00
     12.798  0.2510E-01  0.3828E+00
     12.884  0.9984E-02  0.3836E+00
     12.971  0.1399E-01  0.3848E+00
     13.057  0.1163E-01  0.3858E+00
     13.143  0.1483E-01  0.3871E+00
     13.229  0.1596E-01  0.3885E+00
     13.316  0.1841E-01  0.3901E+00
     13.402  0.1079E-01  0.3910E+00
     13.488  0.1845E-01  0.3926E+00
     13.574  0.3085E-01  0.3953E+00
     13.661  0.4162E-01  0.3989E+00
     13.747  0.4809E-01  0.4030E+00
     13.833  0.3172E-01  0.4057E+00
     13.919  0.1711E-01  0.4072E+00
     14.006  0.1212E-01  0.4083E+00
     14.092  0.1780E-01  0.4098E+00
     14.178  0.1185E-01  0.4108E+00
     14.264  0.9133E-02  0.4116E+00
     14.351  0.2316E-01  0.4136E+00
     14.437  0.1876E-01  0.4152E+00
     14.523  0.1941E-01  0.4169E+00
     14.609  0.3796E-01  0.4202E+00
     14.696  0.3403E-01  0.4231E+00
     14.782  0.2386E-01  0.4252E+00
     14.868  0.2459E-01  0.4273E+00
     14.954  0.3553E-01  0.4304E+00
     15.041  0.3295E-01  0.4332E+00
     15.127  0.2888E-01  0.4357E+00
     15.213  0.2787E-01  0.4381E+00
     15.299  0.4640E-01  0.4421E+00
     15.385  0.4919E-01  0.4463E+00
     15.472  0.7652E-01  0.4529E+00
     15.558  0.5202E-01  0.4574E+00
     15.644  0.2892E-01  0.4599E+00
     15.730  0.3185E-01  0.4627E+00
     15.817  0.2554E-01  0.4649E+00
     15.903  0.2241E-01  0.4668E+00
     15.989  0.2685E-01  0.4691E+00
     16.075  0.2083E-01  0.4709E+00
     16.162  0.1158E-01  0.4719E+00
     16.248  0.1607E-01  0.4733E+00
     16.334  0.2544E-01  0.4755E+00
     16.420  0.2093E-01  0.4773E+00
     16.507  0.1784E-01  0.4788E+00
     16.593  0.3773E-02  0.4792E+00
     16.679  0.2446E-02  0.4794E+00
     16.765  0.4522E-02  0.4798E+00
     16.852  0.3921E-03  0.4798E+00
     16.938  0.4522E-03  0.4798E+00
     17.024  0.1817E-02  0.4800E+00
     17.110  0.1455E-03  0.4800E+00
     17.197  0.7919E-07  0.4800E+00
     17.283  0.1528E-12  0.4800E+00
     17.369  0.0000E+00  0.4800E+00
     17.455  0.0000E+00  0.4800E+00
     17.542  0.0000E+00  0.4800E+00
     17.628  0.0000E+00  0.4800E+00
     17.714  0.0000E+00  0.4800E+00
     17.800  0.0000E+00  0.4800E+00
     17.887  0.0000E+00  0.4800E+00
     17.973  0.0000E+00  0.4800E+00
     18.059  0.0000E+00  0.4800E+00
     18.145  0.0000E+00  0.4800E+00
