Al4C3 R-3m - r2SCAN H(P) scan @ 40 GPa (
           1
     3.162399    0.000000    0.000000
    -1.581199    2.738717    0.000000
     0.000000    0.000000   23.642104
   Al   C 
    12     9
Direct configuration=     1
   0.00000000  0.00000000  0.62956530
   0.00000000  0.00000000  0.37043470
   0.66666669  0.33333334  0.96289861
   0.66666669  0.33333334  0.70376801
   0.33333334  0.66666669  0.29623196
   0.33333334  0.66666669  0.03710137
   0.00000000  0.00000000  0.20613545
   0.00000000  0.00000000  0.79386455
   0.66666669  0.33333334  0.53946876
   0.66666669  0.33333334  0.12719788
   0.33333334  0.66666669  0.87280213
   0.33333334  0.66666669  0.46053121
   0.00000000  0.00000000  0.71670427
   0.00000000  0.00000000  0.28329573
   0.66666669  0.33333334  0.05003760
   0.66666669  0.33333334  0.61662905
   0.33333334  0.66666669  0.38337092
   0.33333334  0.66666669  0.94996242
   0.00000000  0.00000000  0.50000000
   0.66666669  0.33333334  0.83333331
   0.33333334  0.66666669  0.16666667
Al4C3 R-3m - r2SCAN H(P) scan @ 40 GPa (
           1
     3.133048    0.000000    0.000000
    -1.566524    2.713299    0.000000
     0.000000    0.000000   23.422681
   Al   C 
    12     9
Direct configuration=     2
  -0.00000000  0.00000000  0.62982342
   0.00000000  0.00000000  0.37017658
   0.66666669  0.33333334  0.96315673
   0.66666669  0.33333334  0.70350990
   0.33333334  0.66666669  0.29649007
   0.33333334  0.66666669  0.03684325
   0.00000000  0.00000000  0.20617650
  -0.00000000  0.00000000  0.79382350
   0.66666669  0.33333334  0.53950981
   0.66666669  0.33333334  0.12715683
   0.33333334  0.66666669  0.87284318
   0.33333334  0.66666669  0.46049016
   0.00000000 -0.00000000  0.71681930
  -0.00000000 -0.00000000  0.28318070
   0.66666669  0.33333334  0.05015264
   0.66666669  0.33333334  0.61651401
   0.33333334  0.66666669  0.38348596
   0.33333334  0.66666669  0.94984738
   0.00000000  0.00000000  0.50000000
   0.66666669  0.33333334  0.83333331
   0.33333334  0.66666669  0.16666667
Al4C3 R-3m - r2SCAN H(P) scan @ 40 GPa (
           1
     3.151476    0.000000    0.000000
    -1.575738    2.729258    0.000000
     0.000000    0.000000   23.560448
   Al   C 
    12     9
Direct configuration=     3
  -0.00000000  0.00000000  0.62965984
   0.00000000  0.00000000  0.37034016
   0.66666669  0.33333334  0.96299315
   0.66666669  0.33333334  0.70367348
   0.33333334  0.66666669  0.29632649
   0.33333334  0.66666669  0.03700683
   0.00000000  0.00000000  0.20615048
  -0.00000000  0.00000000  0.79384952
   0.66666669  0.33333334  0.53948380
   0.66666669  0.33333334  0.12718285
   0.33333334  0.66666669  0.87281717
   0.33333334  0.66666669  0.46051617
   0.00000000 -0.00000000  0.71674640
  -0.00000000 -0.00000000  0.28325360
   0.66666669  0.33333334  0.05007973
   0.66666669  0.33333334  0.61658691
   0.33333334  0.66666669  0.38341306
   0.33333334  0.66666669  0.94992029
   0.00000000  0.00000000  0.50000000
   0.66666669  0.33333334  0.83333331
   0.33333334  0.66666669  0.16666667
Al4C3 R-3m - r2SCAN H(P) scan @ 40 GPa (
           1
     3.151548    0.000000    0.000000
    -1.575774    2.729321    0.000000
     0.000000    0.000000   23.560987
   Al   C 
    12     9
Direct configuration=     4
   0.00000000  0.00000000  0.62978425
  -0.00000000  0.00000000  0.37021575
   0.66666669  0.33333334  0.96311756
   0.66666669  0.33333334  0.70354906
   0.33333334  0.66666669  0.29645091
   0.33333334  0.66666669  0.03688242
   0.00000000  0.00000000  0.20607905
   0.00000000  0.00000000  0.79392095
   0.66666669  0.33333334  0.53941236
   0.66666669  0.33333334  0.12725428
   0.33333334  0.66666669  0.87274574
   0.33333334  0.66666669  0.46058761
  -0.00000000  0.00000000  0.71673074
  -0.00000000 -0.00000000  0.28326926
   0.66666669  0.33333334  0.05006407
   0.66666669  0.33333334  0.61660257
   0.33333334  0.66666669  0.38339740
   0.33333334  0.66666669  0.94993595
   0.00000000 -0.00000000  0.50000000
   0.66666669  0.33333334  0.83333331
   0.33333334  0.66666669  0.16666667
Al4C3 R-3m - r2SCAN H(P) scan @ 40 GPa (
           1
     3.151527    0.000000    0.000000
    -1.575764    2.729303    0.000000
     0.000000    0.000000   23.560831
   Al   C 
    12     9
Direct configuration=     5
   0.00000000  0.00000000  0.62974825
  -0.00000000  0.00000000  0.37025175
   0.66666669  0.33333334  0.96308157
   0.66666669  0.33333334  0.70358506
   0.33333334  0.66666669  0.29641491
   0.33333334  0.66666669  0.03691841
   0.00000000  0.00000000  0.20609972
  -0.00000000  0.00000000  0.79390028
   0.66666669  0.33333334  0.53943303
   0.66666669  0.33333334  0.12723361
   0.33333334  0.66666669  0.87276640
   0.33333334  0.66666669  0.46056694
  -0.00000000  0.00000000  0.71673527
  -0.00000000 -0.00000000  0.28326473
   0.66666669  0.33333334  0.05006860
   0.66666669  0.33333334  0.61659804
   0.33333334  0.66666669  0.38340193
   0.33333334  0.66666669  0.94993142
   0.00000000 -0.00000000  0.50000000
   0.66666669  0.33333334  0.83333331
   0.33333334  0.66666669  0.16666667
Al4C3 R-3m - r2SCAN H(P) scan @ 40 GPa (
           1
     3.151911    0.000000    0.000000
    -1.575955    2.729635    0.000000
     0.000000    0.000000   23.563699
   Al   C 
    12     9
Direct configuration=     6
   0.00000000  0.00000000  0.62982106
   0.00000000 -0.00000000  0.37017894
   0.66666669  0.33333334  0.96315437
   0.66666669  0.33333334  0.70351226
   0.33333334  0.66666669  0.29648771
   0.33333334  0.66666669  0.03684561
   0.00000000  0.00000000  0.20612985
   0.00000000  0.00000000  0.79387015
   0.66666669  0.33333334  0.53946317
   0.66666669  0.33333334  0.12720348
   0.33333334  0.66666669  0.87279654
   0.33333334  0.66666669  0.46053680
  -0.00000000  0.00000000  0.71677283
  -0.00000000 -0.00000000  0.28322717
   0.66666669  0.33333334  0.05010617
   0.66666669  0.33333334  0.61656048
   0.33333334  0.66666669  0.38343949
   0.33333334  0.66666669  0.94989385
  -0.00000000  0.00000000  0.50000000
   0.66666669  0.33333334  0.83333331
   0.33333334  0.66666669  0.16666667
Al4C3 R-3m - r2SCAN H(P) scan @ 40 GPa (
           1
     3.151738    0.000000    0.000000
    -1.575869    2.729486    0.000000
     0.000000    0.000000   23.562409
   Al   C 
    12     9
Direct configuration=     7
   0.00000000  0.00000000  0.62978831
  -0.00000000  0.00000000  0.37021169
   0.66666669  0.33333334  0.96312163
   0.66666669  0.33333334  0.70354500
   0.33333334  0.66666669  0.29645497
   0.33333334  0.66666669  0.03687835
   0.00000000  0.00000000  0.20611630
   0.00000000  0.00000000  0.79388370
   0.66666669  0.33333334  0.53944961
   0.66666669  0.33333334  0.12721703
   0.33333334  0.66666669  0.87278299
   0.33333334  0.66666669  0.46055036
  -0.00000000  0.00000000  0.71675594
  -0.00000000 -0.00000000  0.28324406
   0.66666669  0.33333334  0.05008927
   0.66666669  0.33333334  0.61657737
   0.33333334  0.66666669  0.38342260
   0.33333334  0.66666669  0.94991075
   0.00000000 -0.00000000  0.50000000
   0.66666669  0.33333334  0.83333331
   0.33333334  0.66666669  0.16666667
