Al4C3 Pnma (CIF findsym, P21/n21/m21/a) 
   1.00000000000000     
     8.9685337591073448    0.0000000000000000    0.0000000000000000
     0.0000000000000000    3.0814704621109166    0.0000000000000000
     0.0000000000000000    0.0000000000000000    9.4544816219385392
   Al   C 
    16    12
Direct
  0.2679095109387364  0.2500000000000000  0.2664535925950153
  0.7679095109387364  0.2500000000000000  0.2335464074049847
  0.7320904890612636  0.7500000000000000  0.7335464074049847
  0.2320904890612636  0.7500000000000000  0.7664535925950153
  0.4666146605878884  0.2500000000000000  0.8917605750835758
  0.9666146605878885  0.2500000000000000  0.6082394249164242
  0.5333853394121115  0.7500000000000000  0.1082394249164243
  0.0333853394121116  0.7500000000000000  0.3917605750835757
  0.5058100099518248  0.2500000000000000  0.6041464002520441
  0.0058100099518249  0.2500000000000000  0.8958535997479559
  0.4941899900481750  0.7500000000000000  0.3958535997479557
  0.9941899900481752  0.7500000000000000  0.1041464002520443
  0.2376442658903307  0.2500000000000000  0.5584496629801255
  0.7376442658903306  0.2500000000000000  0.9415503370198745
  0.7623557341096694  0.7500000000000000  0.4415503370198742
  0.2623557341096693  0.7500000000000000  0.0584496629801257
  0.3847324798722001  0.2500000000000000  0.4250511680809567
  0.8847324798721999  0.2500000000000000  0.0749488319190433
  0.6152675201278001  0.7500000000000000  0.5749488319190432
  0.1152675201277999  0.7500000000000000  0.9250511680809568
  0.3935273081576009  0.2500000000000000  0.0870001908062065
  0.8935273081576006  0.2500000000000000  0.4129998091937934
  0.6064726918423994  0.7500000000000000  0.9129998091937935
  0.1064726918423992  0.7500000000000000  0.5870001908062065
  0.3475498006619100  0.2500000000000000  0.7345534024460061
  0.8475498006619100  0.2500000000000000  0.7654465975539939
  0.6524501993380900  0.7500000000000000  0.2654465975539937
  0.1524501993380900  0.7500000000000000  0.2345534024460062
 
  0.00000000E+00  0.00000000E+00  0.00000000E+00
  0.00000000E+00  0.00000000E+00  0.00000000E+00
  0.00000000E+00  0.00000000E+00  0.00000000E+00
  0.00000000E+00  0.00000000E+00  0.00000000E+00
  0.00000000E+00  0.00000000E+00  0.00000000E+00
  0.00000000E+00  0.00000000E+00  0.00000000E+00
  0.00000000E+00  0.00000000E+00  0.00000000E+00
  0.00000000E+00  0.00000000E+00  0.00000000E+00
  0.00000000E+00  0.00000000E+00  0.00000000E+00
  0.00000000E+00  0.00000000E+00  0.00000000E+00
  0.00000000E+00  0.00000000E+00  0.00000000E+00
  0.00000000E+00  0.00000000E+00  0.00000000E+00
  0.00000000E+00  0.00000000E+00  0.00000000E+00
  0.00000000E+00  0.00000000E+00  0.00000000E+00
  0.00000000E+00  0.00000000E+00  0.00000000E+00
  0.00000000E+00  0.00000000E+00  0.00000000E+00
  0.00000000E+00  0.00000000E+00  0.00000000E+00
  0.00000000E+00  0.00000000E+00  0.00000000E+00
  0.00000000E+00  0.00000000E+00  0.00000000E+00
  0.00000000E+00  0.00000000E+00  0.00000000E+00
  0.00000000E+00  0.00000000E+00  0.00000000E+00
  0.00000000E+00  0.00000000E+00  0.00000000E+00
  0.00000000E+00  0.00000000E+00  0.00000000E+00
  0.00000000E+00  0.00000000E+00  0.00000000E+00
  0.00000000E+00  0.00000000E+00  0.00000000E+00
  0.00000000E+00  0.00000000E+00  0.00000000E+00
  0.00000000E+00  0.00000000E+00  0.00000000E+00
  0.00000000E+00  0.00000000E+00  0.00000000E+00
