  28  28   0   0
  0.9406355E+01  0.8992398E-09  0.3089670E-09  0.9479639E-09  0.5000000E-15
  1.000000000000000E-004
  CAR 
 Al4C3 Pnma-VII - r2SCAN H(P) scan @ 50 G
     19.11013364     -7.56085775  301      9.69749626      1.00000000
     -7.561  0.0000E+00  0.0000E+00
     -7.472  0.0000E+00  0.0000E+00
     -7.383  0.0000E+00  0.0000E+00
     -7.294  0.0000E+00  0.0000E+00
     -7.205  0.0000E+00  0.0000E+00
     -7.116  0.0000E+00  0.0000E+00
     -7.027  0.0000E+00  0.0000E+00
     -6.939  0.0000E+00  0.0000E+00
     -6.850  0.0000E+00  0.0000E+00
     -6.761  0.0000E+00  0.0000E+00
     -6.672  0.0000E+00  0.0000E+00
     -6.583  0.1078E-13  0.9581E-15
     -6.494  0.1239E-07  0.1101E-08
     -6.405  0.3510E-04  0.3122E-05
     -6.316  0.6922E-03  0.6466E-04
     -6.227  0.3222E-02  0.3511E-03
     -6.138  0.6344E-02  0.9151E-03
     -6.050  0.6322E-02  0.1477E-02
     -5.961  0.6088E-02  0.2018E-02
     -5.872  0.1102E-01  0.2998E-02
     -5.783  0.1434E-01  0.4273E-02
     -5.694  0.1030E-01  0.5189E-02
     -5.605  0.8805E-02  0.5971E-02
     -5.516  0.1412E-01  0.7226E-02
     -5.427  0.7432E-02  0.7887E-02
     -5.338  0.5623E-02  0.8387E-02
     -5.249  0.1458E-01  0.9683E-02
     -5.160  0.1303E-01  0.1084E-01
     -5.072  0.1480E-01  0.1216E-01
     -4.983  0.1898E-01  0.1384E-01
     -4.894  0.1130E-01  0.1485E-01
     -4.805  0.1346E-01  0.1605E-01
     -4.716  0.2507E-01  0.1828E-01
     -4.627  0.1699E-01  0.1979E-01
     -4.538  0.1179E-01  0.2083E-01
     -4.449  0.1339E-01  0.2202E-01
     -4.360  0.1511E-01  0.2337E-01
     -4.271  0.2877E-01  0.2593E-01
     -4.183  0.1783E-01  0.2751E-01
     -4.094  0.1271E-01  0.2864E-01
     -4.005  0.2243E-01  0.3064E-01
     -3.916  0.2042E-01  0.3245E-01
     -3.827  0.2325E-01  0.3452E-01
     -3.738  0.2005E-01  0.3630E-01
     -3.649  0.2352E-01  0.3839E-01
     -3.560  0.2665E-01  0.4076E-01
     -3.471  0.2921E-01  0.4336E-01
     -3.382  0.2451E-01  0.4553E-01
     -3.293  0.2600E-01  0.4785E-01
     -3.205  0.2690E-01  0.5024E-01
     -3.116  0.2727E-01  0.5266E-01
     -3.027  0.2599E-01  0.5497E-01
     -2.938  0.2244E-01  0.5697E-01
     -2.849  0.4152E-01  0.6066E-01
     -2.760  0.5478E-01  0.6553E-01
     -2.671  0.3978E-01  0.6907E-01
     -2.582  0.3926E-01  0.7256E-01
     -2.493  0.3486E-01  0.7566E-01
     -2.404  0.5059E-01  0.8015E-01
     -2.316  0.4178E-01  0.8387E-01
     -2.227  0.3259E-01  0.8676E-01
     -2.138  0.3099E-01  0.8952E-01
     -2.049  0.3132E-01  0.9230E-01
     -1.960  0.3446E-01  0.9537E-01
     -1.871  0.4229E-01  0.9913E-01
     -1.782  0.5411E-01  0.1039E+00
     -1.693  0.4408E-01  0.1079E+00
     -1.604  0.4821E-01  0.1121E+00
     -1.515  0.5929E-01  0.1174E+00
     -1.427  0.2818E-01  0.1199E+00
     -1.338  0.9027E-03  0.1200E+00
     -1.249  0.2695E-06  0.1200E+00
     -1.160  0.2856E-12  0.1200E+00
     -1.071  0.0000E+00  0.1200E+00
     -0.982  0.0000E+00  0.1200E+00
     -0.893  0.0000E+00  0.1200E+00
     -0.804  0.0000E+00  0.1200E+00
     -0.715  0.0000E+00  0.1200E+00
     -0.626  0.0000E+00  0.1200E+00
     -0.537  0.0000E+00  0.1200E+00
     -0.449  0.0000E+00  0.1200E+00
     -0.360  0.0000E+00  0.1200E+00
     -0.271  0.0000E+00  0.1200E+00
     -0.182  0.0000E+00  0.1200E+00
     -0.093  0.0000E+00  0.1200E+00
     -0.004  0.0000E+00  0.1200E+00
      0.085  0.0000E+00  0.1200E+00
      0.174  0.0000E+00  0.1200E+00
      0.263  0.0000E+00  0.1200E+00
      0.352  0.0000E+00  0.1200E+00
      0.440  0.0000E+00  0.1200E+00
      0.529  0.0000E+00  0.1200E+00
      0.618  0.3543E-14  0.1200E+00
      0.707  0.7717E-08  0.1200E+00
      0.796  0.4076E-04  0.1200E+00
      0.885  0.1512E-02  0.1201E+00
      0.974  0.5888E-02  0.1207E+00
      1.063  0.8591E-02  0.1214E+00
      1.152  0.5992E-02  0.1220E+00
      1.241  0.8544E-02  0.1227E+00
      1.329  0.1777E-01  0.1243E+00
      1.418  0.1533E-01  0.1257E+00
      1.507  0.2057E-01  0.1275E+00
      1.596  0.2933E-01  0.1301E+00
      1.685  0.2388E-01  0.1322E+00
      1.774  0.2738E-01  0.1347E+00
      1.863  0.2013E-01  0.1364E+00
      1.952  0.1336E-01  0.1376E+00
      2.041  0.1588E-01  0.1390E+00
      2.130  0.2221E-01  0.1410E+00
      2.219  0.3263E-01  0.1439E+00
      2.307  0.3113E-01  0.1467E+00
      2.396  0.2378E-01  0.1488E+00
      2.485  0.2688E-01  0.1512E+00
      2.574  0.2362E-01  0.1533E+00
      2.663  0.2246E-01  0.1553E+00
      2.752  0.2573E-01  0.1576E+00
      2.841  0.3407E-01  0.1606E+00
      2.930  0.5201E-01  0.1652E+00
      3.019  0.5689E-01  0.1703E+00
      3.108  0.5698E-01  0.1754E+00
      3.196  0.5437E-01  0.1802E+00
      3.285  0.3419E-01  0.1832E+00
      3.374  0.4389E-01  0.1871E+00
      3.463  0.5746E-01  0.1922E+00
      3.552  0.4257E-01  0.1960E+00
      3.641  0.4158E-01  0.1997E+00
      3.730  0.3785E-01  0.2031E+00
      3.819  0.3864E-01  0.2065E+00
      3.908  0.3515E-01  0.2096E+00
      3.997  0.3510E-01  0.2128E+00
      4.085  0.3670E-01  0.2160E+00
      4.174  0.3532E-01  0.2192E+00
      4.263  0.3591E-01  0.2224E+00
      4.352  0.2704E-01  0.2248E+00
      4.441  0.3603E-01  0.2280E+00
      4.530  0.4535E-01  0.2320E+00
      4.619  0.3879E-01  0.2354E+00
      4.708  0.2990E-01  0.2381E+00
      4.797  0.3960E-01  0.2416E+00
      4.886  0.3718E-01  0.2449E+00
      4.975  0.4234E-01  0.2487E+00
      5.063  0.4984E-01  0.2531E+00
      5.152  0.4888E-01  0.2575E+00
      5.241  0.3781E-01  0.2608E+00
      5.330  0.4414E-01  0.2648E+00
      5.419  0.5431E-01  0.2696E+00
      5.508  0.4896E-01  0.2739E+00
      5.597  0.3694E-01  0.2772E+00
      5.686  0.5181E-01  0.2818E+00
      5.775  0.3400E-01  0.2848E+00
      5.864  0.4849E-01  0.2892E+00
      5.952  0.4471E-01  0.2931E+00
      6.041  0.4128E-01  0.2968E+00
      6.130  0.4931E-01  0.3012E+00
      6.219  0.5935E-01  0.3065E+00
      6.308  0.5364E-01  0.3112E+00
      6.397  0.5812E-01  0.3164E+00
      6.486  0.5644E-01  0.3214E+00
      6.575  0.5457E-01  0.3263E+00
      6.664  0.5331E-01  0.3310E+00
      6.753  0.7017E-01  0.3372E+00
      6.841  0.7350E-01  0.3438E+00
      6.930  0.5215E-01  0.3484E+00
      7.019  0.5462E-01  0.3533E+00
      7.108  0.6263E-01  0.3588E+00
      7.197  0.5816E-01  0.3640E+00
      7.286  0.8117E-01  0.3712E+00
      7.375  0.7978E-01  0.3783E+00
      7.464  0.6325E-01  0.3839E+00
      7.553  0.6461E-01  0.3897E+00
      7.642  0.7465E-01  0.3963E+00
      7.731  0.6174E-01  0.4018E+00
      7.819  0.4879E-01  0.4062E+00
      7.908  0.5572E-01  0.4111E+00
      7.997  0.6100E-01  0.4165E+00
      8.086  0.8352E-01  0.4240E+00
      8.175  0.6980E-01  0.4302E+00
      8.264  0.6856E-01  0.4363E+00
      8.353  0.5888E-01  0.4415E+00
      8.442  0.4422E-01  0.4454E+00
      8.531  0.4656E-01  0.4496E+00
      8.620  0.6537E-01  0.4554E+00
      8.708  0.5898E-01  0.4606E+00
      8.797  0.4772E-01  0.4649E+00
      8.886  0.3186E-01  0.4677E+00
      8.975  0.3017E-01  0.4704E+00
      9.064  0.3284E-01  0.4733E+00
      9.153  0.3729E-01  0.4766E+00
      9.242  0.1675E-01  0.4781E+00
      9.331  0.1213E-02  0.4782E+00
      9.420  0.8384E-02  0.4789E+00
      9.509  0.1078E-01  0.4799E+00
      9.597  0.1036E-02  0.4800E+00
      9.686  0.1414E-05  0.4800E+00
      9.775  0.8431E-11  0.4800E+00
      9.864  0.1419E-18  0.4800E+00
      9.953  0.0000E+00  0.4800E+00
     10.042  0.1586E-16  0.4800E+00
     10.131  0.2750E-09  0.4800E+00
     10.220  0.1061E-04  0.4800E+00
     10.309  0.1332E-02  0.4801E+00
     10.398  0.1840E-02  0.4803E+00
     10.487  0.1689E-02  0.4804E+00
     10.575  0.2114E-02  0.4806E+00
     10.664  0.1307E-03  0.4806E+00
     10.753  0.4519E-02  0.4810E+00
     10.842  0.5523E-02  0.4815E+00
     10.931  0.6407E-02  0.4821E+00
     11.020  0.8312E-02  0.4828E+00
     11.109  0.6420E-02  0.4834E+00
     11.198  0.1294E-02  0.4835E+00
     11.287  0.3604E-02  0.4838E+00
     11.376  0.1038E-01  0.4848E+00
     11.464  0.1204E-01  0.4858E+00
     11.553  0.4058E-02  0.4862E+00
     11.642  0.9683E-02  0.4871E+00
     11.731  0.1258E-01  0.4882E+00
     11.820  0.1639E-01  0.4896E+00
     11.909  0.1371E-01  0.4908E+00
     11.998  0.1002E-01  0.4917E+00
     12.087  0.8562E-02  0.4925E+00
     12.176  0.1308E-01  0.4937E+00
     12.265  0.1422E-01  0.4949E+00
     12.353  0.1910E-01  0.4966E+00
     12.442  0.1834E-01  0.4983E+00
     12.531  0.1534E-01  0.4996E+00
     12.620  0.1571E-01  0.5010E+00
     12.709  0.1585E-01  0.5024E+00
     12.798  0.1746E-01  0.5040E+00
     12.887  0.1121E-01  0.5050E+00
     12.976  0.1775E-01  0.5066E+00
     13.065  0.2433E-01  0.5087E+00
     13.154  0.1579E-01  0.5101E+00
     13.243  0.2323E-01  0.5122E+00
     13.331  0.3382E-01  0.5152E+00
     13.420  0.2590E-01  0.5175E+00
     13.509  0.2750E-01  0.5199E+00
     13.598  0.3268E-01  0.5228E+00
     13.687  0.2726E-01  0.5253E+00
     13.776  0.2765E-01  0.5277E+00
     13.865  0.2545E-01  0.5300E+00
     13.954  0.3441E-01  0.5330E+00
     14.043  0.2266E-01  0.5351E+00
     14.132  0.2281E-01  0.5371E+00
     14.220  0.2903E-01  0.5397E+00
     14.309  0.2472E-01  0.5419E+00
     14.398  0.2189E-01  0.5438E+00
     14.487  0.2200E-01  0.5458E+00
     14.576  0.4697E-01  0.5499E+00
     14.665  0.2812E-01  0.5524E+00
     14.754  0.2865E-01  0.5550E+00
     14.843  0.3236E-01  0.5579E+00
     14.932  0.3038E-01  0.5606E+00
     15.021  0.2661E-01  0.5629E+00
     15.109  0.2752E-01  0.5654E+00
     15.198  0.1891E-01  0.5671E+00
     15.287  0.2018E-01  0.5689E+00
     15.376  0.2923E-01  0.5715E+00
     15.465  0.3107E-01  0.5742E+00
     15.554  0.3032E-01  0.5769E+00
     15.643  0.3056E-01  0.5796E+00
     15.732  0.4115E-01  0.5833E+00
     15.821  0.4343E-01  0.5872E+00
     15.910  0.3740E-01  0.5905E+00
     15.999  0.2565E-01  0.5928E+00
     16.087  0.3525E-01  0.5959E+00
     16.176  0.2289E-01  0.5979E+00
     16.265  0.2937E-01  0.6005E+00
     16.354  0.3005E-01  0.6032E+00
     16.443  0.2950E-01  0.6058E+00
     16.532  0.4363E-01  0.6097E+00
     16.621  0.5657E-01  0.6147E+00
     16.710  0.4019E-01  0.6183E+00
     16.799  0.3820E-01  0.6217E+00
     16.888  0.4481E-01  0.6257E+00
     16.976  0.4634E-01  0.6298E+00
     17.065  0.4393E-01  0.6337E+00
     17.154  0.4133E-01  0.6374E+00
     17.243  0.3938E-01  0.6409E+00
     17.332  0.3092E-01  0.6436E+00
     17.421  0.4373E-01  0.6475E+00
     17.510  0.3505E-01  0.6506E+00
     17.599  0.3149E-01  0.6534E+00
     17.688  0.3174E-01  0.6563E+00
     17.777  0.1834E-01  0.6579E+00
     17.865  0.1942E-01  0.6596E+00
     17.954  0.4057E-02  0.6600E+00
     18.043  0.1461E-03  0.6600E+00
     18.132  0.4963E-07  0.6600E+00
     18.221  0.4311E-13  0.6600E+00
     18.310  0.0000E+00  0.6600E+00
     18.399  0.0000E+00  0.6600E+00
     18.488  0.0000E+00  0.6600E+00
     18.577  0.0000E+00  0.6600E+00
     18.666  0.0000E+00  0.6600E+00
     18.755  0.0000E+00  0.6600E+00
     18.843  0.0000E+00  0.6600E+00
     18.932  0.0000E+00  0.6600E+00
     19.021  0.0000E+00  0.6600E+00
     19.110  0.0000E+00  0.6600E+00
