       N       E                     dE             d eps       ncg     rms          rms(c)
DAV:   1    -0.242114317753E+03   -0.24211E+03   -0.47045E+00  7158   0.102E+01    0.875E+00
DAV:   2    -0.226280901991E+03    0.15833E+02   -0.15581E+00  7236   0.647E+00    0.645E+00
DAV:   3    -0.226684370183E+03   -0.40347E+00   -0.22480E-01  8562   0.220E+00    0.510E+00
DAV:   4    -0.226720734885E+03   -0.36365E-01   -0.14011E-01  8472   0.124E+00    0.919E-01
DAV:   5    -0.226720991214E+03   -0.25633E-03   -0.10541E-02  8304   0.371E-01    0.429E-01
DAV:   6    -0.226721353533E+03   -0.36232E-03   -0.29707E-03  8190   0.190E-01    0.155E-01
DAV:   7    -0.226721346945E+03    0.65880E-05   -0.18031E-04  8364   0.491E-02    0.998E-02
DAV:   8    -0.226721324976E+03    0.21969E-04   -0.19189E-04  8418   0.544E-02    0.408E-02
DAV:   9    -0.226721312620E+03    0.12356E-04   -0.32054E-05  6720   0.243E-02    0.740E-03
DAV:  10    -0.226721311690E+03    0.93002E-06   -0.16698E-06  4416   0.608E-03
   1 F= -.14452755E+03 E0= -.14452755E+03  d E =-.144528E+03
       N       E                     dE             d eps       ncg     rms          rms(c)
DAV:   1    -0.224652946614E+03    0.20684E+01   -0.18915E+00  7920   0.585E+00    0.137E+00
DAV:   2    -0.224628821088E+03    0.24126E-01   -0.11312E-01  8568   0.114E+00    0.705E-01
DAV:   3    -0.224627799752E+03    0.10213E-02   -0.20616E-02  8316   0.431E-01    0.223E-01
DAV:   4    -0.224628113185E+03   -0.31343E-03   -0.65273E-04  8514   0.104E-01    0.138E-01
DAV:   5    -0.224628160344E+03   -0.47159E-04   -0.14213E-04  8352   0.475E-02    0.114E-01
DAV:   6    -0.224628226136E+03   -0.65792E-04   -0.97358E-05  7866   0.412E-02    0.179E-02
DAV:   7    -0.224628216417E+03    0.97189E-05   -0.16703E-05  4542   0.135E-02
   2 F= -.14447033E+03 E0= -.14447033E+03  d E =0.572195E-01
       N       E                     dE             d eps       ncg     rms          rms(c)
DAV:   1    -0.226026335373E+03   -0.13981E+01   -0.77307E-01  7938   0.370E+00    0.879E-01
DAV:   2    -0.226016904488E+03    0.94309E-02   -0.46812E-02  8580   0.728E-01    0.454E-01
DAV:   3    -0.226016338292E+03    0.56620E-03   -0.85722E-03  8292   0.276E-01    0.143E-01
DAV:   4    -0.226016413111E+03   -0.74820E-04   -0.26930E-04  8538   0.670E-02    0.878E-02
DAV:   5    -0.226016406248E+03    0.68630E-05   -0.63119E-05  8124   0.313E-02
   3 F= -.14455236E+03 E0= -.14455236E+03  d E =-.248012E-01
       N       E                     dE             d eps       ncg     rms          rms(c)
DAV:   1    -0.226074304767E+03   -0.57892E-01   -0.14097E-01  7188   0.158E+00    0.694E-02
DAV:   2    -0.226074351868E+03   -0.47101E-04   -0.18976E-03  8796   0.166E-01    0.457E-02
DAV:   3    -0.226074314983E+03    0.36885E-04   -0.73651E-05  8586   0.349E-02    0.302E-02
DAV:   4    -0.226074290915E+03    0.24067E-04   -0.38271E-05  7896   0.238E-02    0.119E-02
DAV:   5    -0.226074285897E+03    0.50186E-05   -0.10478E-05  5100   0.109E-02
   4 F= -.14455497E+03 E0= -.14455497E+03  d E =-.261149E-02
       N       E                     dE             d eps       ncg     rms          rms(c)
DAV:   1    -0.226091921179E+03   -0.17630E-01   -0.14125E-02  7332   0.499E-01    0.231E-02
DAV:   2    -0.226091921550E+03   -0.37096E-06   -0.19058E-04  8820   0.525E-02    0.143E-02
DAV:   3    -0.226091915345E+03    0.62057E-05   -0.69572E-06  4818   0.114E-02
   5 F= -.14455508E+03 E0= -.14455508E+03  d E =-.272403E-02
       N       E                     dE             d eps       ncg     rms          rms(c)
DAV:   1    -0.226096236250E+03   -0.43147E-02   -0.61758E-02  7158   0.102E+00    0.441E-02
DAV:   2    -0.226096244922E+03   -0.86710E-05   -0.73412E-04  8640   0.105E-01    0.304E-02
DAV:   3    -0.226096228935E+03    0.15986E-04   -0.42231E-05  8466   0.281E-02    0.188E-02
DAV:   4    -0.226096229069E+03   -0.13419E-06   -0.36680E-05  7590   0.244E-02
   6 F= -.14455578E+03 E0= -.14455578E+03  d E =-.699076E-03
       N       E                     dE             d eps       ncg     rms          rms(c)
DAV:   1    -0.226099786987E+03   -0.35581E-02   -0.52005E-02  7164   0.937E-01    0.412E-02
DAV:   2    -0.226099801751E+03   -0.14764E-04   -0.63920E-04  8628   0.980E-02    0.282E-02
DAV:   3    -0.226099790220E+03    0.11531E-04   -0.33678E-05  7692   0.255E-02    0.179E-02
DAV:   4    -0.226099792501E+03   -0.22813E-05   -0.34028E-05  7254   0.237E-02
   7 F= -.14455604E+03 E0= -.14455604E+03  d E =-.964879E-03
       N       E                     dE             d eps       ncg     rms          rms(c)
DAV:   1    -0.226085078930E+03    0.14711E-01   -0.45335E-02  7158   0.849E-01    0.466E-02
DAV:   2    -0.226085078892E+03    0.37937E-07   -0.76436E-04  8640   0.107E-01    0.318E-02
DAV:   3    -0.226085058305E+03    0.20587E-04   -0.49971E-05  8412   0.289E-02    0.166E-02
DAV:   4    -0.226085058272E+03    0.33302E-07   -0.35454E-05  6780   0.212E-02
   8 F= -.14455615E+03 E0= -.14455615E+03  d E =-.104751E-03
       N       E                     dE             d eps       ncg     rms          rms(c)
DAV:   1    -0.226091620144E+03   -0.65618E-02   -0.84309E-03  7164   0.365E-01    0.197E-02
DAV:   2    -0.226091614250E+03    0.58939E-05   -0.14102E-04  8574   0.459E-02    0.133E-02
DAV:   3    -0.226091607795E+03    0.64544E-05   -0.81081E-06  4440   0.123E-02
   9 F= -.14455625E+03 E0= -.14455625E+03  d E =-.206601E-03
       N       E                     dE             d eps       ncg     rms          rms(c)
DAV:   1    -0.226099825130E+03   -0.82109E-02   -0.68367E-03  7170   0.331E-01    0.189E-02
DAV:   2    -0.226099838165E+03   -0.13035E-04   -0.19119E-04  8580   0.529E-02    0.148E-02
DAV:   3    -0.226099838722E+03   -0.55755E-06   -0.88441E-06  4650   0.142E-02
  10 F= -.14455630E+03 E0= -.14455630E+03  d E =-.462340E-04
       N       E                     dE             d eps       ncg     rms          rms(c)
DAV:   1    -0.226097418004E+03    0.24202E-02   -0.65372E-04  7200   0.102E-01    0.548E-03
DAV:   2    -0.226097418548E+03   -0.54355E-06   -0.24743E-05  5688   0.193E-02
  11 F= -.14455631E+03 E0= -.14455631E+03  d E =-.612631E-04
