Al4C3 Pnma-VII - r2SCAN H(P) scan @ 50 G
           1
     8.992398    0.000000    0.000000
     0.000000    3.089670    0.000000
     0.000000    0.000000    9.479639
   Al   C 
    16    12
Direct configuration=     1
   0.26818336  0.25000000  0.26647675
   0.76818336  0.25000000  0.23352325
   0.73181664  0.75000000  0.73352325
   0.23181664  0.75000000  0.76647675
   0.46568949  0.25000000  0.89163821
   0.96568949  0.25000000  0.60836179
   0.53431051  0.75000000  0.10836179
   0.03431051  0.75000000  0.39163821
   0.50604432  0.25000000  0.60480726
   0.00604432  0.25000000  0.89519274
   0.49395568  0.75000000  0.39519274
   0.99395568  0.75000000  0.10480726
   0.23679010  0.25000000  0.55794005
   0.73679010  0.25000000  0.94205995
   0.76320990  0.75000000  0.44205995
   0.26320990  0.75000000  0.05794005
   0.38469964  0.25000000  0.42533442
   0.88469964  0.25000000  0.07466558
   0.61530036  0.75000000  0.57466558
   0.11530036  0.75000000  0.92533442
   0.39440472  0.25000000  0.08775135
   0.89440472  0.25000000  0.41224865
   0.60559528  0.75000000  0.91224865
   0.10559528  0.75000000  0.58775135
   0.34710766  0.25000000  0.73421836
   0.84710766  0.25000000  0.76578164
   0.65289234  0.75000000  0.26578164
   0.15289234  0.75000000  0.23421836
Al4C3 Pnma-VII - r2SCAN H(P) scan @ 50 G
           1
     8.917532    0.000000    0.000000
     0.000000    3.063947    0.000000
     0.000000    0.000000    9.400716
   Al   C 
    16    12
Direct configuration=     2
   0.26808292  0.25000000  0.26626242
   0.76808292  0.25000000  0.23373758
   0.73191708  0.75000000  0.73373758
   0.23191708  0.75000000  0.76626242
   0.46599759  0.25000000  0.89189567
   0.96599759  0.25000000  0.60810433
   0.53400241  0.75000000  0.10810433
   0.03400241  0.75000000  0.39189567
   0.50564930  0.25000000  0.60387707
   0.00564930  0.25000000  0.89612293
   0.49435070  0.75000000  0.39612293
   0.99435070  0.75000000  0.10387707
   0.23733004  0.25000000  0.55865439
   0.73733004  0.25000000  0.94134561
   0.76266996  0.75000000  0.44134561
   0.26266996  0.75000000  0.05865439
   0.38459597  0.25000000  0.42517514
   0.88459597  0.25000000  0.07482486
   0.61540403  0.75000000  0.57482486
   0.11540403  0.75000000  0.92517514
   0.39412111  0.25000000  0.08721059
   0.89412111  0.25000000  0.41278941
   0.60587889  0.75000000  0.91278941
   0.10587889  0.75000000  0.58721059
   0.34705462  0.25000000  0.73431864
   0.84705462  0.25000000  0.76568136
   0.65294538  0.75000000  0.26568136
   0.15294538  0.75000000  0.23431864
Al4C3 Pnma-VII - r2SCAN H(P) scan @ 50 G
           1
     8.965708    0.000000    0.000000
     0.000000    3.080500    0.000000
     0.000000    0.000000    9.451503
   Al   C 
    16    12
Direct configuration=     3
   0.26814810  0.25000000  0.26640150
   0.76814810  0.25000000  0.23359850
   0.73185190  0.75000000  0.73359850
   0.23185190  0.75000000  0.76640150
   0.46579766  0.25000000  0.89172861
   0.96579766  0.25000000  0.60827139
   0.53420234  0.75000000  0.10827139
   0.03420234  0.75000000  0.39172861
   0.50590563  0.25000000  0.60448067
   0.00590563  0.25000000  0.89551933
   0.49409437  0.75000000  0.39551933
   0.99409437  0.75000000  0.10448067
   0.23697968  0.25000000  0.55819086
   0.73697968  0.25000000  0.94180914
   0.76302032  0.75000000  0.44180914
   0.26302032  0.75000000  0.05819086
   0.38466324  0.25000000  0.42527849
   0.88466324  0.25000000  0.07472151
   0.61533676  0.75000000  0.57472151
   0.11533676  0.75000000  0.92527849
   0.39430514  0.25000000  0.08756149
   0.89430514  0.25000000  0.41243851
   0.60569486  0.75000000  0.91243851
   0.10569486  0.75000000  0.58756149
   0.34708904  0.25000000  0.73425357
   0.84708904  0.25000000  0.76574643
   0.65291096  0.75000000  0.26574643
   0.15291096  0.75000000  0.23425357
Al4C3 Pnma-VII - r2SCAN H(P) scan @ 50 G
           1
     8.967735    0.000000    0.000000
     0.000000    3.081196    0.000000
     0.000000    0.000000    9.453639
   Al   C 
    16    12
Direct configuration=     4
   0.26819246  0.25000000  0.26633734
   0.76819246  0.25000000  0.23366266
   0.73180754  0.75000000  0.73366266
   0.23180754  0.75000000  0.76633734
   0.46601645  0.25000000  0.89179279
   0.96601645  0.25000000  0.60820721
   0.53398355  0.75000000  0.10820721
   0.03398355  0.75000000  0.39179279
   0.50568262  0.25000000  0.60410397
   0.00568262  0.25000000  0.89589603
   0.49431738  0.75000000  0.39589603
   0.99431738  0.75000000  0.10410397
   0.23719532  0.25000000  0.55846908
   0.73719532  0.25000000  0.94153092
   0.76280468  0.75000000  0.44153092
   0.26280468  0.75000000  0.05846908
   0.38459659  0.25000000  0.42518183
   0.88459659  0.25000000  0.07481817
   0.61540341  0.75000000  0.57481817
   0.11540341  0.75000000  0.92518183
   0.39405187  0.25000000  0.08733317
   0.89405187  0.25000000  0.41266683
   0.60594813  0.75000000  0.91266683
   0.10594813  0.75000000  0.58733317
   0.34726162  0.25000000  0.73438101
   0.84726162  0.25000000  0.76561899
   0.65273838  0.75000000  0.26561899
   0.15273838  0.75000000  0.23438101
Al4C3 Pnma-VII - r2SCAN H(P) scan @ 50 G
           1
     8.968377    0.000000    0.000000
     0.000000    3.081417    0.000000
     0.000000    0.000000    9.454317
   Al   C 
    16    12
Direct configuration=     5
   0.26820652  0.25000000  0.26631701
   0.76820652  0.25000000  0.23368299
   0.73179348  0.75000000  0.73368299
   0.23179348  0.75000000  0.76631701
   0.46608575  0.25000000  0.89181313
   0.96608575  0.25000000  0.60818687
   0.53391425  0.75000000  0.10818687
   0.03391425  0.75000000  0.39181313
   0.50561198  0.25000000  0.60398464
   0.00561198  0.25000000  0.89601536
   0.49438802  0.75000000  0.39601536
   0.99438802  0.75000000  0.10398464
   0.23726363  0.25000000  0.55855721
   0.73726363  0.25000000  0.94144279
   0.76273637  0.75000000  0.44144279
   0.26273637  0.75000000  0.05855721
   0.38457547  0.25000000  0.42515120
   0.88457547  0.25000000  0.07484880
   0.61542453  0.75000000  0.57484880
   0.11542453  0.75000000  0.92515120
   0.39397163  0.25000000  0.08726085
   0.89397163  0.25000000  0.41273915
   0.60602837  0.75000000  0.91273915
   0.10602837  0.75000000  0.58726085
   0.34731630  0.25000000  0.73442138
   0.84731630  0.25000000  0.76557862
   0.65268370  0.75000000  0.26557862
   0.15268370  0.75000000  0.23442138
Al4C3 Pnma-VII - r2SCAN H(P) scan @ 50 G
           1
     8.968510    0.000000    0.000000
     0.000000    3.081462    0.000000
     0.000000    0.000000    9.454456
   Al   C 
    16    12
Direct configuration=     6
   0.26812800  0.25000000  0.26637083
   0.76812800  0.25000000  0.23362917
   0.73187200  0.75000000  0.73362917
   0.23187200  0.75000000  0.76637083
   0.46628030  0.25000000  0.89177425
   0.96628030  0.25000000  0.60822575
   0.53371970  0.75000000  0.10822575
   0.03371970  0.75000000  0.39177425
   0.50568263  0.25000000  0.60400757
   0.00568263  0.25000000  0.89599243
   0.49431737  0.75000000  0.39599243
   0.99431737  0.75000000  0.10400757
   0.23741031  0.25000000  0.55850899
   0.73741031  0.25000000  0.94149101
   0.76258969  0.75000000  0.44149101
   0.26258969  0.75000000  0.05850899
   0.38464769  0.25000000  0.42517279
   0.88464769  0.25000000  0.07482721
   0.61535231  0.75000000  0.57482721
   0.11535231  0.75000000  0.92517279
   0.39376687  0.25000000  0.08713883
   0.89376687  0.25000000  0.41286117
   0.60623313  0.75000000  0.91286117
   0.10623313  0.75000000  0.58713883
   0.34742820  0.25000000  0.73448928
   0.84742820  0.25000000  0.76551072
   0.65257180  0.75000000  0.26551072
   0.15257180  0.75000000  0.23448928
Al4C3 Pnma-VII - r2SCAN H(P) scan @ 50 G
           1
     8.968631    0.000000    0.000000
     0.000000    3.081504    0.000000
     0.000000    0.000000    9.454584
   Al   C 
    16    12
Direct configuration=     7
   0.26805638  0.25000000  0.26641992
   0.76805638  0.25000000  0.23358008
   0.73194362  0.75000000  0.73358008
   0.23194362  0.75000000  0.76641992
   0.46645778  0.25000000  0.89173879
   0.96645778  0.25000000  0.60826121
   0.53354222  0.75000000  0.10826121
   0.03354222  0.75000000  0.39173879
   0.50574707  0.25000000  0.60402850
   0.00574707  0.25000000  0.89597150
   0.49425293  0.75000000  0.39597150
   0.99425293  0.75000000  0.10402850
   0.23754411  0.25000000  0.55846501
   0.73754411  0.25000000  0.94153499
   0.76245589  0.75000000  0.44153499
   0.26245589  0.75000000  0.05846501
   0.38471357  0.25000000  0.42519248
   0.88471357  0.25000000  0.07480752
   0.61528643  0.75000000  0.57480752
   0.11528643  0.75000000  0.92519248
   0.39358008  0.25000000  0.08702751
   0.89358008  0.25000000  0.41297249
   0.60641992  0.75000000  0.91297249
   0.10641992  0.75000000  0.58702751
   0.34753028  0.25000000  0.73455123
   0.84753028  0.25000000  0.76544877
   0.65246972  0.75000000  0.26544877
   0.15246972  0.75000000  0.23455123
Al4C3 Pnma-VII - r2SCAN H(P) scan @ 50 G
           1
     8.968087    0.000000    0.000000
     0.000000    3.081317    0.000000
     0.000000    0.000000    9.454010
   Al   C 
    16    12
Direct configuration=     8
   0.26793288  0.25000000  0.26648382
   0.76793288  0.25000000  0.23351618
   0.73206712  0.75000000  0.73351618
   0.23206712  0.75000000  0.76648382
   0.46669077  0.25000000  0.89180248
   0.96669077  0.25000000  0.60819752
   0.53330923  0.75000000  0.10819752
   0.03330923  0.75000000  0.39180248
   0.50583212  0.25000000  0.60416530
   0.00583212  0.25000000  0.89583470
   0.49416788  0.75000000  0.39583470
   0.99416788  0.75000000  0.10416530
   0.23761386  0.25000000  0.55847798
   0.73761386  0.25000000  0.94152202
   0.76238614  0.75000000  0.44152202
   0.26238614  0.75000000  0.05847798
   0.38475587  0.25000000  0.42501687
   0.88475587  0.25000000  0.07498313
   0.61524413  0.75000000  0.57498313
   0.11524413  0.75000000  0.92501687
   0.39349186  0.25000000  0.08697924
   0.89349186  0.25000000  0.41302076
   0.60650814  0.75000000  0.91302076
   0.10650814  0.75000000  0.58697924
   0.34751794  0.25000000  0.73451070
   0.84751794  0.25000000  0.76548930
   0.65248206  0.75000000  0.26548930
   0.15248206  0.75000000  0.23451070
Al4C3 Pnma-VII - r2SCAN H(P) scan @ 50 G
           1
     8.968323    0.000000    0.000000
     0.000000    3.081398    0.000000
     0.000000    0.000000    9.454259
   Al   C 
    16    12
Direct configuration=     9
   0.26798655  0.25000000  0.26645605
   0.76798655  0.25000000  0.23354395
   0.73201345  0.75000000  0.73354395
   0.23201345  0.75000000  0.76645605
   0.46658952  0.25000000  0.89177480
   0.96658952  0.25000000  0.60822520
   0.53341048  0.75000000  0.10822520
   0.03341048  0.75000000  0.39177480
   0.50579517  0.25000000  0.60410586
   0.00579517  0.25000000  0.89589414
   0.49420483  0.75000000  0.39589414
   0.99420483  0.75000000  0.10410586
   0.23758355  0.25000000  0.55847234
   0.73758355  0.25000000  0.94152766
   0.76241645  0.75000000  0.44152766
   0.26241645  0.75000000  0.05847234
   0.38473749  0.25000000  0.42509318
   0.88473749  0.25000000  0.07490682
   0.61526251  0.75000000  0.57490682
   0.11526251  0.75000000  0.92509318
   0.39353019  0.25000000  0.08700022
   0.89353019  0.25000000  0.41299978
   0.60646981  0.75000000  0.91299978
   0.10646981  0.75000000  0.58700022
   0.34752330  0.25000000  0.73452831
   0.84752330  0.25000000  0.76547169
   0.65247670  0.75000000  0.26547169
   0.15247670  0.75000000  0.23452831
Al4C3 Pnma-VII - r2SCAN H(P) scan @ 50 G
           1
     8.968623    0.000000    0.000000
     0.000000    3.081501    0.000000
     0.000000    0.000000    9.454576
   Al   C 
    16    12
Direct configuration=    10
   0.26787688  0.25000000  0.26645255
   0.76787688  0.25000000  0.23354745
   0.73212312  0.75000000  0.73354745
   0.23212312  0.75000000  0.76645255
   0.46662531  0.25000000  0.89175455
   0.96662531  0.25000000  0.60824545
   0.53337469  0.75000000  0.10824545
   0.03337469  0.75000000  0.39175455
   0.50581630  0.25000000  0.60416357
   0.00581630  0.25000000  0.89583643
   0.49418370  0.75000000  0.39583643
   0.99418370  0.75000000  0.10416357
   0.23766998  0.25000000  0.55844006
   0.73766998  0.25000000  0.94155994
   0.76233002  0.75000000  0.44155994
   0.26233002  0.75000000  0.05844006
   0.38473036  0.25000000  0.42503338
   0.88473036  0.25000000  0.07496662
   0.61526964  0.75000000  0.57496662
   0.11526964  0.75000000  0.92503338
   0.39352609  0.25000000  0.08700018
   0.89352609  0.25000000  0.41299982
   0.60647391  0.75000000  0.91299982
   0.10647391  0.75000000  0.58700018
   0.34756102  0.25000000  0.73456403
   0.84756102  0.25000000  0.76543597
   0.65243898  0.75000000  0.26543597
   0.15243898  0.75000000  0.23456403
Al4C3 Pnma-VII - r2SCAN H(P) scan @ 50 G
           1
     8.968534    0.000000    0.000000
     0.000000    3.081470    0.000000
     0.000000    0.000000    9.454482
   Al   C 
    16    12
Direct configuration=    11
   0.26790951  0.25000000  0.26645359
   0.76790951  0.25000000  0.23354641
   0.73209049  0.75000000  0.73354641
   0.23209049  0.75000000  0.76645359
   0.46661466  0.25000000  0.89176058
   0.96661466  0.25000000  0.60823942
   0.53338534  0.75000000  0.10823942
   0.03338534  0.75000000  0.39176058
   0.50581001  0.25000000  0.60414640
   0.00581001  0.25000000  0.89585360
   0.49418999  0.75000000  0.39585360
   0.99418999  0.75000000  0.10414640
   0.23764427  0.25000000  0.55844966
   0.73764427  0.25000000  0.94155034
   0.76235573  0.75000000  0.44155034
   0.26235573  0.75000000  0.05844966
   0.38473248  0.25000000  0.42505117
   0.88473248  0.25000000  0.07494883
   0.61526752  0.75000000  0.57494883
   0.11526752  0.75000000  0.92505117
   0.39352731  0.25000000  0.08700019
   0.89352731  0.25000000  0.41299981
   0.60647269  0.75000000  0.91299981
   0.10647269  0.75000000  0.58700019
   0.34754980  0.25000000  0.73455340
   0.84754980  0.25000000  0.76544660
   0.65245020  0.75000000  0.26544660
   0.15245020  0.75000000  0.23455340
