       N       E                     dE             d eps       ncg     rms          rms(c)
DAV:   1    -0.230513753322E+03   -0.23051E+03   -0.56927E+02  8514   0.592E+01    0.116E+01
DAV:   2    -0.223987891322E+03    0.65259E+01   -0.91940E+01  8724   0.216E+01    0.464E+00
DAV:   3    -0.224422293360E+03   -0.43440E+00   -0.22708E+00  8526   0.419E+00    0.303E+00
DAV:   4    -0.224422806382E+03   -0.51302E-03   -0.27646E-01  8544   0.162E+00    0.118E+00
DAV:   5    -0.224428445586E+03   -0.56392E-02   -0.97970E-03  8868   0.384E-01    0.641E-01
DAV:   6    -0.224428344012E+03    0.10157E-03   -0.32375E-03  8340   0.220E-01    0.966E-02
DAV:   7    -0.224428437248E+03   -0.93236E-04   -0.56938E-04  8490   0.821E-02    0.566E-02
DAV:   8    -0.224428457241E+03   -0.19992E-04   -0.18656E-05  5928   0.196E-02    0.279E-02
DAV:   9    -0.224428474281E+03   -0.17041E-04   -0.34330E-05  7278   0.255E-02    0.425E-03
DAV:  10    -0.224428474793E+03   -0.51175E-06   -0.12833E-06  4476   0.513E-03
   1 F= -.19186651E+03 E0= -.19186651E+03  d E =-.191867E+03
       N       E                     dE             d eps       ncg     rms          rms(c)
DAV:   1    -0.223306741586E+03    0.11217E+01   -0.35553E+00  8034   0.786E+00    0.182E+00
DAV:   2    -0.223267038593E+03    0.39703E-01   -0.21753E-01  8460   0.155E+00    0.998E-01
DAV:   3    -0.223267000440E+03    0.38153E-04   -0.29525E-02  8334   0.526E-01    0.409E-01
DAV:   4    -0.223267485333E+03   -0.48489E-03   -0.87349E-04  8550   0.131E-01    0.184E-01
DAV:   5    -0.223267549867E+03   -0.64533E-04   -0.25156E-04  8304   0.669E-02    0.109E-01
DAV:   6    -0.223267561886E+03   -0.12019E-04   -0.69240E-05  7914   0.398E-02    0.365E-02
DAV:   7    -0.223267566017E+03   -0.41310E-05   -0.76790E-06  4470   0.100E-02
   2 F= -.19183276E+03 E0= -.19183276E+03  d E =0.337543E-01
       N       E                     dE             d eps       ncg     rms          rms(c)
DAV:   1    -0.223991639573E+03   -0.72408E+00   -0.10872E+00  8034   0.428E+00    0.102E+00
DAV:   2    -0.223981025557E+03    0.10614E-01   -0.69638E-02  8484   0.868E-01    0.558E-01
DAV:   3    -0.223981187893E+03   -0.16234E-03   -0.91845E-03  8328   0.292E-01    0.231E-01
DAV:   4    -0.223981340502E+03   -0.15261E-03   -0.28357E-04  8520   0.749E-02    0.103E-01
DAV:   5    -0.223981361545E+03   -0.21044E-04   -0.79758E-05  8076   0.377E-02    0.597E-02
DAV:   6    -0.223981355577E+03    0.59680E-05   -0.20183E-05  4722   0.221E-02
   3 F= -.19192120E+03 E0= -.19192120E+03  d E =-.546894E-01
       N       E                     dE             d eps       ncg     rms          rms(c)
DAV:   1    -0.223977854361E+03    0.35072E-02   -0.29762E-05  5556   0.237E-02    0.135E-02
DAV:   2    -0.223977852901E+03    0.14607E-05   -0.25003E-06  4122   0.654E-03
   4 F= -.19192120E+03 E0= -.19192120E+03  d E =-.546873E-01
       N       E                     dE             d eps       ncg     rms          rms(c)
DAV:   1    -0.223978548699E+03   -0.69434E-03   -0.41803E-06  4014   0.702E-03    0.341E-03
DAV:   2    -0.223978548524E+03    0.17512E-06   -0.35292E-07  3948   0.248E-03
   5 F= -.19192120E+03 E0= -.19192120E+03  d E =-.546870E-01
       N       E                     dE             d eps       ncg     rms          rms(c)
DAV:   1    -0.223980219181E+03   -0.16705E-02   -0.66933E-06  3924   0.112E-02    0.236E-03
DAV:   2    -0.223980219048E+03    0.13371E-06   -0.49676E-07  3882   0.311E-03
   6 F= -.19192120E+03 E0= -.19192120E+03  d E =-.546868E-01
       N       E                     dE             d eps       ncg     rms          rms(c)
DAV:   1    -0.223979178811E+03    0.10404E-02   -0.31931E-06  3846   0.721E-03    0.192E-03
DAV:   2    -0.223979178725E+03    0.86602E-07   -0.21308E-07  3816   0.200E-03
   7 F= -.19192120E+03 E0= -.19192120E+03  d E =-.546868E-01
       N       E                     dE             d eps       ncg     rms          rms(c)
DAV:   1    -0.223979099346E+03    0.79465E-04   -0.32073E-02  7188   0.734E-01    0.361E-02
DAV:   2    -0.223979167055E+03   -0.67709E-04   -0.10659E-03  8892   0.124E-01    0.311E-02
DAV:   3    -0.223979155618E+03    0.11437E-04   -0.33971E-05  7014   0.263E-02    0.213E-02
DAV:   4    -0.223979155528E+03    0.90364E-07   -0.46690E-05  7608   0.261E-02
   8 F= -.19192193E+03 E0= -.19192193E+03  d E =-.731752E-03
       N       E                     dE             d eps       ncg     rms          rms(c)
DAV:   1    -0.223978950464E+03    0.20515E-03   -0.39294E-03  7254   0.258E-01    0.154E-02
DAV:   2    -0.223978961213E+03   -0.10749E-04   -0.13735E-04  8916   0.444E-02    0.129E-02
DAV:   3    -0.223978960632E+03    0.58030E-06   -0.41609E-06  4416   0.998E-03
   9 F= -.19192200E+03 E0= -.19192200E+03  d E =-.798272E-03
       N       E                     dE             d eps       ncg     rms          rms(c)
DAV:   1    -0.223980955958E+03   -0.19947E-02   -0.47994E-02  7146   0.889E-01    0.379E-02
DAV:   2    -0.223980964895E+03   -0.89369E-05   -0.84555E-04  8832   0.112E-01    0.294E-02
DAV:   3    -0.223980947588E+03    0.17307E-04   -0.42288E-05  7992   0.265E-02    0.187E-02
DAV:   4    -0.223980939656E+03    0.79318E-05   -0.41980E-05  7752   0.241E-02
  10 F= -.19192226E+03 E0= -.19192226E+03  d E =-.267691E-03
       N       E                     dE             d eps       ncg     rms          rms(c)
DAV:   1    -0.223980785910E+03    0.16168E-03   -0.38377E-04  7284   0.794E-02    0.428E-03
DAV:   2    -0.223980786457E+03   -0.54727E-06   -0.78017E-06  4152   0.104E-02
  11 F= -.19192227E+03 E0= -.19192227E+03  d E =-.269948E-03
       N       E                     dE             d eps       ncg     rms          rms(c)
DAV:   1    -0.223982070893E+03   -0.12850E-02   -0.17104E-02  7152   0.529E-01    0.228E-02
DAV:   2    -0.223982070830E+03    0.63710E-07   -0.31953E-04  8712   0.691E-02    0.172E-02
DAV:   3    -0.223982063750E+03    0.70791E-05   -0.14978E-05  5490   0.163E-02
  12 F= -.19192235E+03 E0= -.19192235E+03  d E =-.898037E-04
       N       E                     dE             d eps       ncg     rms          rms(c)
DAV:   1    -0.223982123835E+03   -0.53005E-04   -0.40528E-05  6894   0.269E-02    0.400E-03
DAV:   2    -0.223982122937E+03    0.89741E-06   -0.11726E-06  3960   0.443E-03
  13 F= -.19192235E+03 E0= -.19192235E+03  d E =-.834333E-04
       N       E                     dE             d eps       ncg     rms          rms(c)
DAV:   1    -0.223982086611E+03    0.37224E-04   -0.16489E-05  4242   0.165E-02    0.125E-03
DAV:   2    -0.223982086551E+03    0.59770E-07   -0.80233E-07  3744   0.376E-03
  14 F= -.19192235E+03 E0= -.19192235E+03  d E =-.828434E-04
       N       E                     dE             d eps       ncg     rms          rms(c)
DAV:   1    -0.223981974465E+03    0.11215E-03   -0.23953E-03  7152   0.197E-01    0.905E-03
DAV:   2    -0.223981975849E+03   -0.13839E-05   -0.48232E-05  8430   0.269E-02
  15 F= -.19192237E+03 E0= -.19192237E+03  d E =-.268037E-04
