Al4C3 anti-CaFe2O4 - r2SCAN H(P) scan @ 
           1
     2.888245    0.000000    0.000000
     0.000000    8.823613    0.000000
     0.000000    0.000000   10.235538
   Al   C 
    16    12
Direct configuration=     1
   0.25000000  0.41857989  0.58382886
   0.75000000  0.58142011  0.41617114
   0.25000000  0.91857989  0.91617114
   0.75000000  0.08142011  0.08382886
   0.25000000  0.48589125  0.20617698
   0.75000000  0.51410875  0.79382302
   0.25000000  0.98589125  0.29382302
   0.75000000  0.01410875  0.70617698
   0.25000000  0.14083814  0.51814321
   0.75000000  0.85916186  0.48185679
   0.25000000  0.64083814  0.98185679
   0.75000000  0.35916186  0.01814321
   0.75000000  0.27240433  0.30324402
   0.25000000  0.72759567  0.69675598
   0.25000000  0.22759567  0.80324402
   0.75000000  0.77240433  0.19675598
   0.75000000  0.74698856  0.85985069
   0.25000000  0.25301144  0.14014931
   0.75000000  0.24698856  0.64014931
   0.25000000  0.75301144  0.35985069
   0.25000000  0.92527030  0.61127840
   0.75000000  0.57472970  0.11127840
   0.25000000  0.42527030  0.88872160
   0.75000000  0.07472970  0.38872160
   0.75000000  0.08768583  0.88639351
   0.25000000  0.91231417  0.11360649
   0.75000000  0.58768583  0.61360649
   0.25000000  0.41231417  0.38639351
Al4C3 anti-CaFe2O4 - r2SCAN H(P) scan @ 
           1
     2.854527    0.000000    0.000000
     0.000000    8.720604    0.000000
     0.000000    0.000000   10.116045
   Al   C 
    16    12
Direct configuration=     2
   0.25000000  0.41876719  0.58371901
   0.75000000  0.58123281  0.41628099
   0.25000000  0.91876719  0.91628099
   0.75000000  0.08123281  0.08371901
   0.25000000  0.48577019  0.20590655
   0.75000000  0.51422981  0.79409345
   0.25000000  0.98577019  0.29409345
   0.75000000  0.01422981  0.70590655
   0.25000000  0.14064874  0.51823280
   0.75000000  0.85935126  0.48176720
   0.25000000  0.64064874  0.98176720
   0.75000000  0.35935126  0.01823280
   0.75000000  0.27262441  0.30314840
   0.25000000  0.72737559  0.69685160
   0.25000000  0.22737559  0.80314840
   0.75000000  0.77262441  0.19685160
   0.75000000  0.74663521  0.85983609
   0.25000000  0.25336479  0.14016391
   0.75000000  0.24663521  0.64016391
   0.25000000  0.75336479  0.35983609
   0.25000000  0.92539136  0.61177919
   0.75000000  0.57460864  0.11177919
   0.25000000  0.42539136  0.88822081
   0.75000000  0.07460864  0.38822081
   0.75000000  0.08724138  0.88607029
   0.25000000  0.91275862  0.11392971
   0.75000000  0.58724138  0.61392971
   0.25000000  0.41275862  0.38607029
Al4C3 anti-CaFe2O4 - r2SCAN H(P) scan @ 
           1
     2.873332    0.000000    0.000000
     0.000000    8.778052    0.000000
     0.000000    0.000000   10.182686
   Al   C 
    16    12
Direct configuration=     3
   0.25000000  0.41866150  0.58378100
   0.75000000  0.58133850  0.41621900
   0.25000000  0.91866150  0.91621900
   0.75000000  0.08133850  0.08378100
   0.25000000  0.48583851  0.20605915
   0.75000000  0.51416149  0.79394085
   0.25000000  0.98583851  0.29394085
   0.75000000  0.01416149  0.70605915
   0.25000000  0.14075562  0.51818225
   0.75000000  0.85924438  0.48181775
   0.25000000  0.64075562  0.98181775
   0.75000000  0.35924438  0.01818225
   0.75000000  0.27250022  0.30320236
   0.25000000  0.72749978  0.69679764
   0.25000000  0.22749978  0.80320236
   0.75000000  0.77250022  0.19679764
   0.75000000  0.74683460  0.85984433
   0.25000000  0.25316540  0.14015567
   0.75000000  0.24683460  0.64015567
   0.25000000  0.75316540  0.35984433
   0.25000000  0.92532305  0.61149660
   0.75000000  0.57467695  0.11149660
   0.25000000  0.42532305  0.88850340
   0.75000000  0.07467695  0.38850340
   0.75000000  0.08749218  0.88625268
   0.25000000  0.91250782  0.11374732
   0.75000000  0.58749218  0.61374732
   0.25000000  0.41250782  0.38625268
Al4C3 anti-CaFe2O4 - r2SCAN H(P) scan @ 
           1
     2.873227    0.000000    0.000000
     0.000000    8.777732    0.000000
     0.000000    0.000000   10.182315
   Al   C 
    16    12
Direct configuration=     4
   0.25000000  0.41866209  0.58378066
   0.75000000  0.58133791  0.41621934
   0.25000000  0.91866209  0.91621934
   0.75000000  0.08133791  0.08378066
   0.25000000  0.48583813  0.20605831
   0.75000000  0.51416187  0.79394169
   0.25000000  0.98583813  0.29394169
   0.75000000  0.01416187  0.70605831
   0.25000000  0.14075503  0.51818253
   0.75000000  0.85924497  0.48181747
   0.25000000  0.64075503  0.98181747
   0.75000000  0.35924497  0.01818253
   0.75000000  0.27250091  0.30320206
   0.25000000  0.72749909  0.69679794
   0.25000000  0.22749909  0.80320206
   0.75000000  0.77250091  0.19679794
   0.75000000  0.74683350  0.85984428
   0.25000000  0.25316650  0.14015572
   0.75000000  0.24683350  0.64015572
   0.25000000  0.75316650  0.35984428
   0.25000000  0.92532343  0.61149816
   0.75000000  0.57467657  0.11149816
   0.25000000  0.42532343  0.88850184
   0.75000000  0.07467657  0.38850184
   0.75000000  0.08749079  0.88625167
   0.25000000  0.91250921  0.11374833
   0.75000000  0.58749079  0.61374833
   0.25000000  0.41250921  0.38625167
Al4C3 anti-CaFe2O4 - r2SCAN H(P) scan @ 
           1
     2.873248    0.000000    0.000000
     0.000000    8.777796    0.000000
     0.000000    0.000000   10.182389
   Al   C 
    16    12
Direct configuration=     5
   0.25000000  0.41866197  0.58378072
   0.75000000  0.58133803  0.41621928
   0.25000000  0.91866197  0.91621928
   0.75000000  0.08133803  0.08378072
   0.25000000  0.48583820  0.20605847
   0.75000000  0.51416180  0.79394153
   0.25000000  0.98583820  0.29394153
   0.75000000  0.01416180  0.70605847
   0.25000000  0.14075514  0.51818247
   0.75000000  0.85924486  0.48181753
   0.25000000  0.64075514  0.98181753
   0.75000000  0.35924486  0.01818247
   0.75000000  0.27250077  0.30320212
   0.25000000  0.72749923  0.69679788
   0.25000000  0.22749923  0.80320212
   0.75000000  0.77250077  0.19679788
   0.75000000  0.74683372  0.85984429
   0.25000000  0.25316628  0.14015571
   0.75000000  0.24683372  0.64015571
   0.25000000  0.75316628  0.35984429
   0.25000000  0.92532335  0.61149785
   0.75000000  0.57467665  0.11149785
   0.25000000  0.42532335  0.88850215
   0.75000000  0.07467665  0.38850215
   0.75000000  0.08749107  0.88625187
   0.25000000  0.91250893  0.11374813
   0.75000000  0.58749107  0.61374813
   0.25000000  0.41250893  0.38625187
Al4C3 anti-CaFe2O4 - r2SCAN H(P) scan @ 
           1
     2.873298    0.000000    0.000000
     0.000000    8.777948    0.000000
     0.000000    0.000000   10.182566
   Al   C 
    16    12
Direct configuration=     6
   0.25000000  0.41866169  0.58378089
   0.75000000  0.58133831  0.41621911
   0.25000000  0.91866169  0.91621911
   0.75000000  0.08133831  0.08378089
   0.25000000  0.48583838  0.20605888
   0.75000000  0.51416162  0.79394112
   0.25000000  0.98583838  0.29394112
   0.75000000  0.01416162  0.70605888
   0.25000000  0.14075543  0.51818234
   0.75000000  0.85924457  0.48181766
   0.25000000  0.64075543  0.98181766
   0.75000000  0.35924457  0.01818234
   0.75000000  0.27250045  0.30320226
   0.25000000  0.72749955  0.69679774
   0.25000000  0.22749955  0.80320226
   0.75000000  0.77250045  0.19679774
   0.75000000  0.74683424  0.85984431
   0.25000000  0.25316576  0.14015569
   0.75000000  0.24683424  0.64015569
   0.25000000  0.75316576  0.35984431
   0.25000000  0.92532317  0.61149711
   0.75000000  0.57467683  0.11149711
   0.25000000  0.42532317  0.88850289
   0.75000000  0.07467683  0.38850289
   0.75000000  0.08749173  0.88625235
   0.25000000  0.91250827  0.11374765
   0.75000000  0.58749173  0.61374765
   0.25000000  0.41250827  0.38625235
Al4C3 anti-CaFe2O4 - r2SCAN H(P) scan @ 
           1
     2.873267    0.000000    0.000000
     0.000000    8.777853    0.000000
     0.000000    0.000000   10.182455
   Al   C 
    16    12
Direct configuration=     7
   0.25000000  0.41866186  0.58378079
   0.75000000  0.58133814  0.41621921
   0.25000000  0.91866186  0.91621921
   0.75000000  0.08133814  0.08378079
   0.25000000  0.48583827  0.20605862
   0.75000000  0.51416173  0.79394138
   0.25000000  0.98583827  0.29394138
   0.75000000  0.01416173  0.70605862
   0.25000000  0.14075525  0.51818242
   0.75000000  0.85924475  0.48181758
   0.25000000  0.64075525  0.98181758
   0.75000000  0.35924475  0.01818242
   0.75000000  0.27250065  0.30320217
   0.25000000  0.72749935  0.69679783
   0.25000000  0.22749935  0.80320217
   0.75000000  0.77250065  0.19679783
   0.75000000  0.74683392  0.85984430
   0.25000000  0.25316608  0.14015570
   0.75000000  0.24683392  0.64015570
   0.25000000  0.75316608  0.35984430
   0.25000000  0.92532328  0.61149757
   0.75000000  0.57467672  0.11149757
   0.25000000  0.42532328  0.88850243
   0.75000000  0.07467672  0.38850243
   0.75000000  0.08749131  0.88625205
   0.25000000  0.91250869  0.11374795
   0.75000000  0.58749131  0.61374795
   0.25000000  0.41250869  0.38625205
Al4C3 anti-CaFe2O4 - r2SCAN H(P) scan @ 
           1
     2.873244    0.000000    0.000000
     0.000000    8.777785    0.000000
     0.000000    0.000000   10.182376
   Al   C 
    16    12
Direct configuration=     8
   0.25000000  0.41868782  0.58390666
   0.75000000  0.58131218  0.41609334
   0.25000000  0.91868782  0.91609334
   0.75000000  0.08131218  0.08390666
   0.25000000  0.48575476  0.20607311
   0.75000000  0.51424524  0.79392689
   0.25000000  0.98575476  0.29392689
   0.75000000  0.01424524  0.70607311
   0.25000000  0.14084528  0.51816715
   0.75000000  0.85915472  0.48183285
   0.25000000  0.64084528  0.98183285
   0.75000000  0.35915472  0.01816715
   0.75000000  0.27269376  0.30301744
   0.25000000  0.72730624  0.69698256
   0.25000000  0.22730624  0.80301744
   0.75000000  0.77269376  0.19698256
   0.75000000  0.74673054  0.85981520
   0.25000000  0.25326946  0.14018480
   0.75000000  0.24673054  0.64018480
   0.25000000  0.75326946  0.35981520
   0.25000000  0.92529042  0.61157486
   0.75000000  0.57470958  0.11157486
   0.25000000  0.42529042  0.88842514
   0.75000000  0.07470958  0.38842514
   0.75000000  0.08737794  0.88630405
   0.25000000  0.91262206  0.11369595
   0.75000000  0.58737794  0.61369595
   0.25000000  0.41262206  0.38630405
Al4C3 anti-CaFe2O4 - r2SCAN H(P) scan @ 
           1
     2.873236    0.000000    0.000000
     0.000000    8.777761    0.000000
     0.000000    0.000000   10.182348
   Al   C 
    16    12
Direct configuration=     9
   0.25000000  0.41869681  0.58395025
   0.75000000  0.58130319  0.41604975
   0.25000000  0.91869681  0.91604975
   0.75000000  0.08130319  0.08395025
   0.25000000  0.48572584  0.20607812
   0.75000000  0.51427416  0.79392188
   0.25000000  0.98572584  0.29392188
   0.75000000  0.01427416  0.70607812
   0.25000000  0.14087645  0.51816186
   0.75000000  0.85912355  0.48183814
   0.25000000  0.64087645  0.98183814
   0.75000000  0.35912355  0.01816186
   0.75000000  0.27276062  0.30295347
   0.25000000  0.72723938  0.69704653
   0.25000000  0.22723938  0.80295347
   0.75000000  0.77276062  0.19704653
   0.75000000  0.74669474  0.85980512
   0.25000000  0.25330526  0.14019488
   0.75000000  0.24669474  0.64019488
   0.25000000  0.75330526  0.35980512
   0.25000000  0.92527904  0.61160162
   0.75000000  0.57472096  0.11160162
   0.25000000  0.42527904  0.88839838
   0.75000000  0.07472096  0.38839838
   0.75000000  0.08733868  0.88632205
   0.25000000  0.91266132  0.11367795
   0.75000000  0.58733868  0.61367795
   0.25000000  0.41266132  0.38632205
Al4C3 anti-CaFe2O4 - r2SCAN H(P) scan @ 
           1
     2.873287    0.000000    0.000000
     0.000000    8.777917    0.000000
     0.000000    0.000000   10.182529
   Al   C 
    16    12
Direct configuration=    10
   0.25000000  0.41875476  0.58402559
   0.75000000  0.58124524  0.41597441
   0.25000000  0.91875476  0.91597441
   0.75000000  0.08124524  0.08402559
   0.25000000  0.48577098  0.20597255
   0.75000000  0.51422902  0.79402745
   0.25000000  0.98577098  0.29402745
   0.75000000  0.01422902  0.70597255
   0.25000000  0.14090212  0.51803489
   0.75000000  0.85909788  0.48196511
   0.25000000  0.64090212  0.98196511
   0.75000000  0.35909788  0.01803489
   0.75000000  0.27277262  0.30286953
   0.25000000  0.72722738  0.69713047
   0.25000000  0.22722738  0.80286953
   0.75000000  0.77277262  0.19713047
   0.75000000  0.74656848  0.85978757
   0.25000000  0.25343152  0.14021243
   0.75000000  0.24656848  0.64021243
   0.25000000  0.75343152  0.35978757
   0.25000000  0.92513912  0.61171630
   0.75000000  0.57486088  0.11171630
   0.25000000  0.42513912  0.88828370
   0.75000000  0.07486088  0.38828370
   0.75000000  0.08726329  0.88637079
   0.25000000  0.91273671  0.11362921
   0.75000000  0.58726329  0.61362921
   0.25000000  0.41273671  0.38637079
Al4C3 anti-CaFe2O4 - r2SCAN H(P) scan @ 
           1
     2.873283    0.000000    0.000000
     0.000000    8.777903    0.000000
     0.000000    0.000000   10.182513
   Al   C 
    16    12
Direct configuration=    11
   0.25000000  0.41874950  0.58401874
   0.75000000  0.58125050  0.41598126
   0.25000000  0.91874950  0.91598126
   0.75000000  0.08125050  0.08401874
   0.25000000  0.48576688  0.20598214
   0.75000000  0.51423312  0.79401786
   0.25000000  0.98576688  0.29401786
   0.75000000  0.01423312  0.70598214
   0.25000000  0.14089979  0.51804643
   0.75000000  0.85910021  0.48195357
   0.25000000  0.64089979  0.98195357
   0.75000000  0.35910021  0.01804643
   0.75000000  0.27277153  0.30287715
   0.25000000  0.72722847  0.69712285
   0.25000000  0.22722847  0.80287715
   0.75000000  0.77277153  0.19712285
   0.75000000  0.74657995  0.85978916
   0.25000000  0.25342005  0.14021084
   0.75000000  0.24657995  0.64021084
   0.25000000  0.75342005  0.35978916
   0.25000000  0.92515183  0.61170589
   0.75000000  0.57484817  0.11170589
   0.25000000  0.42515183  0.88829411
   0.75000000  0.07484817  0.38829411
   0.75000000  0.08727013  0.88636637
   0.25000000  0.91272987  0.11363363
   0.75000000  0.58727013  0.61363363
   0.25000000  0.41272987  0.38636637
Al4C3 anti-CaFe2O4 - r2SCAN H(P) scan @ 
           1
     2.873318    0.000000    0.000000
     0.000000    8.778011    0.000000
     0.000000    0.000000   10.182638
   Al   C 
    16    12
Direct configuration=    12
   0.25000000  0.41879838  0.58400950
   0.75000000  0.58120162  0.41599050
   0.25000000  0.91879838  0.91599050
   0.75000000  0.08120162  0.08400950
   0.25000000  0.48575301  0.20596880
   0.75000000  0.51424699  0.79403120
   0.25000000  0.98575301  0.29403120
   0.75000000  0.01424699  0.70596880
   0.25000000  0.14095536  0.51795513
   0.75000000  0.85904464  0.48204487
   0.25000000  0.64095536  0.98204487
   0.75000000  0.35904464  0.01795513
   0.75000000  0.27282544  0.30284907
   0.25000000  0.72717456  0.69715093
   0.25000000  0.22717456  0.80284907
   0.75000000  0.77282544  0.19715093
   0.75000000  0.74648127  0.85980575
   0.25000000  0.25351873  0.14019425
   0.75000000  0.24648127  0.64019425
   0.25000000  0.75351873  0.35980575
   0.25000000  0.92506242  0.61169342
   0.75000000  0.57493758  0.11169342
   0.25000000  0.42506242  0.88830658
   0.75000000  0.07493758  0.38830658
   0.75000000  0.08725844  0.88631503
   0.25000000  0.91274156  0.11368497
   0.75000000  0.58725844  0.61368497
   0.25000000  0.41274156  0.38631503
Al4C3 anti-CaFe2O4 - r2SCAN H(P) scan @ 
           1
     2.873320    0.000000    0.000000
     0.000000    8.778017    0.000000
     0.000000    0.000000   10.182645
   Al   C 
    16    12
Direct configuration=    13
   0.25000000  0.41880108  0.58400899
   0.75000000  0.58119892  0.41599101
   0.25000000  0.91880108  0.91599101
   0.75000000  0.08119892  0.08400899
   0.25000000  0.48575225  0.20596806
   0.75000000  0.51424775  0.79403194
   0.25000000  0.98575225  0.29403194
   0.75000000  0.01424775  0.70596806
   0.25000000  0.14095843  0.51795009
   0.75000000  0.85904157  0.48204991
   0.25000000  0.64095843  0.98204991
   0.75000000  0.35904157  0.01795009
   0.75000000  0.27282841  0.30284752
   0.25000000  0.72717159  0.69715248
   0.25000000  0.22717159  0.80284752
   0.75000000  0.77282841  0.19715248
   0.75000000  0.74647582  0.85980666
   0.25000000  0.25352418  0.14019334
   0.75000000  0.24647582  0.64019334
   0.25000000  0.75352418  0.35980666
   0.25000000  0.92505749  0.61169274
   0.75000000  0.57494251  0.11169274
   0.25000000  0.42505749  0.88830726
   0.75000000  0.07494251  0.38830726
   0.75000000  0.08725780  0.88631219
   0.25000000  0.91274220  0.11368781
   0.75000000  0.58725780  0.61368781
   0.25000000  0.41274220  0.38631219
Al4C3 anti-CaFe2O4 - r2SCAN H(P) scan @ 
           1
     2.873319    0.000000    0.000000
     0.000000    8.778014    0.000000
     0.000000    0.000000   10.182641
   Al   C 
    16    12
Direct configuration=    14
   0.25000000  0.41879960  0.58400927
   0.75000000  0.58120040  0.41599073
   0.25000000  0.91879960  0.91599073
   0.75000000  0.08120040  0.08400927
   0.25000000  0.48575266  0.20596846
   0.75000000  0.51424734  0.79403154
   0.25000000  0.98575266  0.29403154
   0.75000000  0.01424734  0.70596846
   0.25000000  0.14095675  0.51795284
   0.75000000  0.85904325  0.48204716
   0.25000000  0.64095675  0.98204716
   0.75000000  0.35904325  0.01795284
   0.75000000  0.27282679  0.30284837
   0.25000000  0.72717321  0.69715163
   0.25000000  0.22717321  0.80284837
   0.75000000  0.77282679  0.19715163
   0.75000000  0.74647879  0.85980616
   0.25000000  0.25352121  0.14019384
   0.75000000  0.24647879  0.64019384
   0.25000000  0.75352121  0.35980616
   0.25000000  0.92506018  0.61169311
   0.75000000  0.57493982  0.11169311
   0.25000000  0.42506018  0.88830689
   0.75000000  0.07493982  0.38830689
   0.75000000  0.08725815  0.88631374
   0.25000000  0.91274185  0.11368626
   0.75000000  0.58725815  0.61368626
   0.25000000  0.41274185  0.38631374
Al4C3 anti-CaFe2O4 - r2SCAN H(P) scan @ 
           1
     2.873315    0.000000    0.000000
     0.000000    8.778001    0.000000
     0.000000    0.000000   10.182627
   Al   C 
    16    12
Direct configuration=    15
   0.25000000  0.41878697  0.58399478
   0.75000000  0.58121303  0.41600522
   0.25000000  0.91878697  0.91600522
   0.75000000  0.08121303  0.08399478
   0.25000000  0.48575994  0.20591437
   0.75000000  0.51424006  0.79408563
   0.25000000  0.98575994  0.29408563
   0.75000000  0.01424006  0.70591437
   0.25000000  0.14099344  0.51793051
   0.75000000  0.85900656  0.48206949
   0.25000000  0.64099344  0.98206949
   0.75000000  0.35900656  0.01793051
   0.75000000  0.27285098  0.30282035
   0.25000000  0.72714902  0.69717965
   0.25000000  0.22714902  0.80282035
   0.75000000  0.77285098  0.19717965
   0.75000000  0.74645319  0.85984169
   0.25000000  0.25354681  0.14015831
   0.75000000  0.24645319  0.64015831
   0.25000000  0.75354681  0.35984169
   0.25000000  0.92504302  0.61168705
   0.75000000  0.57495698  0.11168705
   0.25000000  0.42504302  0.88831295
   0.75000000  0.07495698  0.38831295
   0.75000000  0.08724455  0.88630318
   0.25000000  0.91275545  0.11369682
   0.75000000  0.58724455  0.61369682
   0.25000000  0.41275545  0.38630318
