  28  28   0   0
  0.8166701E+01  0.2764215E-09  0.8444701E-09  0.9795994E-09  0.5000000E-15
  1.000000000000000E-004
  CAR 
 Al4C3 anti-CaFe2O4 - r2SCAN H(P) scan @ 
     21.99850654     -6.69288081  301     13.01451588      1.00000000
     -6.693  0.0000E+00  0.0000E+00
     -6.597  0.0000E+00  0.0000E+00
     -6.502  0.0000E+00  0.0000E+00
     -6.406  0.0000E+00  0.0000E+00
     -6.310  0.0000E+00  0.0000E+00
     -6.215  0.0000E+00  0.0000E+00
     -6.119  0.0000E+00  0.0000E+00
     -6.023  0.0000E+00  0.0000E+00
     -5.928  0.0000E+00  0.0000E+00
     -5.832  0.0000E+00  0.0000E+00
     -5.737  0.0000E+00  0.0000E+00
     -5.641  0.2704E-15  0.2586E-16
     -5.545  0.2609E-08  0.2495E-09
     -5.450  0.2321E-04  0.2220E-05
     -5.354  0.5320E-03  0.5310E-04
     -5.258  0.2408E-02  0.2834E-03
     -5.163  0.4827E-02  0.7450E-03
     -5.067  0.4975E-02  0.1221E-02
     -4.971  0.3769E-02  0.1581E-02
     -4.876  0.6254E-02  0.2179E-02
     -4.780  0.1074E-01  0.3206E-02
     -4.684  0.9795E-02  0.4143E-02
     -4.589  0.4937E-02  0.4615E-02
     -4.493  0.7138E-02  0.5298E-02
     -4.398  0.1253E-01  0.6496E-02
     -4.302  0.7405E-02  0.7205E-02
     -4.206  0.7403E-02  0.7913E-02
     -4.111  0.1178E-01  0.9039E-02
     -4.015  0.1423E-01  0.1040E-01
     -3.919  0.1272E-01  0.1162E-01
     -3.824  0.1218E-01  0.1278E-01
     -3.728  0.9096E-02  0.1365E-01
     -3.632  0.1134E-01  0.1474E-01
     -3.537  0.1449E-01  0.1612E-01
     -3.441  0.1573E-01  0.1763E-01
     -3.346  0.1140E-01  0.1872E-01
     -3.250  0.1241E-01  0.1990E-01
     -3.154  0.1381E-01  0.2122E-01
     -3.059  0.2001E-01  0.2314E-01
     -2.963  0.2375E-01  0.2541E-01
     -2.867  0.1367E-01  0.2672E-01
     -2.772  0.9159E-02  0.2759E-01
     -2.676  0.1820E-01  0.2933E-01
     -2.580  0.1352E-01  0.3063E-01
     -2.485  0.1639E-01  0.3219E-01
     -2.389  0.2068E-01  0.3417E-01
     -2.294  0.2451E-01  0.3651E-01
     -2.198  0.1934E-01  0.3836E-01
     -2.102  0.2123E-01  0.4039E-01
     -2.007  0.2805E-01  0.4308E-01
     -1.911  0.2187E-01  0.4517E-01
     -1.815  0.1974E-01  0.4706E-01
     -1.720  0.1585E-01  0.4857E-01
     -1.624  0.1509E-01  0.5001E-01
     -1.528  0.2194E-01  0.5211E-01
     -1.433  0.3722E-01  0.5567E-01
     -1.337  0.3143E-01  0.5868E-01
     -1.242  0.2863E-01  0.6142E-01
     -1.146  0.3628E-01  0.6489E-01
     -1.050  0.2919E-01  0.6768E-01
     -0.955  0.3243E-01  0.7078E-01
     -0.859  0.3385E-01  0.7402E-01
     -0.763  0.3393E-01  0.7726E-01
     -0.668  0.4250E-01  0.8133E-01
     -0.572  0.3162E-01  0.8435E-01
     -0.476  0.4235E-01  0.8840E-01
     -0.381  0.4490E-01  0.9269E-01
     -0.285  0.3714E-01  0.9625E-01
     -0.189  0.3934E-01  0.1000E+00
     -0.094  0.1901E-01  0.1018E+00
      0.002  0.1529E-01  0.1033E+00
      0.097  0.1857E-01  0.1051E+00
      0.193  0.9928E-02  0.1060E+00
      0.289  0.1356E-01  0.1073E+00
      0.384  0.1497E-01  0.1087E+00
      0.480  0.1361E-01  0.1100E+00
      0.576  0.9284E-02  0.1109E+00
      0.671  0.1696E-01  0.1126E+00
      0.767  0.1140E-01  0.1136E+00
      0.863  0.7133E-02  0.1143E+00
      0.958  0.1199E-01  0.1155E+00
      1.054  0.1358E-01  0.1168E+00
      1.149  0.6558E-02  0.1174E+00
      1.245  0.5109E-02  0.1179E+00
      1.341  0.1094E-01  0.1189E+00
      1.436  0.7315E-02  0.1196E+00
      1.532  0.3659E-02  0.1200E+00
      1.628  0.1925E-03  0.1200E+00
      1.723  0.5465E-07  0.1200E+00
      1.819  0.2060E-13  0.1200E+00
      1.915  0.1209E-18  0.1200E+00
      2.010  0.1913E-10  0.1200E+00
      2.106  0.2712E-05  0.1200E+00
      2.201  0.5209E-03  0.1201E+00
      2.297  0.1630E-02  0.1202E+00
      2.393  0.4078E-02  0.1206E+00
      2.488  0.4698E-02  0.1210E+00
      2.584  0.5953E-02  0.1216E+00
      2.680  0.6990E-02  0.1223E+00
      2.775  0.8427E-02  0.1231E+00
      2.871  0.1424E-01  0.1245E+00
      2.967  0.1527E-01  0.1259E+00
      3.062  0.1406E-01  0.1273E+00
      3.158  0.2272E-01  0.1294E+00
      3.253  0.3745E-01  0.1330E+00
      3.349  0.3550E-01  0.1364E+00
      3.445  0.2926E-01  0.1392E+00
      3.540  0.2812E-01  0.1419E+00
      3.636  0.3011E-01  0.1448E+00
      3.732  0.3445E-01  0.1481E+00
      3.827  0.3368E-01  0.1513E+00
      3.923  0.3634E-01  0.1548E+00
      4.019  0.3456E-01  0.1581E+00
      4.114  0.4924E-01  0.1628E+00
      4.210  0.4550E-01  0.1671E+00
      4.305  0.2850E-01  0.1699E+00
      4.401  0.2856E-01  0.1726E+00
      4.497  0.4561E-01  0.1769E+00
      4.592  0.2839E-01  0.1797E+00
      4.688  0.2177E-01  0.1817E+00
      4.784  0.3219E-01  0.1848E+00
      4.879  0.2870E-01  0.1876E+00
      4.975  0.4049E-01  0.1914E+00
      5.071  0.3509E-01  0.1948E+00
      5.166  0.2797E-01  0.1975E+00
      5.262  0.2941E-01  0.2003E+00
      5.358  0.2699E-01  0.2029E+00
      5.453  0.3377E-01  0.2061E+00
      5.549  0.5114E-01  0.2110E+00
      5.644  0.3783E-01  0.2146E+00
      5.740  0.2970E-01  0.2174E+00
      5.836  0.3344E-01  0.2206E+00
      5.931  0.3288E-01  0.2238E+00
      6.027  0.2815E-01  0.2265E+00
      6.123  0.3442E-01  0.2298E+00
      6.218  0.3305E-01  0.2329E+00
      6.314  0.3532E-01  0.2363E+00
      6.410  0.3881E-01  0.2400E+00
      6.505  0.3730E-01  0.2436E+00
      6.601  0.3724E-01  0.2472E+00
      6.696  0.3444E-01  0.2504E+00
      6.792  0.4464E-01  0.2547E+00
      6.888  0.4106E-01  0.2586E+00
      6.983  0.4409E-01  0.2629E+00
      7.079  0.3589E-01  0.2663E+00
      7.175  0.4248E-01  0.2704E+00
      7.270  0.4836E-01  0.2750E+00
      7.366  0.4386E-01  0.2792E+00
      7.462  0.4196E-01  0.2832E+00
      7.557  0.3675E-01  0.2867E+00
      7.653  0.3068E-01  0.2896E+00
      7.748  0.4377E-01  0.2938E+00
      7.844  0.3051E-01  0.2967E+00
      7.940  0.4426E-01  0.3010E+00
      8.035  0.4032E-01  0.3048E+00
      8.131  0.3546E-01  0.3082E+00
      8.227  0.3639E-01  0.3117E+00
      8.322  0.2900E-01  0.3145E+00
      8.418  0.4680E-01  0.3189E+00
      8.514  0.4017E-01  0.3228E+00
      8.609  0.5280E-01  0.3278E+00
      8.705  0.5054E-01  0.3327E+00
      8.800  0.2765E-01  0.3353E+00
      8.896  0.3946E-01  0.3391E+00
      8.992  0.4974E-01  0.3438E+00
      9.087  0.5304E-01  0.3489E+00
      9.183  0.5332E-01  0.3540E+00
      9.279  0.3969E-01  0.3578E+00
      9.374  0.3627E-01  0.3613E+00
      9.470  0.3411E-01  0.3645E+00
      9.566  0.3225E-01  0.3676E+00
      9.661  0.2734E-01  0.3702E+00
      9.757  0.4823E-01  0.3749E+00
      9.852  0.7331E-01  0.3819E+00
      9.948  0.6089E-01  0.3877E+00
     10.044  0.4871E-01  0.3924E+00
     10.139  0.4829E-01  0.3970E+00
     10.235  0.5742E-01  0.4025E+00
     10.331  0.5277E-01  0.4075E+00
     10.426  0.7857E-01  0.4150E+00
     10.522  0.7474E-01  0.4222E+00
     10.618  0.5872E-01  0.4278E+00
     10.713  0.5414E-01  0.4330E+00
     10.809  0.4914E-01  0.4377E+00
     10.905  0.5205E-01  0.4426E+00
     11.000  0.5012E-01  0.4474E+00
     11.096  0.4230E-01  0.4515E+00
     11.191  0.4529E-01  0.4558E+00
     11.287  0.3968E-01  0.4596E+00
     11.383  0.2730E-01  0.4622E+00
     11.478  0.1586E-01  0.4637E+00
     11.574  0.1909E-01  0.4656E+00
     11.670  0.1950E-01  0.4674E+00
     11.765  0.2410E-01  0.4697E+00
     11.861  0.1333E-01  0.4710E+00
     11.957  0.1967E-01  0.4729E+00
     12.052  0.2111E-01  0.4749E+00
     12.148  0.1460E-01  0.4763E+00
     12.243  0.4664E-02  0.4767E+00
     12.339  0.4801E-02  0.4772E+00
     12.435  0.5152E-02  0.4777E+00
     12.530  0.5400E-02  0.4782E+00
     12.626  0.8406E-02  0.4790E+00
     12.722  0.7686E-02  0.4798E+00
     12.817  0.2550E-02  0.4800E+00
     12.913  0.2795E-04  0.4800E+00
     13.009  0.1037E-08  0.4800E+00
     13.104  0.4764E-16  0.4800E+00
     13.200  0.0000E+00  0.4800E+00
     13.295  0.8465E-18  0.4800E+00
     13.391  0.7729E-10  0.4800E+00
     13.487  0.6593E-05  0.4800E+00
     13.582  0.1184E-02  0.4801E+00
     13.678  0.3811E-02  0.4805E+00
     13.774  0.1088E-01  0.4815E+00
     13.869  0.1219E-01  0.4827E+00
     13.965  0.8729E-02  0.4835E+00
     14.061  0.1451E-01  0.4849E+00
     14.156  0.1635E-01  0.4865E+00
     14.252  0.1512E-01  0.4879E+00
     14.347  0.1799E-01  0.4896E+00
     14.443  0.2169E-01  0.4917E+00
     14.539  0.1276E-01  0.4929E+00
     14.634  0.9061E-02  0.4938E+00
     14.730  0.1609E-01  0.4953E+00
     14.826  0.1561E-01  0.4968E+00
     14.921  0.1979E-01  0.4987E+00
     15.017  0.2421E-01  0.5010E+00
     15.113  0.3089E-01  0.5040E+00
     15.208  0.3133E-01  0.5070E+00
     15.304  0.2136E-01  0.5090E+00
     15.399  0.3589E-01  0.5125E+00
     15.495  0.2692E-01  0.5150E+00
     15.591  0.2105E-01  0.5171E+00
     15.686  0.2442E-01  0.5194E+00
     15.782  0.3394E-01  0.5226E+00
     15.878  0.3302E-01  0.5258E+00
     15.973  0.1731E-01  0.5274E+00
     16.069  0.1922E-01  0.5293E+00
     16.165  0.1893E-01  0.5311E+00
     16.260  0.2657E-01  0.5336E+00
     16.356  0.3052E-01  0.5366E+00
     16.452  0.3743E-01  0.5401E+00
     16.547  0.3202E-01  0.5432E+00
     16.643  0.3092E-01  0.5462E+00
     16.738  0.3887E-01  0.5499E+00
     16.834  0.3429E-01  0.5532E+00
     16.930  0.3666E-01  0.5567E+00
     17.025  0.3759E-01  0.5603E+00
     17.121  0.3558E-01  0.5637E+00
     17.217  0.2963E-01  0.5665E+00
     17.312  0.3573E-01  0.5699E+00
     17.408  0.4134E-01  0.5739E+00
     17.504  0.3365E-01  0.5771E+00
     17.599  0.3804E-01  0.5807E+00
     17.695  0.3528E-01  0.5841E+00
     17.790  0.3070E-01  0.5870E+00
     17.886  0.2797E-01  0.5897E+00
     17.982  0.3146E-01  0.5927E+00
     18.077  0.3193E-01  0.5958E+00
     18.173  0.3221E-01  0.5988E+00
     18.269  0.2682E-01  0.6014E+00
     18.364  0.4595E-01  0.6058E+00
     18.460  0.2669E-01  0.6084E+00
     18.556  0.3507E-01  0.6117E+00
     18.651  0.2682E-01  0.6143E+00
     18.747  0.3803E-01  0.6179E+00
     18.842  0.4131E-01  0.6219E+00
     18.938  0.1963E-01  0.6237E+00
     19.034  0.2684E-01  0.6263E+00
     19.129  0.2331E-01  0.6285E+00
     19.225  0.1788E-01  0.6302E+00
     19.321  0.2741E-01  0.6329E+00
     19.416  0.2757E-01  0.6355E+00
     19.512  0.1956E-01  0.6374E+00
     19.608  0.2367E-01  0.6396E+00
     19.703  0.2442E-01  0.6420E+00
     19.799  0.3132E-01  0.6450E+00
     19.894  0.2536E-01  0.6474E+00
     19.990  0.1822E-01  0.6491E+00
     20.086  0.1834E-01  0.6509E+00
     20.181  0.1800E-01  0.6526E+00
     20.277  0.2005E-01  0.6545E+00
     20.373  0.1959E-01  0.6564E+00
     20.468  0.1353E-01  0.6577E+00
     20.564  0.1621E-01  0.6592E+00
     20.660  0.6790E-02  0.6599E+00
     20.755  0.1039E-02  0.6600E+00
     20.851  0.4640E-04  0.6600E+00
     20.946  0.5217E-08  0.6600E+00
     21.042  0.5406E-15  0.6600E+00
     21.138  0.0000E+00  0.6600E+00
     21.233  0.0000E+00  0.6600E+00
     21.329  0.0000E+00  0.6600E+00
     21.425  0.0000E+00  0.6600E+00
     21.520  0.0000E+00  0.6600E+00
     21.616  0.0000E+00  0.6600E+00
     21.712  0.0000E+00  0.6600E+00
     21.807  0.0000E+00  0.6600E+00
     21.903  0.0000E+00  0.6600E+00
     21.999  0.0000E+00  0.6600E+00
