       N       E                     dE             d eps       ncg     rms          rms(c)
DAV:   1    -0.232165704058E+03   -0.23217E+03   -0.47765E+00  8316   0.103E+01    0.840E+00
DAV:   2    -0.217108580464E+03    0.15057E+02   -0.12759E+00  9294   0.614E+00    0.610E+00
DAV:   3    -0.217460862676E+03   -0.35228E+00   -0.19920E-01  9648   0.205E+00    0.486E+00
DAV:   4    -0.217494964871E+03   -0.34102E-01   -0.95494E-02  9642   0.111E+00    0.975E-01
DAV:   5    -0.217495957361E+03   -0.99249E-03   -0.53223E-03  9780   0.259E-01    0.382E-01
DAV:   6    -0.217496094131E+03   -0.13677E-03   -0.86148E-04  9780   0.110E-01    0.161E-01
DAV:   7    -0.217496096972E+03   -0.28409E-05   -0.47686E-05  9216   0.329E-02
   1 F= -.13186227E+03 E0= -.13186227E+03  d E =-.131862E+03
       N       E                     dE             d eps       ncg     rms          rms(c)
DAV:   1    -0.214867772745E+03    0.26283E+01   -0.29955E+00  8964   0.739E+00    0.160E+00
DAV:   2    -0.214844296109E+03    0.23477E-01   -0.14015E-01  9912   0.133E+00    0.910E-01
DAV:   3    -0.214843548570E+03    0.74754E-03   -0.22173E-02  9558   0.464E-01    0.332E-01
DAV:   4    -0.214843913094E+03   -0.36452E-03   -0.62240E-04  9972   0.109E-01    0.170E-01
DAV:   5    -0.214843948711E+03   -0.35616E-04   -0.17809E-04  9672   0.520E-02    0.125E-01
DAV:   6    -0.214843980720E+03   -0.32009E-04   -0.62191E-05  9102   0.435E-02    0.256E-02
DAV:   7    -0.214843989220E+03   -0.85004E-05   -0.68231E-06  5016   0.991E-03
   2 F= -.13177049E+03 E0= -.13177049E+03  d E =0.917803E-01
       N       E                     dE             d eps       ncg     rms          rms(c)
DAV:   1    -0.216666073236E+03   -0.18221E+01   -0.12884E+00  8946   0.479E+00    0.105E+00
DAV:   2    -0.216657867574E+03    0.82057E-02   -0.62745E-02  9924   0.883E-01    0.596E-01
DAV:   3    -0.216657908091E+03   -0.40517E-04   -0.97770E-03  9564   0.307E-01    0.219E-01
DAV:   4    -0.216658137588E+03   -0.22950E-03   -0.27352E-04  9966   0.729E-02    0.112E-01
DAV:   5    -0.216658150472E+03   -0.12885E-04   -0.79465E-05  9282   0.348E-02    0.819E-02
DAV:   6    -0.216658152911E+03   -0.24390E-05   -0.25781E-05  5946   0.286E-02
   3 F= -.13189429E+03 E0= -.13189429E+03  d E =-.320162E-01
       N       E                     dE             d eps       ncg     rms          rms(c)
DAV:   1    -0.216644583550E+03    0.13567E-01   -0.71393E-05  8928   0.360E-02    0.159E-02
DAV:   2    -0.216644577060E+03    0.64897E-05   -0.41236E-06  4770   0.749E-03
   4 F= -.13189428E+03 E0= -.13189428E+03  d E =-.320102E-01
       N       E                     dE             d eps       ncg     rms          rms(c)
DAV:   1    -0.216659551493E+03   -0.14968E-01   -0.11214E-01  8352   0.137E+00    0.690E-02
DAV:   2    -0.216659561820E+03   -0.10327E-04   -0.24120E-03  9984   0.196E-01    0.492E-02
DAV:   3    -0.216659524511E+03    0.37309E-04   -0.12811E-04  9816   0.489E-02    0.292E-02
DAV:   4    -0.216659514898E+03    0.96132E-05   -0.65265E-05  9294   0.301E-02
   5 F= -.13189550E+03 E0= -.13189550E+03  d E =-.121885E-02
       N       E                     dE             d eps       ncg     rms          rms(c)
DAV:   1    -0.216662239698E+03   -0.27152E-02   -0.43144E-03  8400   0.269E-01    0.165E-02
DAV:   2    -0.216662242848E+03   -0.31494E-05   -0.95001E-05 10014   0.391E-02
   6 F= -.13189556E+03 E0= -.13189556E+03  d E =-.127422E-02
       N       E                     dE             d eps       ncg     rms          rms(c)
DAV:   1    -0.216692385883E+03   -0.30146E-01   -0.13603E-01  8334   0.152E+00    0.704E-02
DAV:   2    -0.216692404603E+03   -0.18720E-04   -0.19167E-03 10092   0.176E-01    0.461E-02
DAV:   3    -0.216692354901E+03    0.49702E-04   -0.10439E-04  9828   0.424E-02    0.282E-02
DAV:   4    -0.216692338424E+03    0.16476E-04   -0.10715E-04  9552   0.397E-02    0.803E-03
DAV:   5    -0.216692340600E+03   -0.21756E-05   -0.20446E-05  5772   0.157E-02
   7 F= -.13189617E+03 E0= -.13189617E+03  d E =-.609347E-03
       N       E                     dE             d eps       ncg     rms          rms(c)
DAV:   1    -0.216689619507E+03    0.27189E-02   -0.11504E-03  8388   0.140E-01    0.657E-03
DAV:   2    -0.216689617817E+03    0.16899E-05   -0.13403E-05  6324   0.155E-02
   8 F= -.13189617E+03 E0= -.13189617E+03  d E =-.615082E-03
       N       E                     dE             d eps       ncg     rms          rms(c)
DAV:   1    -0.216684731542E+03    0.48880E-02   -0.94035E-02  8328   0.125E+00    0.544E-02
DAV:   2    -0.216684727726E+03    0.38166E-05   -0.12956E-03  9690   0.144E-01    0.375E-02
DAV:   3    -0.216684696036E+03    0.31689E-04   -0.55382E-05  9984   0.313E-02    0.232E-02
DAV:   4    -0.216684677096E+03    0.18940E-04   -0.53069E-05  9156   0.292E-02    0.591E-03
DAV:   5    -0.216684677970E+03   -0.87352E-06   -0.13377E-05  5514   0.120E-02
   9 F= -.13189653E+03 E0= -.13189653E+03  d E =-.355103E-03
       N       E                     dE             d eps       ncg     rms          rms(c)
DAV:   1    -0.216684381419E+03    0.29568E-03   -0.29911E-04  8298   0.707E-02    0.437E-03
DAV:   2    -0.216684380688E+03    0.73184E-06   -0.40424E-06  4626   0.830E-03
  10 F= -.13189653E+03 E0= -.13189653E+03  d E =-.355533E-03
       N       E                     dE             d eps       ncg     rms          rms(c)
DAV:   1    -0.216694300783E+03   -0.99194E-02   -0.12889E-02  8328   0.467E-01    0.241E-02
DAV:   2    -0.216694314139E+03   -0.13356E-04   -0.24865E-04 10140   0.599E-02    0.163E-02
DAV:   3    -0.216694314168E+03   -0.28927E-07   -0.91441E-06  5868   0.135E-02
  11 F= -.13189672E+03 E0= -.13189672E+03  d E =-.192203E-03
       N       E                     dE             d eps       ncg     rms          rms(c)
DAV:   1    -0.216698300637E+03   -0.39865E-02   -0.20726E-03  8400   0.188E-01    0.114E-02
DAV:   2    -0.216698304584E+03   -0.39470E-05   -0.32642E-05  8946   0.225E-02
  12 F= -.13189674E+03 E0= -.13189674E+03  d E =-.214095E-03
       N       E                     dE             d eps       ncg     rms          rms(c)
DAV:   1    -0.216697593499E+03    0.70714E-03   -0.13286E-02  8352   0.477E-01    0.243E-02
DAV:   2    -0.216697594688E+03   -0.11890E-05   -0.21523E-04 10062   0.588E-02    0.159E-02
DAV:   3    -0.216697590575E+03    0.41134E-05   -0.11785E-05  5874   0.153E-02
  13 F= -.13189689E+03 E0= -.13189689E+03  d E =-.149580E-03
       N       E                     dE             d eps       ncg     rms          rms(c)
DAV:   1    -0.216696516572E+03    0.10781E-02   -0.22681E-02  8364   0.624E-01    0.315E-02
DAV:   2    -0.216696518041E+03   -0.14688E-05   -0.34057E-04 10074   0.745E-02    0.203E-02
DAV:   3    -0.216696511361E+03    0.66802E-05   -0.20589E-05  6852   0.200E-02
  14 F= -.13189695E+03 E0= -.13189695E+03  d E =-.206416E-03
       N       E                     dE             d eps       ncg     rms          rms(c)
DAV:   1    -0.216705764765E+03   -0.92467E-02   -0.88328E-03  8340   0.388E-01    0.209E-02
DAV:   2    -0.216705764266E+03    0.49892E-06   -0.13488E-04 10236   0.467E-02    0.137E-02
DAV:   3    -0.216705760015E+03    0.42506E-05   -0.75736E-06  5244   0.128E-02
  15 F= -.13189704E+03 E0= -.13189704E+03  d E =-.888735E-04
       N       E                     dE             d eps       ncg     rms          rms(c)
DAV:   1    -0.216711244890E+03   -0.54806E-02   -0.30935E-03  8394   0.230E-01    0.117E-02
DAV:   2    -0.216711244097E+03    0.79306E-06   -0.42062E-05  9888   0.262E-02
  16 F= -.13189705E+03 E0= -.13189705E+03  d E =-.100679E-03
       N       E                     dE             d eps       ncg     rms          rms(c)
DAV:   1    -0.216708636743E+03    0.26081E-02   -0.28204E-03  8346   0.216E-01    0.114E-02
DAV:   2    -0.216708637646E+03   -0.90281E-06   -0.38650E-05  8820   0.247E-02
  17 F= -.13189711E+03 E0= -.13189711E+03  d E =-.570367E-04
