Al4C3 anti-CaFe2O4 - r2SCAN H(P) scan @ 
           1
     2.764215    0.000000    0.000000
     0.000000    8.444701    0.000000
     0.000000    0.000000    9.795993
   Al   C 
    16    12
Direct configuration=     1
   0.25000000  0.42615409  0.58829077
   0.75000000  0.57384591  0.41170923
   0.25000000  0.92615409  0.91170923
   0.75000000  0.07384591  0.08829077
   0.25000000  0.47844960  0.20611004
   0.75000000  0.52155040  0.79388996
   0.25000000  0.97844960  0.29388996
   0.75000000  0.02155040  0.70611004
   0.25000000  0.15044287  0.51347285
   0.75000000  0.84955713  0.48652715
   0.25000000  0.65044287  0.98652715
   0.75000000  0.34955713  0.01347285
   0.75000000  0.26460755  0.29940645
   0.25000000  0.73539245  0.70059355
   0.25000000  0.23539245  0.79940645
   0.75000000  0.76460755  0.20059355
   0.75000000  0.75528726  0.85880659
   0.25000000  0.24471274  0.14119341
   0.75000000  0.25528726  0.64119341
   0.25000000  0.74471274  0.35880659
   0.25000000  0.93150416  0.61056083
   0.75000000  0.56849584  0.11056083
   0.25000000  0.43150416  0.88943917
   0.75000000  0.06849584  0.38943917
   0.75000000  0.09918016  0.89016188
   0.25000000  0.90081984  0.10983812
   0.75000000  0.59918016  0.60983812
   0.25000000  0.40081984  0.39016188
Al4C3 anti-CaFe2O4 - r2SCAN H(P) scan @ 
           1
     2.736388    0.000000    0.000000
     0.000000    8.359687    0.000000
     0.000000    0.000000    9.697375
   Al   C 
    16    12
Direct configuration=     2
   0.25000000  0.42621397  0.58829570
   0.75000000  0.57378603  0.41170430
   0.25000000  0.92621397  0.91170430
   0.75000000  0.07378603  0.08829570
   0.25000000  0.47841898  0.20578368
   0.75000000  0.52158102  0.79421632
   0.25000000  0.97841898  0.29421632
   0.75000000  0.02158102  0.70578368
   0.25000000  0.15018636  0.51352698
   0.75000000  0.84981364  0.48647302
   0.25000000  0.65018636  0.98647302
   0.75000000  0.34981364  0.01352698
   0.75000000  0.26482473  0.29929068
   0.25000000  0.73517527  0.70070932
   0.25000000  0.23517527  0.79929068
   0.75000000  0.76482473  0.20070932
   0.75000000  0.75484509  0.85867267
   0.25000000  0.24515491  0.14132733
   0.75000000  0.25484509  0.64132733
   0.25000000  0.74515491  0.35867267
   0.25000000  0.93150123  0.61128533
   0.75000000  0.56849877  0.11128533
   0.25000000  0.43150123  0.88871467
   0.75000000  0.06849877  0.38871467
   0.75000000  0.09866110  0.88980834
   0.25000000  0.90133890  0.11019166
   0.75000000  0.59866110  0.61019166
   0.25000000  0.40133890  0.38980834
Al4C3 anti-CaFe2O4 - r2SCAN H(P) scan @ 
           1
     2.754823    0.000000    0.000000
     0.000000    8.416007    0.000000
     0.000000    0.000000    9.762708
   Al   C 
    16    12
Direct configuration=     3
   0.25000000  0.42617390  0.58829240
   0.75000000  0.57382610  0.41170760
   0.25000000  0.92617390  0.91170760
   0.75000000  0.07382610  0.08829240
   0.25000000  0.47843947  0.20600208
   0.75000000  0.52156053  0.79399792
   0.25000000  0.97843947  0.29399792
   0.75000000  0.02156053  0.70600208
   0.25000000  0.15035802  0.51349075
   0.75000000  0.84964198  0.48650925
   0.25000000  0.65035802  0.98650925
   0.75000000  0.34964198  0.01349075
   0.75000000  0.26467939  0.29936815
   0.25000000  0.73532061  0.70063185
   0.25000000  0.23532061  0.79936815
   0.75000000  0.76467939  0.20063185
   0.75000000  0.75514100  0.85876229
   0.25000000  0.24485900  0.14123771
   0.75000000  0.25514100  0.64123771
   0.25000000  0.74485900  0.35876229
   0.25000000  0.93150319  0.61080048
   0.75000000  0.56849681  0.11080048
   0.25000000  0.43150319  0.88919952
   0.75000000  0.06849681  0.38919952
   0.75000000  0.09900846  0.89004494
   0.25000000  0.90099154  0.10995506
   0.75000000  0.59900846  0.60995506
   0.25000000  0.40099154  0.39004494
Al4C3 anti-CaFe2O4 - r2SCAN H(P) scan @ 
           1
     2.754676    0.000000    0.000000
     0.000000    8.415558    0.000000
     0.000000    0.000000    9.762187
   Al   C 
    16    12
Direct configuration=     4
   0.25000000  0.42617421  0.58829243
   0.75000000  0.57382579  0.41170757
   0.25000000  0.92617421  0.91170757
   0.75000000  0.07382579  0.08829243
   0.25000000  0.47843931  0.20600035
   0.75000000  0.52156069  0.79399965
   0.25000000  0.97843931  0.29399965
   0.75000000  0.02156069  0.70600035
   0.25000000  0.15035666  0.51349104
   0.75000000  0.84964334  0.48650896
   0.25000000  0.65035666  0.98650896
   0.75000000  0.34964334  0.01349104
   0.75000000  0.26468054  0.29936754
   0.25000000  0.73531946  0.70063246
   0.25000000  0.23531946  0.79936754
   0.75000000  0.76468054  0.20063246
   0.75000000  0.75513865  0.85876158
   0.25000000  0.24486135  0.14123842
   0.75000000  0.25513865  0.64123842
   0.25000000  0.74486135  0.35876158
   0.25000000  0.93150317  0.61080432
   0.75000000  0.56849683  0.11080432
   0.25000000  0.43150317  0.88919568
   0.75000000  0.06849683  0.38919568
   0.75000000  0.09900571  0.89004306
   0.25000000  0.90099429  0.10995694
   0.75000000  0.59900571  0.60995694
   0.25000000  0.40099429  0.39004306
Al4C3 anti-CaFe2O4 - r2SCAN H(P) scan @ 
           1
     2.754825    0.000000    0.000000
     0.000000    8.416012    0.000000
     0.000000    0.000000    9.762713
   Al   C 
    16    12
Direct configuration=     5
   0.25000000  0.42615278  0.58842038
   0.75000000  0.57384722  0.41157962
   0.25000000  0.92615278  0.91157962
   0.75000000  0.07384722  0.08842038
   0.25000000  0.47834028  0.20602670
   0.75000000  0.52165972  0.79397330
   0.25000000  0.97834028  0.29397330
   0.75000000  0.02165972  0.70602670
   0.25000000  0.15034290  0.51348984
   0.75000000  0.84965710  0.48651016
   0.25000000  0.65034290  0.98651016
   0.75000000  0.34965710  0.01348984
   0.75000000  0.26496581  0.29922606
   0.25000000  0.73503419  0.70077394
   0.25000000  0.23503419  0.79922606
   0.75000000  0.76496581  0.20077394
   0.75000000  0.75491416  0.85873584
   0.25000000  0.24508584  0.14126416
   0.75000000  0.25491416  0.64126416
   0.25000000  0.74508584  0.35873584
   0.25000000  0.93141171  0.61098985
   0.75000000  0.56858829  0.11098985
   0.25000000  0.43141171  0.88901015
   0.75000000  0.06858829  0.38901015
   0.75000000  0.09879304  0.88999377
   0.25000000  0.90120696  0.11000623
   0.75000000  0.59879304  0.61000623
   0.25000000  0.40120696  0.38999377
Al4C3 anti-CaFe2O4 - r2SCAN H(P) scan @ 
           1
     2.754853    0.000000    0.000000
     0.000000    8.416101    0.000000
     0.000000    0.000000    9.762816
   Al   C 
    16    12
Direct configuration=     6
   0.25000000  0.42614860  0.58844530
   0.75000000  0.57385140  0.41155470
   0.25000000  0.92614860  0.91155470
   0.75000000  0.07385140  0.08844530
   0.25000000  0.47832099  0.20603183
   0.75000000  0.52167901  0.79396817
   0.25000000  0.97832099  0.29396817
   0.75000000  0.02167901  0.70603183
   0.25000000  0.15034022  0.51348961
   0.75000000  0.84965978  0.48651039
   0.25000000  0.65034022  0.98651039
   0.75000000  0.34965978  0.01348961
   0.75000000  0.26502137  0.29919850
   0.25000000  0.73497863  0.70080150
   0.25000000  0.23497863  0.79919850
   0.75000000  0.76502137  0.20080150
   0.75000000  0.75487043  0.85873082
   0.25000000  0.24512957  0.14126918
   0.75000000  0.25487043  0.64126918
   0.25000000  0.74512957  0.35873082
   0.25000000  0.93139389  0.61102599
   0.75000000  0.56860611  0.11102599
   0.25000000  0.43139389  0.88897401
   0.75000000  0.06860611  0.38897401
   0.75000000  0.09875161  0.88998416
   0.25000000  0.90124839  0.11001584
   0.75000000  0.59875161  0.61001584
   0.25000000  0.40124839  0.38998416
Al4C3 anti-CaFe2O4 - r2SCAN H(P) scan @ 
           1
     2.755173    0.000000    0.000000
     0.000000    8.417076    0.000000
     0.000000    0.000000    9.763948
   Al   C 
    16    12
Direct configuration=     7
   0.25000000  0.42605138  0.58848465
   0.75000000  0.57394862  0.41151535
   0.25000000  0.92605138  0.91151535
   0.75000000  0.07394862  0.08848465
   0.25000000  0.47841362  0.20589436
   0.75000000  0.52158638  0.79410564
   0.25000000  0.97841362  0.29410564
   0.75000000  0.02158638  0.70589436
   0.25000000  0.15023614  0.51336727
   0.75000000  0.84976386  0.48663273
   0.25000000  0.65023614  0.98663273
   0.75000000  0.34976386  0.01336727
   0.75000000  0.26513186  0.29919565
   0.25000000  0.73486814  0.70080435
   0.25000000  0.23486814  0.79919565
   0.75000000  0.76513186  0.20080435
   0.75000000  0.75463609  0.85880169
   0.25000000  0.24536391  0.14119831
   0.75000000  0.25463609  0.64119831
   0.25000000  0.74536391  0.35880169
   0.25000000  0.93115772  0.61119345
   0.75000000  0.56884228  0.11119345
   0.25000000  0.43115772  0.88880655
   0.75000000  0.06884228  0.38880655
   0.75000000  0.09855085  0.89006547
   0.25000000  0.90144915  0.10993453
   0.75000000  0.59855085  0.60993453
   0.25000000  0.40144915  0.39006547
Al4C3 anti-CaFe2O4 - r2SCAN H(P) scan @ 
           1
     2.755143    0.000000    0.000000
     0.000000    8.416986    0.000000
     0.000000    0.000000    9.763843
   Al   C 
    16    12
Direct configuration=     8
   0.25000000  0.42606038  0.58848101
   0.75000000  0.57393962  0.41151899
   0.25000000  0.92606038  0.91151899
   0.75000000  0.07393962  0.08848101
   0.25000000  0.47840505  0.20590707
   0.75000000  0.52159495  0.79409293
   0.25000000  0.97840505  0.29409293
   0.75000000  0.02159495  0.70590707
   0.25000000  0.15024577  0.51337859
   0.75000000  0.84975423  0.48662141
   0.25000000  0.65024577  0.98662141
   0.75000000  0.34975423  0.01337859
   0.75000000  0.26512164  0.29919591
   0.25000000  0.73487836  0.70080409
   0.25000000  0.23487836  0.79919591
   0.75000000  0.76512164  0.20080409
   0.75000000  0.75465777  0.85879513
   0.25000000  0.24534223  0.14120487
   0.75000000  0.25465777  0.64120487
   0.25000000  0.74534223  0.35879513
   0.25000000  0.93117957  0.61117796
   0.75000000  0.56882043  0.11117796
   0.25000000  0.43117957  0.88882204
   0.75000000  0.06882043  0.38882204
   0.75000000  0.09856942  0.89005795
   0.25000000  0.90143058  0.10994205
   0.75000000  0.59856942  0.60994205
   0.25000000  0.40143058  0.39005795
Al4C3 anti-CaFe2O4 - r2SCAN H(P) scan @ 
           1
     2.755086    0.000000    0.000000
     0.000000    8.416811    0.000000
     0.000000    0.000000    9.763640
   Al   C 
    16    12
Direct configuration=     9
   0.25000000  0.42592331  0.58843041
   0.75000000  0.57407669  0.41156959
   0.25000000  0.92592331  0.91156959
   0.75000000  0.07407669  0.08843041
   0.25000000  0.47844356  0.20589988
   0.75000000  0.52155644  0.79410012
   0.25000000  0.97844356  0.29410012
   0.75000000  0.02155644  0.70589988
   0.25000000  0.15019049  0.51328033
   0.75000000  0.84980951  0.48671967
   0.25000000  0.65019049  0.98671967
   0.75000000  0.34980951  0.01328033
   0.75000000  0.26536265  0.29923728
   0.25000000  0.73463735  0.70076272
   0.25000000  0.23463735  0.79923728
   0.75000000  0.76536265  0.20076272
   0.75000000  0.75441625  0.85890212
   0.25000000  0.24558375  0.14109788
   0.75000000  0.25441625  0.64109788
   0.25000000  0.74558375  0.35890212
   0.25000000  0.93097394  0.61115921
   0.75000000  0.56902606  0.11115921
   0.25000000  0.43097394  0.88884079
   0.75000000  0.06902606  0.38884079
   0.75000000  0.09842791  0.89001418
   0.25000000  0.90157209  0.10998582
   0.75000000  0.59842791  0.60998582
   0.25000000  0.40157209  0.39001418
Al4C3 anti-CaFe2O4 - r2SCAN H(P) scan @ 
           1
     2.755083    0.000000    0.000000
     0.000000    8.416801    0.000000
     0.000000    0.000000    9.763629
   Al   C 
    16    12
Direct configuration=    10
   0.25000000  0.42591560  0.58842757
   0.75000000  0.57408440  0.41157243
   0.25000000  0.92591560  0.91157243
   0.75000000  0.07408440  0.08842757
   0.25000000  0.47844572  0.20589948
   0.75000000  0.52155428  0.79410052
   0.25000000  0.97844572  0.29410052
   0.75000000  0.02155428  0.70589948
   0.25000000  0.15018738  0.51327480
   0.75000000  0.84981262  0.48672520
   0.25000000  0.65018738  0.98672520
   0.75000000  0.34981262  0.01327480
   0.75000000  0.26537620  0.29923961
   0.25000000  0.73462380  0.70076039
   0.25000000  0.23462380  0.79923961
   0.75000000  0.76537620  0.20076039
   0.75000000  0.75440267  0.85890814
   0.25000000  0.24559733  0.14109186
   0.75000000  0.25440267  0.64109186
   0.25000000  0.74559733  0.35890814
   0.25000000  0.93096238  0.61115815
   0.75000000  0.56903762  0.11115815
   0.25000000  0.43096238  0.88884185
   0.75000000  0.06903762  0.38884185
   0.75000000  0.09841995  0.89001172
   0.25000000  0.90158005  0.10998828
   0.75000000  0.59841995  0.60998828
   0.25000000  0.40158005  0.39001172
Al4C3 anti-CaFe2O4 - r2SCAN H(P) scan @ 
           1
     2.755188    0.000000    0.000000
     0.000000    8.417123    0.000000
     0.000000    0.000000    9.764002
   Al   C 
    16    12
Direct configuration=    11
   0.25000000  0.42578361  0.58839071
   0.75000000  0.57421639  0.41160929
   0.25000000  0.92578361  0.91160929
   0.75000000  0.07421639  0.08839071
   0.25000000  0.47855424  0.20588416
   0.75000000  0.52144576  0.79411584
   0.25000000  0.97855424  0.29411584
   0.75000000  0.02144576  0.70588416
   0.25000000  0.15016334  0.51333508
   0.75000000  0.84983666  0.48666492
   0.25000000  0.65016334  0.98666492
   0.75000000  0.34983666  0.01333508
   0.75000000  0.26547738  0.29924602
   0.25000000  0.73452262  0.70075398
   0.25000000  0.23452262  0.79924602
   0.75000000  0.76547738  0.20075398
   0.75000000  0.75435148  0.85893878
   0.25000000  0.24564852  0.14106122
   0.75000000  0.25435148  0.64106122
   0.25000000  0.74564852  0.35893878
   0.25000000  0.93096717  0.61115105
   0.75000000  0.56903283  0.11115105
   0.25000000  0.43096717  0.88884895
   0.75000000  0.06903283  0.38884895
   0.75000000  0.09833702  0.88993881
   0.25000000  0.90166298  0.11006119
   0.75000000  0.59833702  0.61006119
   0.25000000  0.40166298  0.38993881
Al4C3 anti-CaFe2O4 - r2SCAN H(P) scan @ 
           1
     2.755231    0.000000    0.000000
     0.000000    8.417255    0.000000
     0.000000    0.000000    9.764155
   Al   C 
    16    12
Direct configuration=    12
   0.25000000  0.42572984  0.58837570
   0.75000000  0.57427016  0.41162430
   0.25000000  0.92572984  0.91162430
   0.75000000  0.07427016  0.08837570
   0.25000000  0.47859845  0.20587792
   0.75000000  0.52140155  0.79412208
   0.25000000  0.97859845  0.29412208
   0.75000000  0.02140155  0.70587792
   0.25000000  0.15015355  0.51335964
   0.75000000  0.84984645  0.48664036
   0.25000000  0.65015355  0.98664036
   0.75000000  0.34984645  0.01335964
   0.75000000  0.26551860  0.29924863
   0.25000000  0.73448140  0.70075137
   0.25000000  0.23448140  0.79924863
   0.75000000  0.76551860  0.20075137
   0.75000000  0.75433062  0.85895126
   0.25000000  0.24566938  0.14104874
   0.75000000  0.25433062  0.64104874
   0.25000000  0.74566938  0.35895126
   0.25000000  0.93096912  0.61114816
   0.75000000  0.56903088  0.11114816
   0.25000000  0.43096912  0.88885184
   0.75000000  0.06903088  0.38885184
   0.75000000  0.09830323  0.88990911
   0.25000000  0.90169677  0.11009089
   0.75000000  0.59830323  0.61009089
   0.25000000  0.40169677  0.38990911
Al4C3 anti-CaFe2O4 - r2SCAN H(P) scan @ 
           1
     2.755222    0.000000    0.000000
     0.000000    8.417226    0.000000
     0.000000    0.000000    9.764122
   Al   C 
    16    12
Direct configuration=    13
   0.25000000  0.42566690  0.58833084
   0.75000000  0.57433310  0.41166916
   0.25000000  0.92566690  0.91166916
   0.75000000  0.07433310  0.08833084
   0.25000000  0.47873407  0.20589753
   0.75000000  0.52126593  0.79410247
   0.25000000  0.97873407  0.29410247
   0.75000000  0.02126593  0.70589753
   0.25000000  0.15006813  0.51341688
   0.75000000  0.84993187  0.48658312
   0.25000000  0.65006813  0.98658312
   0.75000000  0.34993187  0.01341688
   0.75000000  0.26554267  0.29927868
   0.25000000  0.73445733  0.70072132
   0.25000000  0.23445733  0.79927868
   0.75000000  0.76554267  0.20072132
   0.75000000  0.75431973  0.85895024
   0.25000000  0.24568027  0.14104976
   0.75000000  0.25431973  0.64104976
   0.25000000  0.74568027  0.35895024
   0.25000000  0.93089987  0.61112855
   0.75000000  0.56910013  0.11112855
   0.25000000  0.43089987  0.88887145
   0.75000000  0.06910013  0.38887145
   0.75000000  0.09819446  0.88987337
   0.25000000  0.90180554  0.11012663
   0.75000000  0.59819446  0.61012663
   0.25000000  0.40180554  0.38987337
Al4C3 anti-CaFe2O4 - r2SCAN H(P) scan @ 
           1
     2.755210    0.000000    0.000000
     0.000000    8.417188    0.000000
     0.000000    0.000000    9.764078
   Al   C 
    16    12
Direct configuration=    14
   0.25000000  0.42558410  0.58827182
   0.75000000  0.57441590  0.41172818
   0.25000000  0.92558410  0.91172818
   0.75000000  0.07441590  0.08827182
   0.25000000  0.47891248  0.20592332
   0.75000000  0.52108752  0.79407668
   0.25000000  0.97891248  0.29407668
   0.75000000  0.02108752  0.70592332
   0.25000000  0.14995575  0.51349219
   0.75000000  0.85004425  0.48650781
   0.25000000  0.64995575  0.98650781
   0.75000000  0.35004425  0.01349219
   0.75000000  0.26557434  0.29931821
   0.25000000  0.73442566  0.70068179
   0.25000000  0.23442566  0.79931821
   0.75000000  0.76557434  0.20068179
   0.75000000  0.75430540  0.85894889
   0.25000000  0.24569460  0.14105111
   0.75000000  0.25430540  0.64105111
   0.25000000  0.74569460  0.35894889
   0.25000000  0.93080879  0.61110276
   0.75000000  0.56919121  0.11110276
   0.25000000  0.43080879  0.88889724
   0.75000000  0.06919121  0.38889724
   0.75000000  0.09805137  0.88982636
   0.25000000  0.90194863  0.11017364
   0.75000000  0.59805137  0.61017364
   0.25000000  0.40194863  0.38982636
Al4C3 anti-CaFe2O4 - r2SCAN H(P) scan @ 
           1
     2.755309    0.000000    0.000000
     0.000000    8.417492    0.000000
     0.000000    0.000000    9.764430
   Al   C 
    16    12
Direct configuration=    15
   0.25000000  0.42556601  0.58822904
   0.75000000  0.57443399  0.41177096
   0.25000000  0.92556601  0.91177096
   0.75000000  0.07443399  0.08822904
   0.25000000  0.47899624  0.20598004
   0.75000000  0.52100376  0.79401996
   0.25000000  0.97899624  0.29401996
   0.75000000  0.02100376  0.70598004
   0.25000000  0.14988729  0.51355178
   0.75000000  0.85011271  0.48644822
   0.25000000  0.64988729  0.98644822
   0.75000000  0.35011271  0.01355178
   0.75000000  0.26564736  0.29933410
   0.25000000  0.73435264  0.70066590
   0.25000000  0.23435264  0.79933410
   0.75000000  0.76564736  0.20066590
   0.75000000  0.75427555  0.85892128
   0.25000000  0.24572445  0.14107872
   0.75000000  0.25427555  0.64107872
   0.25000000  0.74572445  0.35892128
   0.25000000  0.93075056  0.61106234
   0.75000000  0.56924944  0.11106234
   0.25000000  0.43075056  0.88893766
   0.75000000  0.06924944  0.38893766
   0.75000000  0.09798464  0.88981256
   0.25000000  0.90201536  0.11018744
   0.75000000  0.59798464  0.61018744
   0.25000000  0.40201536  0.38981256
Al4C3 anti-CaFe2O4 - r2SCAN H(P) scan @ 
           1
     2.755368    0.000000    0.000000
     0.000000    8.417673    0.000000
     0.000000    0.000000    9.764640
   Al   C 
    16    12
Direct configuration=    16
   0.25000000  0.42555521  0.58820349
   0.75000000  0.57444479  0.41179651
   0.25000000  0.92555521  0.91179651
   0.75000000  0.07444479  0.08820349
   0.25000000  0.47904628  0.20601393
   0.75000000  0.52095372  0.79398607
   0.25000000  0.97904628  0.29398607
   0.75000000  0.02095372  0.70601393
   0.25000000  0.14984640  0.51358739
   0.75000000  0.85015360  0.48641261
   0.25000000  0.64984640  0.98641261
   0.75000000  0.35015360  0.01358739
   0.75000000  0.26569098  0.29934358
   0.25000000  0.73430902  0.70065642
   0.25000000  0.23430902  0.79934358
   0.75000000  0.76569098  0.20065642
   0.75000000  0.75425772  0.85890478
   0.25000000  0.24574228  0.14109522
   0.75000000  0.25425772  0.64109522
   0.25000000  0.74574228  0.35890478
   0.25000000  0.93071578  0.61103819
   0.75000000  0.56928422  0.11103819
   0.25000000  0.43071578  0.88896181
   0.75000000  0.06928422  0.38896181
   0.75000000  0.09794478  0.88980432
   0.25000000  0.90205522  0.11019568
   0.75000000  0.59794478  0.61019568
   0.25000000  0.40205522  0.38980432
Al4C3 anti-CaFe2O4 - r2SCAN H(P) scan @ 
           1
     2.755339    0.000000    0.000000
     0.000000    8.417584    0.000000
     0.000000    0.000000    9.764537
   Al   C 
    16    12
Direct configuration=    17
   0.25000000  0.42554272  0.58819645
   0.75000000  0.57445728  0.41180355
   0.25000000  0.92554272  0.91180355
   0.75000000  0.07445728  0.08819645
   0.25000000  0.47910417  0.20602388
   0.75000000  0.52089583  0.79397612
   0.25000000  0.97910417  0.29397612
   0.75000000  0.02089583  0.70602388
   0.25000000  0.14981729  0.51362699
   0.75000000  0.85018271  0.48637301
   0.25000000  0.64981729  0.98637301
   0.75000000  0.35018271  0.01362699
   0.75000000  0.26573975  0.29934971
   0.25000000  0.73426025  0.70065029
   0.25000000  0.23426025  0.79934971
   0.75000000  0.76573975  0.20065029
   0.75000000  0.75422240  0.85886993
   0.25000000  0.24577760  0.14113007
   0.75000000  0.25422240  0.64113007
   0.25000000  0.74577760  0.35886993
   0.25000000  0.93070693  0.61104220
   0.75000000  0.56929307  0.11104220
   0.25000000  0.43070693  0.88895780
   0.75000000  0.06929307  0.38895780
   0.75000000  0.09794555  0.88983082
   0.25000000  0.90205445  0.11016918
   0.75000000  0.59794555  0.61016918
   0.25000000  0.40205445  0.38983082
