Al4C3 anti-CaFe2O4-type (from mp CaFe2O4
   1.00000000000000     
     3.0256748800000000    0.0000000000000000    0.0000000000000002
     0.0000000000000015    9.2434621600000000    0.0000000000000006
     0.0000000000000000    0.0000000000000000   10.7225692099999996
   Al   C 
    16    12
Direct
     0.2500000000000000    0.4176733999999982    0.5732665399999988
     0.7500000000000000    0.5823266000000018    0.4267334600000012
     0.2500000000000000    0.9176733999999982    0.9267334600000012
     0.7500000000000000    0.0823266000000018    0.0732665399999988
     0.2500000000000000    0.5254711700000030    0.2167648900000003
     0.7500000000000000    0.4745288299999970    0.7832351099999997
     0.2500000000000000    0.0254711700000030    0.2832351099999997
     0.7500000000000000    0.9745288299999970    0.7167648900000003
     0.2500000000000000    0.1198977099999965    0.5244565100000003
     0.7500000000000000    0.8801022899999964    0.4755434899999997
     0.2500000000000000    0.6198977100000036    0.9755434899999997
     0.7500000000000000    0.3801022900000035    0.0244565100000003
     0.7500000000000000    0.2947541599999965    0.3358204800000024
     0.2500000000000000    0.7052458400000035    0.6641795199999976
     0.2500000000000000    0.2052458400000035    0.8358204800000024
     0.7500000000000000    0.7947541599999965    0.1641795199999976
     0.7500000000000000    0.7434243300000034    0.8437096400000001
     0.2500000000000000    0.2565756699999966    0.1562903599999999
     0.7500000000000000    0.2434243300000034    0.6562903599999999
     0.2500000000000000    0.7565756699999966    0.3437096400000001
     0.2500000000000000    0.9197969800000010    0.6043267800000010
     0.7500000000000000    0.5802030199999990    0.1043267800000010
     0.2500000000000000    0.4197969800000010    0.8956732199999990
     0.7500000000000000    0.0802030199999990    0.3956732199999990
     0.7500000000000000    0.0678090299999994    0.8898113600000030
     0.2500000000000000    0.9321909700000006    0.1101886399999970
     0.7500000000000000    0.5678090299999994    0.6101886399999970
     0.2500000000000000    0.4321909700000006    0.3898113600000030
 
  0.00000000E+00  0.00000000E+00  0.00000000E+00
  0.00000000E+00  0.00000000E+00  0.00000000E+00
  0.00000000E+00  0.00000000E+00  0.00000000E+00
  0.00000000E+00  0.00000000E+00  0.00000000E+00
  0.00000000E+00  0.00000000E+00  0.00000000E+00
  0.00000000E+00  0.00000000E+00  0.00000000E+00
  0.00000000E+00  0.00000000E+00  0.00000000E+00
  0.00000000E+00  0.00000000E+00  0.00000000E+00
  0.00000000E+00  0.00000000E+00  0.00000000E+00
  0.00000000E+00  0.00000000E+00  0.00000000E+00
  0.00000000E+00  0.00000000E+00  0.00000000E+00
  0.00000000E+00  0.00000000E+00  0.00000000E+00
  0.00000000E+00  0.00000000E+00  0.00000000E+00
  0.00000000E+00  0.00000000E+00  0.00000000E+00
  0.00000000E+00  0.00000000E+00  0.00000000E+00
  0.00000000E+00  0.00000000E+00  0.00000000E+00
  0.00000000E+00  0.00000000E+00  0.00000000E+00
  0.00000000E+00  0.00000000E+00  0.00000000E+00
  0.00000000E+00  0.00000000E+00  0.00000000E+00
  0.00000000E+00  0.00000000E+00  0.00000000E+00
  0.00000000E+00  0.00000000E+00  0.00000000E+00
  0.00000000E+00  0.00000000E+00  0.00000000E+00
  0.00000000E+00  0.00000000E+00  0.00000000E+00
  0.00000000E+00  0.00000000E+00  0.00000000E+00
  0.00000000E+00  0.00000000E+00  0.00000000E+00
  0.00000000E+00  0.00000000E+00  0.00000000E+00
  0.00000000E+00  0.00000000E+00  0.00000000E+00
  0.00000000E+00  0.00000000E+00  0.00000000E+00
