       N       E                     dE             d eps       ncg     rms          rms(c)
DAV:   1     0.335334128626E+03    0.33533E+03   -0.47288E+04778752   0.152E+03
DAV:   2    -0.152027382540E+03   -0.48736E+03   -0.46104E+03978944   0.247E+02
DAV:   3    -0.184526857860E+03   -0.32499E+02   -0.32101E+02934720   0.609E+01
DAV:   4    -0.185100771508E+03   -0.57391E+00   -0.57179E+00923080   0.880E+00
DAV:   5    -0.185111581331E+03   -0.10810E-01   -0.10803E-01916400   0.118E+00    0.280E+01
DAV:   6    -0.158096740567E+03    0.27015E+02   -0.80850E+01893856   0.271E+01    0.934E+00
DAV:   7    -0.157345434248E+03    0.75131E+00   -0.77599E+00915240   0.901E+00    0.583E+00
DAV:   8    -0.157218867039E+03    0.12657E+00   -0.49306E-01899896   0.268E+00    0.123E+00
DAV:   9    -0.157197565696E+03    0.21301E-01   -0.91282E-02914664   0.114E+00    0.438E-01
DAV:  10    -0.157196391818E+03    0.11739E-02   -0.25313E-02910528   0.575E-01    0.186E-01
DAV:  11    -0.157196479197E+03   -0.87379E-04   -0.27905E-03912624   0.195E-01    0.137E-01
DAV:  12    -0.157196496399E+03   -0.17202E-04   -0.54421E-04915312   0.793E-02    0.485E-02
DAV:  13    -0.157196430464E+03    0.65935E-04   -0.32609E-04909352   0.676E-02    0.151E-02
DAV:  14    -0.157196433439E+03   -0.29758E-05   -0.48262E-05737952   0.258E-02
   1 F= -.84068332E+02 E0= -.84068332E+02  d E =-.840683E+02
       N       E                     dE             d eps       ncg     rms          rms(c)
DAV:   1    -0.160731370107E+03   -0.35349E+01   -0.26230E+01783512   0.212E+01    0.223E+00
DAV:   2    -0.160645814781E+03    0.85555E-01   -0.97721E-01927008   0.358E+00    0.140E+00
DAV:   3    -0.160619244801E+03    0.26570E-01   -0.11379E-01907288   0.121E+00    0.570E-01
DAV:   4    -0.160618546290E+03    0.69851E-03   -0.22178E-02911472   0.490E-01    0.242E-01
DAV:   5    -0.160617913094E+03    0.63320E-03   -0.19811E-03919600   0.168E-01    0.741E-02
DAV:   6    -0.160617888960E+03    0.24134E-04   -0.53426E-04906736   0.798E-02    0.494E-02
DAV:   7    -0.160617875839E+03    0.13121E-04   -0.26083E-05642688   0.262E-02    0.235E-02
DAV:   8    -0.160617871078E+03    0.47609E-05   -0.18281E-05528056   0.156E-02
   2 F= -.84353933E+02 E0= -.84353931E+02  d E =-.285601E+00
       N       E                     dE             d eps       ncg     rms          rms(c)
DAV:   1    -0.159611629895E+03    0.10062E+01   -0.35179E+00784760   0.785E+00    0.840E-01
DAV:   2    -0.159598432957E+03    0.13197E-01   -0.13103E-01924520   0.132E+00    0.492E-01
DAV:   3    -0.159595100474E+03    0.33325E-02   -0.16505E-02903432   0.465E-01    0.175E-01
DAV:   4    -0.159595065231E+03    0.35243E-04   -0.33634E-03906552   0.189E-01    0.783E-02
DAV:   5    -0.159595020522E+03    0.44708E-04   -0.24076E-04914904   0.601E-02    0.285E-02
DAV:   6    -0.159595020543E+03   -0.20689E-07   -0.65549E-05838920   0.282E-02
   3 F= -.84481995E+02 E0= -.84481995E+02  d E =-.413663E+00
       N       E                     dE             d eps       ncg     rms          rms(c)
DAV:   1    -0.158870342581E+03    0.72468E+00   -0.12717E+01779008   0.153E+01    0.102E+00
DAV:   2    -0.158863034586E+03    0.73080E-02   -0.26736E-01927208   0.195E+00    0.548E-01
DAV:   3    -0.158859821189E+03    0.32134E-02   -0.22477E-02930104   0.586E-01    0.233E-01
DAV:   4    -0.158859954614E+03   -0.13343E-03   -0.41018E-03923200   0.235E-01    0.121E-01
DAV:   5    -0.158859969123E+03   -0.14509E-04   -0.59332E-04951160   0.930E-02    0.373E-02
DAV:   6    -0.158859969448E+03   -0.32447E-06   -0.14000E-04878576   0.427E-02    0.200E-02
DAV:   7    -0.158859972053E+03   -0.26059E-05   -0.20789E-05580336   0.184E-02
   4 F= -.84834593E+02 E0= -.84834593E+02  d E =-.352597E+00
       N       E                     dE             d eps       ncg     rms          rms(c)
DAV:   1    -0.158422724720E+03    0.43724E+00   -0.24735E+00783944   0.675E+00    0.449E-01
DAV:   2    -0.158421546516E+03    0.11782E-02   -0.51828E-02928288   0.864E-01    0.251E-01
DAV:   3    -0.158420838809E+03    0.70771E-03   -0.46609E-03927304   0.268E-01    0.107E-01
DAV:   4    -0.158420877102E+03   -0.38293E-04   -0.86217E-04922408   0.108E-01    0.553E-02
DAV:   5    -0.158420884819E+03   -0.77174E-05   -0.11345E-04947200   0.411E-02    0.168E-02
DAV:   6    -0.158420884981E+03   -0.16148E-06   -0.30007E-05597664   0.197E-02
   5 F= -.84871734E+02 E0= -.84871734E+02  d E =-.389739E+00
       N       E                     dE             d eps       ncg     rms          rms(c)
DAV:   1    -0.159364458727E+03   -0.94357E+00   -0.21768E+01778816   0.193E+01    0.994E-01
DAV:   2    -0.159365852464E+03   -0.13937E-02   -0.58015E-01919616   0.296E+00    0.743E-01
DAV:   3    -0.159353500498E+03    0.12352E-01   -0.42424E-02940856   0.873E-01    0.376E-01
DAV:   4    -0.159353297803E+03    0.20269E-03   -0.16129E-02920240   0.430E-01    0.171E-01
DAV:   5    -0.159353238926E+03    0.58877E-04   -0.11927E-03943504   0.132E-01    0.562E-02
DAV:   6    -0.159353252327E+03   -0.13401E-04   -0.32503E-04885448   0.619E-02    0.275E-02
DAV:   7    -0.159353246231E+03    0.60957E-05   -0.34709E-05698336   0.264E-02
   6 F= -.84982316E+02 E0= -.84982316E+02  d E =-.110581E+00
       N       E                     dE             d eps       ncg     rms          rms(c)
DAV:   1    -0.159158704508E+03    0.19455E+00   -0.13952E+00780512   0.490E+00    0.262E-01
DAV:   2    -0.159158623217E+03    0.81291E-04   -0.37605E-02919976   0.754E-01    0.183E-01
DAV:   3    -0.159157837374E+03    0.78584E-03   -0.28804E-03942400   0.232E-01    0.786E-02
DAV:   4    -0.159157858325E+03   -0.20951E-04   -0.11084E-03917936   0.113E-01    0.382E-02
DAV:   5    -0.159157858852E+03   -0.52684E-06   -0.67330E-05889728   0.307E-02
   7 F= -.84995832E+02 E0= -.84995832E+02  d E =-.124098E+00
       N       E                     dE             d eps       ncg     rms          rms(c)
DAV:   1    -0.159033885562E+03    0.12397E+00   -0.52385E+00778824   0.960E+00    0.418E-01
DAV:   2    -0.159034105157E+03   -0.21959E-03   -0.75444E-02918216   0.107E+00    0.237E-01
DAV:   3    -0.159032356567E+03    0.17486E-02   -0.44536E-03930584   0.275E-01    0.979E-02
DAV:   4    -0.159032331357E+03    0.25210E-04   -0.15879E-03934800   0.129E-01    0.461E-02
DAV:   5    -0.159032342190E+03   -0.10833E-04   -0.98593E-05897024   0.364E-02    0.209E-02
DAV:   6    -0.159032343206E+03   -0.10164E-05   -0.58324E-06527896   0.112E-02
   8 F= -.85062470E+02 E0= -.85062470E+02  d E =-.666372E-01
       N       E                     dE             d eps       ncg     rms          rms(c)
DAV:   1    -0.158844093016E+03    0.18825E+00   -0.66888E+00778760   0.108E+01    0.476E-01
DAV:   2    -0.158844326991E+03   -0.23397E-03   -0.97338E-02919480   0.121E+00    0.269E-01
DAV:   3    -0.158842064606E+03    0.22624E-02   -0.57542E-03928656   0.312E-01    0.111E-01
DAV:   4    -0.158842034466E+03    0.30140E-04   -0.20617E-03938320   0.147E-01    0.514E-02
DAV:   5    -0.158842048103E+03   -0.13637E-04   -0.11639E-04907816   0.400E-02    0.230E-02
DAV:   6    -0.158842049591E+03   -0.14882E-05   -0.73022E-06529616   0.124E-02
   9 F= -.85088649E+02 E0= -.85088649E+02  d E =-.928170E-01
       N       E                     dE             d eps       ncg     rms          rms(c)
DAV:   1    -0.159129886246E+03   -0.28784E+00   -0.48627E+00778864   0.928E+00    0.399E-01
DAV:   2    -0.159130301430E+03   -0.41518E-03   -0.59602E-02934664   0.962E-01    0.244E-01
DAV:   3    -0.159128412424E+03    0.18890E-02   -0.46478E-03924368   0.276E-01    0.963E-02
DAV:   4    -0.159128394504E+03    0.17919E-04   -0.16059E-03949320   0.129E-01    0.476E-02
DAV:   5    -0.159128396523E+03   -0.20187E-05   -0.79934E-05888368   0.364E-02
  10 F= -.85131854E+02 E0= -.85131854E+02  d E =-.432050E-01
       N       E                     dE             d eps       ncg     rms          rms(c)
DAV:   1    -0.159314062617E+03   -0.18567E+00   -0.25281E+00779352   0.669E+00    0.287E-01
DAV:   2    -0.159314325522E+03   -0.26291E-03   -0.31063E-02935120   0.693E-01    0.175E-01
DAV:   3    -0.159313349760E+03    0.97576E-03   -0.23753E-03924496   0.198E-01    0.693E-02
DAV:   4    -0.159313341710E+03    0.80498E-05   -0.83944E-04947912   0.930E-02    0.345E-02
DAV:   5    -0.159313341842E+03   -0.13194E-06   -0.42043E-05703320   0.272E-02
  11 F= -.85140987E+02 E0= -.85140987E+02  d E =-.523381E-01
       N       E                     dE             d eps       ncg     rms          rms(c)
DAV:   1    -0.159252259961E+03    0.61082E-01   -0.21624E+00779032   0.619E+00    0.266E-01
DAV:   2    -0.159252138795E+03    0.12117E-03   -0.25709E-02925992   0.629E-01    0.154E-01
DAV:   3    -0.159251250784E+03    0.88801E-03   -0.21748E-03922224   0.193E-01    0.541E-02
DAV:   4    -0.159251271813E+03   -0.21029E-04   -0.78864E-04924408   0.892E-02    0.377E-02
DAV:   5    -0.159251272701E+03   -0.88887E-06   -0.33770E-05649488   0.232E-02
  12 F= -.85174260E+02 E0= -.85174260E+02  d E =-.332726E-01
       N       E                     dE             d eps       ncg     rms          rms(c)
DAV:   1    -0.159041166086E+03    0.21011E+00   -0.19446E+01778752   0.186E+01    0.847E-01
DAV:   2    -0.159040172606E+03    0.99348E-03   -0.24300E-01921544   0.193E+00    0.463E-01
DAV:   3    -0.159032426299E+03    0.77463E-02   -0.17401E-02922808   0.550E-01    0.194E-01
DAV:   4    -0.159032285291E+03    0.14101E-03   -0.74321E-03919816   0.280E-01    0.117E-01
DAV:   5    -0.159032312761E+03   -0.27470E-04   -0.44748E-04921000   0.826E-02    0.633E-02
DAV:   6    -0.159032321281E+03   -0.85195E-05   -0.72107E-05886008   0.335E-02
  13 F= -.85240844E+02 E0= -.85240844E+02  d E =-.998563E-01
       N       E                     dE             d eps       ncg     rms          rms(c)
DAV:   1    -0.158473585632E+03    0.55873E+00   -0.77431E+01778752   0.371E+01    0.191E+00
DAV:   2    -0.158475929591E+03   -0.23440E-02   -0.11022E+00917640   0.411E+00    0.954E-01
DAV:   3    -0.158446829339E+03    0.29100E-01   -0.60975E-02922168   0.103E+00    0.524E-01
DAV:   4    -0.158443438510E+03    0.33908E-02   -0.31110E-02909392   0.600E-01    0.228E-01
DAV:   5    -0.158443637860E+03   -0.19935E-03   -0.24415E-03949336   0.192E-01    0.947E-02
DAV:   6    -0.158443655312E+03   -0.17452E-04   -0.29978E-04926632   0.670E-02    0.287E-02
DAV:   7    -0.158443654914E+03    0.39814E-06   -0.50193E-05857144   0.301E-02
  14 F= -.85221044E+02 E0= -.85221044E+02  d E =-.800570E-01
       N       E                     dE             d eps       ncg     rms          rms(c)
DAV:   1    -0.158833667467E+03   -0.39001E+00   -0.28178E+01778752   0.223E+01    0.954E-01
DAV:   2    -0.158835031611E+03   -0.13641E-02   -0.35229E-01922896   0.235E+00    0.586E-01
DAV:   3    -0.158822854932E+03    0.12177E-01   -0.30814E-02921856   0.717E-01    0.216E-01
DAV:   4    -0.158822795239E+03    0.59693E-04   -0.10484E-02922312   0.339E-01    0.132E-01
DAV:   5    -0.158822810805E+03   -0.15565E-04   -0.75212E-04927864   0.104E-01    0.717E-02
DAV:   6    -0.158822822889E+03   -0.12085E-04   -0.82028E-05887568   0.361E-02    0.241E-02
DAV:   7    -0.158822824525E+03   -0.16356E-05   -0.77675E-06527704   0.127E-02
  15 F= -.85257773E+02 E0= -.85257773E+02  d E =-.116786E+00
       N       E                     dE             d eps       ncg     rms          rms(c)
DAV:   1    -0.158791124872E+03    0.31698E-01   -0.26226E+00778800   0.681E+00    0.321E-01
DAV:   2    -0.158791111220E+03    0.13652E-04   -0.39447E-02926392   0.784E-01    0.167E-01
DAV:   3    -0.158790369173E+03    0.74205E-03   -0.26794E-03923328   0.212E-01    0.890E-02
DAV:   4    -0.158790366596E+03    0.25771E-05   -0.77353E-04929192   0.884E-02    0.417E-02
DAV:   5    -0.158790372339E+03   -0.57436E-05   -0.57253E-05883072   0.284E-02
  16 F= -.85305470E+02 E0= -.85305470E+02  d E =-.476969E-01
       N       E                     dE             d eps       ncg     rms          rms(c)
DAV:   1    -0.158657753212E+03    0.13261E+00   -0.23529E+01778752   0.204E+01    0.105E+00
DAV:   2    -0.158658881375E+03   -0.11282E-02   -0.38111E-01924344   0.243E+00    0.512E-01
DAV:   3    -0.158652565432E+03    0.63159E-02   -0.23755E-02922480   0.624E-01    0.328E-01
DAV:   4    -0.158652224820E+03    0.34061E-03   -0.66746E-03924824   0.268E-01    0.127E-01
DAV:   5    -0.158652245223E+03   -0.20402E-04   -0.60097E-04922232   0.996E-02    0.350E-02
DAV:   6    -0.158652253840E+03   -0.86178E-05   -0.17471E-04911440   0.479E-02    0.183E-02
DAV:   7    -0.158652254252E+03   -0.41196E-06   -0.13244E-05543192   0.149E-02
  17 F= -.85407450E+02 E0= -.85407450E+02  d E =-.149677E+00
       N       E                     dE             d eps       ncg     rms          rms(c)
DAV:   1    -0.158104095452E+03    0.54816E+00   -0.93251E+01778768   0.407E+01    0.248E+00
DAV:   2    -0.158125151188E+03   -0.21056E-01   -0.18063E+00923472   0.529E+00    0.112E+00
DAV:   3    -0.158100346026E+03    0.24805E-01   -0.10498E-01921264   0.128E+00    0.870E-01
DAV:   4    -0.158096954008E+03    0.33920E-02   -0.25242E-02918952   0.548E-01    0.306E-01
DAV:   5    -0.158096506455E+03    0.44755E-03   -0.43999E-03921760   0.275E-01    0.849E-02
DAV:   6    -0.158096585210E+03   -0.78755E-04   -0.17244E-03921976   0.146E-01    0.456E-02
DAV:   7    -0.158096586781E+03   -0.15710E-05   -0.11087E-04879496   0.415E-02    0.276E-02
DAV:   8    -0.158096581325E+03    0.54562E-05   -0.51578E-05824528   0.272E-02
  18 F= -.85330402E+02 E0= -.85330402E+02  d E =-.726293E-01
       N       E                     dE             d eps       ncg     rms          rms(c)
DAV:   1    -0.158549344241E+03   -0.45276E+00   -0.49023E+01778752   0.294E+01    0.132E+00
DAV:   2    -0.158559571638E+03   -0.10227E-01   -0.82459E-01922680   0.364E+00    0.817E-01
DAV:   3    -0.158542614474E+03    0.16957E-01   -0.61449E-02923728   0.104E+00    0.379E-01
DAV:   4    -0.158542343471E+03    0.27100E-03   -0.18136E-02913680   0.455E-01    0.183E-01
DAV:   5    -0.158542421032E+03   -0.77561E-04   -0.18988E-03927352   0.156E-01    0.662E-02
DAV:   6    -0.158542420692E+03    0.34090E-06   -0.30147E-04906224   0.630E-02    0.366E-02
DAV:   7    -0.158542425301E+03   -0.46095E-05   -0.57428E-05889168   0.285E-02
  19 F= -.85430744E+02 E0= -.85430744E+02  d E =-.172970E+00
       N       E                     dE             d eps       ncg     rms          rms(c)
DAV:   1    -0.158871878865E+03   -0.32946E+00   -0.28035E+00778792   0.700E+00    0.382E-01
DAV:   2    -0.158871741996E+03    0.13687E-03   -0.71398E-02916096   0.107E+00    0.243E-01
DAV:   3    -0.158870796313E+03    0.94568E-03   -0.60680E-03939096   0.327E-01    0.127E-01
DAV:   4    -0.158870842034E+03   -0.45721E-04   -0.15517E-03921448   0.134E-01    0.684E-02
DAV:   5    -0.158870836328E+03    0.57064E-05   -0.25410E-04915944   0.595E-02    0.160E-02
DAV:   6    -0.158870835600E+03    0.72788E-06   -0.55619E-05787216   0.266E-02
  20 F= -.85500621E+02 E0= -.85500621E+02  d E =-.698778E-01
       N       E                     dE             d eps       ncg     rms          rms(c)
DAV:   1    -0.159274781774E+03   -0.40395E+00   -0.55481E+00778752   0.984E+00    0.545E-01
DAV:   2    -0.159274639501E+03    0.14227E-03   -0.14311E-01915184   0.151E+00    0.347E-01
DAV:   3    -0.159272682035E+03    0.19575E-02   -0.12219E-02937296   0.462E-01    0.182E-01
DAV:   4    -0.159272779029E+03   -0.96993E-04   -0.31472E-03921520   0.191E-01    0.981E-02
DAV:   5    -0.159272773188E+03    0.58409E-05   -0.50745E-04915088   0.840E-02    0.227E-02
DAV:   6    -0.159272772065E+03    0.11227E-05   -0.11206E-04872752   0.374E-02    0.150E-02
DAV:   7    -0.159272772146E+03   -0.81156E-07   -0.11353E-05529760   0.153E-02
  21 F= -.85538108E+02 E0= -.85538108E+02  d E =-.107365E+00
       N       E                     dE             d eps       ncg     rms          rms(c)
DAV:   1    -0.158689073603E+03    0.58370E+00   -0.20299E+00779720   0.602E+00    0.532E-01
DAV:   2    -0.158685195358E+03    0.38782E-02   -0.56518E-02916200   0.906E-01    0.301E-01
DAV:   3    -0.158684270488E+03    0.92487E-03   -0.75941E-03917120   0.317E-01    0.124E-01
DAV:   4    -0.158684272816E+03   -0.23272E-05   -0.12007E-03923992   0.127E-01    0.666E-02
DAV:   5    -0.158684272485E+03    0.33050E-06   -0.20522E-04912848   0.517E-02    0.186E-02
DAV:   6    -0.158684270030E+03    0.24552E-05   -0.32088E-05682280   0.227E-02
  22 F= -.85573006E+02 E0= -.85573006E+02  d E =-.348978E-01
       N       E                     dE             d eps       ncg     rms          rms(c)
DAV:   1    -0.158726433288E+03   -0.42161E-01   -0.92785E-03797856   0.407E-01    0.361E-02
DAV:   2    -0.158726410517E+03    0.22772E-04   -0.25868E-04915344   0.630E-02    0.224E-02
DAV:   3    -0.158726403714E+03    0.68025E-05   -0.48121E-05830440   0.250E-02
  23 F= -.85573200E+02 E0= -.85573200E+02  d E =-.350918E-01
       N       E                     dE             d eps       ncg     rms          rms(c)
DAV:   1    -0.158918021409E+03   -0.19161E+00   -0.92592E-01780208   0.397E+00    0.202E-01
DAV:   2    -0.158917607797E+03    0.41361E-03   -0.13581E-02925152   0.456E-01    0.126E-01
DAV:   3    -0.158917138129E+03    0.46967E-03   -0.13420E-03920856   0.150E-01    0.402E-02
DAV:   4    -0.158917143797E+03   -0.56681E-05   -0.39511E-04912584   0.658E-02    0.233E-02
DAV:   5    -0.158917142312E+03    0.14850E-05   -0.26211E-05614872   0.179E-02
  24 F= -.85587131E+02 E0= -.85587131E+02  d E =-.139312E-01
       N       E                     dE             d eps       ncg     rms          rms(c)
DAV:   1    -0.159004320127E+03   -0.87176E-01   -0.21514E-01784040   0.191E+00    0.981E-02
DAV:   2    -0.159004213694E+03    0.10643E-03   -0.31531E-03925424   0.220E-01    0.606E-02
DAV:   3    -0.159004100979E+03    0.11271E-03   -0.32046E-04921240   0.733E-02    0.192E-02
DAV:   4    -0.159004102113E+03   -0.11347E-05   -0.92765E-05772200   0.320E-02
  25 F= -.85588831E+02 E0= -.85588831E+02  d E =-.156315E-01
       N       E                     dE             d eps       ncg     rms          rms(c)
DAV:   1    -0.158832477549E+03    0.17162E+00   -0.41558E-01780144   0.269E+00    0.155E-01
DAV:   2    -0.158832231015E+03    0.24653E-03   -0.59855E-03923232   0.298E-01    0.949E-02
DAV:   3    -0.158832042444E+03    0.18857E-03   -0.63337E-04922120   0.969E-02    0.313E-02
DAV:   4    -0.158832048420E+03   -0.59758E-05   -0.15060E-04875672   0.381E-02    0.158E-02
DAV:   5    -0.158832049892E+03   -0.14719E-05   -0.42745E-06526632   0.814E-03
  26 F= -.85593293E+02 E0= -.85593293E+02  d E =-.446155E-02
       N       E                     dE             d eps       ncg     rms          rms(c)
DAV:   1    -0.158814982034E+03    0.17066E-01   -0.39402E-03808672   0.262E-01    0.150E-02
DAV:   2    -0.158814981593E+03    0.44083E-06   -0.56378E-05880960   0.291E-02
  27 F= -.85593333E+02 E0= -.85593333E+02  d E =-.450120E-02
       N       E                     dE             d eps       ncg     rms          rms(c)
DAV:   1    -0.158903258130E+03   -0.88276E-01   -0.35645E-01779856   0.249E+00    0.118E-01
DAV:   2    -0.158903121864E+03    0.13627E-03   -0.47917E-03909968   0.276E-01    0.701E-02
DAV:   3    -0.158902954377E+03    0.16749E-03   -0.47076E-04921032   0.865E-02    0.235E-02
DAV:   4    -0.158902955346E+03   -0.96885E-06   -0.13785E-04890344   0.373E-02    0.123E-02
DAV:   5    -0.158902955018E+03    0.32821E-06   -0.44175E-06523256   0.863E-03
  28 F= -.85596454E+02 E0= -.85596454E+02  d E =-.312112E-02
       N       E                     dE             d eps       ncg     rms          rms(c)
DAV:   1    -0.158958721446E+03   -0.55766E-01   -0.15021E-01781096   0.162E+00    0.766E-02
DAV:   2    -0.158958669199E+03    0.52247E-04   -0.20381E-03910576   0.179E-01    0.451E-02
DAV:   3    -0.158958597923E+03    0.71276E-04   -0.19195E-04921488   0.555E-02    0.150E-02
DAV:   4    -0.158958597747E+03    0.17593E-06   -0.56331E-05655904   0.242E-02
  29 F= -.85597031E+02 E0= -.85597031E+02  d E =-.369847E-02
       N       E                     dE             d eps       ncg     rms          rms(c)
DAV:   1    -0.158935030547E+03    0.23567E-01   -0.25596E-01779832   0.213E+00    0.927E-02
DAV:   2    -0.158935111725E+03   -0.81178E-04   -0.38655E-03927832   0.243E-01    0.604E-02
DAV:   3    -0.158934989076E+03    0.12265E-03   -0.24277E-04921464   0.653E-02    0.267E-02
DAV:   4    -0.158934981472E+03    0.76042E-05   -0.13758E-04892160   0.402E-02    0.114E-02
DAV:   5    -0.158934981563E+03   -0.91429E-07   -0.13805E-05568496   0.148E-02
  30 F= -.85598755E+02 E0= -.85598755E+02  d E =-.172360E-02
       N       E                     dE             d eps       ncg     rms          rms(c)
DAV:   1    -0.158926021724E+03    0.89597E-02   -0.33047E-02784760   0.764E-01    0.333E-02
DAV:   2    -0.158926035367E+03   -0.13644E-04   -0.51292E-04927872   0.882E-02    0.224E-02
DAV:   3    -0.158926019514E+03    0.15853E-04   -0.30086E-05727832   0.235E-02    0.101E-02
DAV:   4    -0.158926018665E+03    0.84865E-06   -0.20077E-05562808   0.161E-02
  31 F= -.85598887E+02 E0= -.85598887E+02  d E =-.185621E-02
       N       E                     dE             d eps       ncg     rms          rms(c)
DAV:   1    -0.158945160921E+03   -0.19141E-01   -0.13435E-01779832   0.153E+00    0.693E-02
DAV:   2    -0.158945161273E+03   -0.35224E-06   -0.21769E-03919752   0.183E-01    0.439E-02
DAV:   3    -0.158945090008E+03    0.71265E-04   -0.17120E-04918568   0.568E-02    0.157E-02
DAV:   4    -0.158945092221E+03   -0.22134E-05   -0.73825E-05742400   0.282E-02
  32 F= -.85599972E+02 E0= -.85599972E+02  d E =-.108513E-02
       N       E                     dE             d eps       ncg     rms          rms(c)
DAV:   1    -0.158951897694E+03   -0.68077E-02   -0.18724E-02783216   0.572E-01    0.270E-02
DAV:   2    -0.158951899345E+03   -0.16504E-05   -0.31447E-04921424   0.691E-02    0.178E-02
DAV:   3    -0.158951888969E+03    0.10376E-04   -0.20543E-05592288   0.211E-02    0.719E-03
DAV:   4    -0.158951889324E+03   -0.35513E-06   -0.15168E-05517624   0.134E-02
  33 F= -.85600064E+02 E0= -.85600064E+02  d E =-.117665E-02
       N       E                     dE             d eps       ncg     rms          rms(c)
DAV:   1    -0.158956355443E+03   -0.44665E-02   -0.30960E-02780288   0.750E-01    0.339E-02
DAV:   2    -0.158956368352E+03   -0.12910E-04   -0.53888E-04926608   0.932E-02    0.214E-02
DAV:   3    -0.158956361369E+03    0.69830E-05   -0.49304E-05886032   0.289E-02
  34 F= -.85600976E+02 E0= -.85600976E+02  d E =-.911711E-03
       N       E                     dE             d eps       ncg     rms          rms(c)
DAV:   1    -0.158968299695E+03   -0.11931E-01   -0.27754E-01778960   0.225E+00    0.103E-01
DAV:   2    -0.158968389440E+03   -0.89746E-04   -0.47576E-03926120   0.279E-01    0.647E-02
DAV:   3    -0.158968324857E+03    0.64583E-04   -0.47609E-04943224   0.891E-02    0.348E-02
DAV:   4    -0.158968327947E+03   -0.30900E-05   -0.99047E-05864256   0.357E-02
  35 F= -.85602261E+02 E0= -.85602261E+02  d E =-.219659E-02
       N       E                     dE             d eps       ncg     rms          rms(c)
DAV:   1    -0.158974122118E+03   -0.57973E-02   -0.25313E-02786400   0.677E-01    0.340E-02
DAV:   2    -0.158974120043E+03    0.20748E-05   -0.44569E-04924920   0.824E-02    0.233E-02
DAV:   3    -0.158974110024E+03    0.10019E-04   -0.40608E-05796872   0.267E-02    0.109E-02
DAV:   4    -0.158974110359E+03   -0.33502E-06   -0.12081E-05554016   0.124E-02
  36 F= -.85602784E+02 E0= -.85602784E+02  d E =-.523041E-03
       N       E                     dE             d eps       ncg     rms          rms(c)
DAV:   1    -0.158978207413E+03   -0.40974E-02   -0.14454E-02784544   0.511E-01    0.251E-02
DAV:   2    -0.158978207376E+03    0.36818E-07   -0.24381E-04925744   0.611E-02    0.169E-02
DAV:   3    -0.158978201389E+03    0.59875E-05   -0.18109E-05572512   0.194E-02
  37 F= -.85602900E+02 E0= -.85602900E+02  d E =-.639502E-03
       N       E                     dE             d eps       ncg     rms          rms(c)
DAV:   1    -0.158973822943E+03    0.43844E-02   -0.23380E-02782064   0.653E-01    0.292E-02
DAV:   2    -0.158973849912E+03   -0.26970E-04   -0.55370E-04936168   0.905E-02    0.201E-02
DAV:   3    -0.158973844374E+03    0.55387E-05   -0.21944E-05626384   0.211E-02
  38 F= -.85603181E+02 E0= -.85603181E+02  d E =-.281202E-03
       N       E                     dE             d eps       ncg     rms          rms(c)
DAV:   1    -0.158972941439E+03    0.90847E-03   -0.87312E-04840792   0.126E-01    0.841E-03
DAV:   2    -0.158972941446E+03   -0.62737E-08   -0.13356E-05617944   0.159E-02
  39 F= -.85603186E+02 E0= -.85603186E+02  d E =-.285640E-03
       N       E                     dE             d eps       ncg     rms          rms(c)
DAV:   1    -0.158984050008E+03   -0.11109E-01   -0.19744E-02784376   0.580E-01    0.266E-02
DAV:   2    -0.158984034432E+03    0.15576E-04   -0.36117E-04920120   0.747E-02    0.167E-02
DAV:   3    -0.158984024659E+03    0.97728E-05   -0.31851E-05794600   0.239E-02
  40 F= -.85603277E+02 E0= -.85603277E+02  d E =-.911576E-04
