Al4C3 anti-CaFe2O4 - relax @ 50 GPa (ISI
           1
     2.786839    0.000000    0.000000
     0.000000    8.513818    0.000000
     0.000000    0.000000    9.876170
   Al   C 
    16    12
Direct configuration=     1
   0.25000000  0.40414635  0.58074898
   0.75000000  0.59585365  0.41925102
   0.25000000  0.90414635  0.91925102
   0.75000000  0.09585365  0.08074898
   0.25000000  0.52388755  0.21777591
   0.75000000  0.47611245  0.78222409
   0.25000000  0.02388755  0.28222409
   0.75000000  0.97611245  0.71777591
   0.25000000  0.13210105  0.53478549
   0.75000000  0.86789895  0.46521451
   0.25000000  0.63210105  0.96521451
   0.75000000  0.36789895  0.03478549
   0.75000000  0.28986129  0.32285409
   0.25000000  0.71013871  0.67714591
   0.25000000  0.21013871  0.82285409
   0.75000000  0.78986129  0.17714591
   0.75000000  0.74431887  0.84836899
   0.25000000  0.25568113  0.15163101
   0.75000000  0.24431887  0.65163101
   0.25000000  0.75568113  0.34836899
   0.25000000  0.91394735  0.60563558
   0.75000000  0.58605265  0.10563558
   0.25000000  0.41394735  0.89436442
   0.75000000  0.08605265  0.39436442
   0.75000000  0.07145136  0.88769614
   0.25000000  0.92854864  0.11230386
   0.75000000  0.57145136  0.61230386
   0.25000000  0.42854864  0.38769614
Al4C3 anti-CaFe2O4 - relax @ 50 GPa (ISI
           1
     2.826118    0.000000    0.000000
     0.000000    8.633814    0.000000
     0.000000    0.000000   10.015367
   Al   C 
    16    12
Direct configuration=     2
   0.25000000  0.40924587  0.57925649
   0.75000000  0.59075413  0.42074351
   0.25000000  0.90924587  0.92074351
   0.75000000  0.09075413  0.07925649
   0.25000000  0.52280873  0.21459873
   0.75000000  0.47719127  0.78540127
   0.25000000  0.02280873  0.28540127
   0.75000000  0.97719127  0.71459873
   0.25000000  0.12848590  0.53385981
   0.75000000  0.87151410  0.46614019
   0.25000000  0.62848590  0.96614019
   0.75000000  0.37151410  0.03385981
   0.75000000  0.29112900  0.31510630
   0.25000000  0.70887100  0.68489370
   0.25000000  0.20887100  0.81510630
   0.75000000  0.79112900  0.18489370
   0.75000000  0.74487734  0.85016604
   0.25000000  0.25512266  0.14983396
   0.75000000  0.24487734  0.64983396
   0.25000000  0.75512266  0.35016604
   0.25000000  0.91565615  0.60346306
   0.75000000  0.58434385  0.10346306
   0.25000000  0.41565615  0.89653694
   0.75000000  0.08434385  0.39653694
   0.75000000  0.07344603  0.88945465
   0.25000000  0.92655397  0.11054535
   0.75000000  0.57344603  0.61054535
   0.25000000  0.42655397  0.38945465
Al4C3 anti-CaFe2O4 - relax @ 50 GPa (ISI
           1
     2.811829    0.000000    0.000000
     0.000000    8.590162    0.000000
     0.000000    0.000000    9.964730
   Al   C 
    16    12
Direct configuration=     3
   0.25000000  0.40741656  0.57979188
   0.75000000  0.59258344  0.42020812
   0.25000000  0.90741656  0.92020812
   0.75000000  0.09258344  0.07979188
   0.25000000  0.52319573  0.21573845
   0.75000000  0.47680427  0.78426155
   0.25000000  0.02319573  0.28426155
   0.75000000  0.97680427  0.71573845
   0.25000000  0.12978274  0.53419187
   0.75000000  0.87021726  0.46580813
   0.25000000  0.62978274  0.96580813
   0.75000000  0.37021726  0.03419187
   0.75000000  0.29067424  0.31788561
   0.25000000  0.70932576  0.68211439
   0.25000000  0.20932576  0.81788561
   0.75000000  0.79067424  0.18211439
   0.75000000  0.74467701  0.84952140
   0.25000000  0.25532299  0.15047860
   0.75000000  0.24467701  0.65047860
   0.25000000  0.75532299  0.34952140
   0.25000000  0.91504317  0.60424239
   0.75000000  0.58495683  0.10424239
   0.25000000  0.41504317  0.89575761
   0.75000000  0.08495683  0.39575761
   0.75000000  0.07273050  0.88882383
   0.25000000  0.92726950  0.11117617
   0.75000000  0.57273050  0.61117617
   0.25000000  0.42726950  0.38882383
Al4C3 anti-CaFe2O4 - relax @ 50 GPa (ISI
           1
     2.798191    0.000000    0.000000
     0.000000    8.548498    0.000000
     0.000000    0.000000    9.916399
   Al   C 
    16    12
Direct configuration=     4
   0.25000000  0.41072031  0.57918123
   0.75000000  0.58927969  0.42081877
   0.25000000  0.91072031  0.92081877
   0.75000000  0.08927969  0.07918123
   0.25000000  0.52173812  0.21443728
   0.75000000  0.47826188  0.78556272
   0.25000000  0.02173812  0.28556272
   0.75000000  0.97826188  0.71443728
   0.25000000  0.12970934  0.53331003
   0.75000000  0.87029066  0.46668997
   0.25000000  0.62970934  0.96668997
   0.75000000  0.37029066  0.03331003
   0.75000000  0.28977347  0.31036963
   0.25000000  0.71022653  0.68963037
   0.25000000  0.21022653  0.81036963
   0.75000000  0.78977347  0.18963037
   0.75000000  0.74538248  0.85135514
   0.25000000  0.25461752  0.14864486
   0.75000000  0.24538248  0.64864486
   0.25000000  0.75461752  0.35135514
   0.25000000  0.91401106  0.60397661
   0.75000000  0.58598894  0.10397661
   0.25000000  0.41401106  0.89602339
   0.75000000  0.08598894  0.39602339
   0.75000000  0.07489692  0.88696267
   0.25000000  0.92510308  0.11303733
   0.75000000  0.57489692  0.61303733
   0.25000000  0.42510308  0.38696267
Al4C3 anti-CaFe2O4 - relax @ 50 GPa (ISI
           1
     2.792178    0.000000    0.000000
     0.000000    8.530127    0.000000
     0.000000    0.000000    9.895088
   Al   C 
    16    12
Direct configuration=     5
   0.25000000  0.41218415  0.57891065
   0.75000000  0.58781585  0.42108935
   0.25000000  0.91218415  0.92108935
   0.75000000  0.08781585  0.07891065
   0.25000000  0.52109228  0.21386075
   0.75000000  0.47890772  0.78613925
   0.25000000  0.02109228  0.28613925
   0.75000000  0.97890772  0.71386075
   0.25000000  0.12967682  0.53291930
   0.75000000  0.87032318  0.46708070
   0.25000000  0.62967682  0.96708070
   0.75000000  0.37032318  0.03291930
   0.75000000  0.28937435  0.30703941
   0.25000000  0.71062565  0.69296059
   0.25000000  0.21062565  0.80703941
   0.75000000  0.78937435  0.19296059
   0.75000000  0.74569506  0.85216765
   0.25000000  0.25430494  0.14783235
   0.75000000  0.24569506  0.64783235
   0.25000000  0.75430494  0.35216765
   0.25000000  0.91355375  0.60385884
   0.75000000  0.58644625  0.10385884
   0.25000000  0.41355375  0.89614116
   0.75000000  0.08644625  0.39614116
   0.75000000  0.07585683  0.88613801
   0.25000000  0.92414317  0.11386199
   0.75000000  0.57585683  0.61386199
   0.25000000  0.42414317  0.38613801
Al4C3 anti-CaFe2O4 - relax @ 50 GPa (ISI
           1
     2.802539    0.000000    0.000000
     0.000000    8.561779    0.000000
     0.000000    0.000000    9.931805
   Al   C 
    16    12
Direct configuration=     6
   0.25000000  0.41267149  0.57900021
   0.75000000  0.58732851  0.42099979
   0.25000000  0.91267149  0.92099979
   0.75000000  0.08732851  0.07900021
   0.25000000  0.52022578  0.21358434
   0.75000000  0.47977422  0.78641566
   0.25000000  0.02022578  0.28641566
   0.75000000  0.97977422  0.71358434
   0.25000000  0.13406115  0.53082869
   0.75000000  0.86593885  0.46917131
   0.25000000  0.63406115  0.96917131
   0.75000000  0.36593885  0.03082869
   0.75000000  0.28605962  0.30187433
   0.25000000  0.71394038  0.69812567
   0.25000000  0.21394038  0.80187433
   0.75000000  0.78605962  0.19812567
   0.75000000  0.74700977  0.85388339
   0.25000000  0.25299023  0.14611661
   0.75000000  0.24700977  0.64611661
   0.25000000  0.75299023  0.35388339
   0.25000000  0.91174345  0.60553344
   0.75000000  0.58825655  0.10553344
   0.25000000  0.41174345  0.89446656
   0.75000000  0.08825655  0.39446656
   0.75000000  0.07843975  0.88392580
   0.25000000  0.92156025  0.11607420
   0.75000000  0.57843975  0.61607420
   0.25000000  0.42156025  0.38392580
Al4C3 anti-CaFe2O4 - relax @ 50 GPa (ISI
           1
     2.799912    0.000000    0.000000
     0.000000    8.553755    0.000000
     0.000000    0.000000    9.922497
   Al   C 
    16    12
Direct configuration=     7
   0.25000000  0.41254840  0.57897759
   0.75000000  0.58745160  0.42102241
   0.25000000  0.91254840  0.92102241
   0.75000000  0.08745160  0.07897759
   0.25000000  0.52044463  0.21365415
   0.75000000  0.47955537  0.78634585
   0.25000000  0.02044463  0.28634585
   0.75000000  0.97955537  0.71365415
   0.25000000  0.13295380  0.53135672
   0.75000000  0.86704620  0.46864328
   0.25000000  0.63295380  0.96864328
   0.75000000  0.36704620  0.03135672
   0.75000000  0.28689682  0.30317888
   0.25000000  0.71310318  0.69682112
   0.25000000  0.21310318  0.80317888
   0.75000000  0.78689682  0.19682112
   0.75000000  0.74667771  0.85345004
   0.25000000  0.25332229  0.14654996
   0.75000000  0.24667771  0.64654996
   0.25000000  0.75332229  0.35345004
   0.25000000  0.91220068  0.60511049
   0.75000000  0.58779932  0.10511049
   0.25000000  0.41220068  0.89488951
   0.75000000  0.08779932  0.39488951
   0.75000000  0.07778738  0.88448454
   0.25000000  0.92221262  0.11551546
   0.75000000  0.57778738  0.61551546
   0.25000000  0.42221262  0.38448454
Al4C3 anti-CaFe2O4 - relax @ 50 GPa (ISI
           1
     2.797492    0.000000    0.000000
     0.000000    8.546361    0.000000
     0.000000    0.000000    9.913920
   Al   C 
    16    12
Direct configuration=     8
   0.25000000  0.41337497  0.57869801
   0.75000000  0.58662503  0.42130199
   0.25000000  0.91337497  0.92130199
   0.75000000  0.08662503  0.07869801
   0.25000000  0.51966056  0.21364802
   0.75000000  0.48033944  0.78635198
   0.25000000  0.01966056  0.28635198
   0.75000000  0.98033944  0.71364802
   0.25000000  0.13477980  0.52922005
   0.75000000  0.86522020  0.47077995
   0.25000000  0.63477980  0.97077995
   0.75000000  0.36522020  0.02922005
   0.75000000  0.28601392  0.30289929
   0.25000000  0.71398608  0.69710071
   0.25000000  0.21398608  0.80289929
   0.75000000  0.78601392  0.19710071
   0.75000000  0.74789571  0.85458162
   0.25000000  0.25210429  0.14541838
   0.75000000  0.24789571  0.64541838
   0.25000000  0.75210429  0.35458162
   0.25000000  0.91373181  0.60566212
   0.75000000  0.58626819  0.10566212
   0.25000000  0.41373181  0.89433788
   0.75000000  0.08626819  0.39433788
   0.75000000  0.07895746  0.88469482
   0.25000000  0.92104254  0.11530518
   0.75000000  0.57895746  0.61530518
   0.25000000  0.42104254  0.38469482
Al4C3 anti-CaFe2O4 - relax @ 50 GPa (ISI
           1
     2.794760    0.000000    0.000000
     0.000000    8.538016    0.000000
     0.000000    0.000000    9.904240
   Al   C 
    16    12
Direct configuration=     9
   0.25000000  0.41430867  0.57838219
   0.75000000  0.58569133  0.42161781
   0.25000000  0.91430867  0.92161781
   0.75000000  0.08569133  0.07838219
   0.25000000  0.51877486  0.21364111
   0.75000000  0.48122514  0.78635889
   0.25000000  0.01877486  0.28635889
   0.75000000  0.98122514  0.71364111
   0.25000000  0.13684248  0.52680643
   0.75000000  0.86315752  0.47319357
   0.25000000  0.63684248  0.97319357
   0.75000000  0.36315752  0.02680643
   0.75000000  0.28501657  0.30258347
   0.25000000  0.71498343  0.69741653
   0.25000000  0.21498343  0.80258347
   0.75000000  0.78501657  0.19741653
   0.75000000  0.74927159  0.85585986
   0.25000000  0.25072841  0.14414014
   0.75000000  0.24927159  0.64414014
   0.25000000  0.75072841  0.35585986
   0.25000000  0.91546142  0.60628525
   0.75000000  0.58453858  0.10628525
   0.25000000  0.41546142  0.89371475
   0.75000000  0.08453858  0.39371475
   0.75000000  0.08027921  0.88493235
   0.25000000  0.91972079  0.11506765
   0.75000000  0.58027921  0.61506765
   0.25000000  0.41972079  0.38493235
Al4C3 anti-CaFe2O4 - relax @ 50 GPa (ISI
           1
     2.797828    0.000000    0.000000
     0.000000    8.547388    0.000000
     0.000000    0.000000    9.915111
   Al   C 
    16    12
Direct configuration=    10
   0.25000000  0.41510707  0.57926818
   0.75000000  0.58489293  0.42073182
   0.25000000  0.91510707  0.92073182
   0.75000000  0.08489293  0.07926818
   0.25000000  0.51665638  0.21429274
   0.75000000  0.48334362  0.78570726
   0.25000000  0.01665638  0.28570726
   0.75000000  0.98334362  0.71429274
   0.25000000  0.13769399  0.52570543
   0.75000000  0.86230601  0.47429457
   0.25000000  0.63769399  0.97429457
   0.75000000  0.36230601  0.02570543
   0.75000000  0.28414419  0.30221594
   0.25000000  0.71585581  0.69778406
   0.25000000  0.21585581  0.80221594
   0.75000000  0.78414419  0.19778406
   0.75000000  0.75041072  0.85644066
   0.25000000  0.24958928  0.14355934
   0.75000000  0.25041072  0.64355934
   0.25000000  0.74958928  0.35644066
   0.25000000  0.91714958  0.60649581
   0.75000000  0.58285042  0.10649581
   0.25000000  0.41714958  0.89350419
   0.75000000  0.08285042  0.39350419
   0.75000000  0.08179950  0.88503707
   0.25000000  0.91820050  0.11496293
   0.75000000  0.58179950  0.61496293
   0.25000000  0.41820050  0.38503707
Al4C3 anti-CaFe2O4 - relax @ 50 GPa (ISI
           1
     2.800042    0.000000    0.000000
     0.000000    8.554152    0.000000
     0.000000    0.000000    9.922958
   Al   C 
    16    12
Direct configuration=    11
   0.25000000  0.41568267  0.57990691
   0.75000000  0.58431733  0.42009309
   0.25000000  0.91568267  0.92009309
   0.75000000  0.08431733  0.07990691
   0.25000000  0.51512910  0.21476252
   0.75000000  0.48487090  0.78523748
   0.25000000  0.01512910  0.28523748
   0.75000000  0.98487090  0.71476252
   0.25000000  0.13830787  0.52491169
   0.75000000  0.86169213  0.47508831
   0.25000000  0.63830787  0.97508831
   0.75000000  0.36169213  0.02491169
   0.75000000  0.28351526  0.30195098
   0.25000000  0.71648474  0.69804902
   0.25000000  0.21648474  0.80195098
   0.75000000  0.78351526  0.19804902
   0.75000000  0.75123196  0.85685937
   0.25000000  0.24876804  0.14314063
   0.75000000  0.25123196  0.64314063
   0.25000000  0.74876804  0.35685937
   0.25000000  0.91836663  0.60664760
   0.75000000  0.58163337  0.10664760
   0.25000000  0.41836663  0.89335240
   0.75000000  0.08163337  0.39335240
   0.75000000  0.08289553  0.88511257
   0.25000000  0.91710447  0.11488743
   0.75000000  0.58289553  0.61488743
   0.25000000  0.41710447  0.38511257
Al4C3 anti-CaFe2O4 - relax @ 50 GPa (ISI
           1
     2.798842    0.000000    0.000000
     0.000000    8.550485    0.000000
     0.000000    0.000000    9.918704
   Al   C 
    16    12
Direct configuration=    12
   0.25000000  0.41614673  0.58048018
   0.75000000  0.58385327  0.41951982
   0.25000000  0.91614673  0.91951982
   0.75000000  0.08385327  0.08048018
   0.25000000  0.51359129  0.21465243
   0.75000000  0.48640871  0.78534757
   0.25000000  0.01359129  0.28534757
   0.75000000  0.98640871  0.71465243
   0.25000000  0.13858215  0.52448025
   0.75000000  0.86141785  0.47551975
   0.25000000  0.63858215  0.97551975
   0.75000000  0.36141785  0.02448025
   0.75000000  0.28241178  0.30169960
   0.25000000  0.71758822  0.69830040
   0.25000000  0.21758822  0.80169960
   0.75000000  0.78241178  0.19830040
   0.75000000  0.75184828  0.85700944
   0.25000000  0.24815172  0.14299056
   0.75000000  0.25184828  0.64299056
   0.25000000  0.74815172  0.35700944
   0.25000000  0.91930092  0.60706843
   0.75000000  0.58069908  0.10706843
   0.25000000  0.41930092  0.89293157
   0.75000000  0.08069908  0.39293157
   0.75000000  0.08404200  0.88554712
   0.25000000  0.91595800  0.11445288
   0.75000000  0.58404200  0.61445288
   0.25000000  0.41595800  0.38554712
Al4C3 anti-CaFe2O4 - relax @ 50 GPa (ISI
           1
     2.795241    0.000000    0.000000
     0.000000    8.539485    0.000000
     0.000000    0.000000    9.905944
   Al   C 
    16    12
Direct configuration=    13
   0.25000000  0.41753953  0.58220074
   0.75000000  0.58246047  0.41779926
   0.25000000  0.91753953  0.91779926
   0.75000000  0.08246047  0.08220074
   0.25000000  0.50897589  0.21432199
   0.75000000  0.49102411  0.78567801
   0.25000000  0.00897589  0.28567801
   0.75000000  0.99102411  0.71432199
   0.25000000  0.13940535  0.52318537
   0.75000000  0.86059465  0.47681463
   0.25000000  0.63940535  0.97681463
   0.75000000  0.36059465  0.02318537
   0.75000000  0.27909994  0.30094515
   0.25000000  0.72090006  0.69905485
   0.25000000  0.22090006  0.80094515
   0.75000000  0.77909994  0.19905485
   0.75000000  0.75369805  0.85745983
   0.25000000  0.24630195  0.14254017
   0.75000000  0.25369805  0.64254017
   0.25000000  0.74630195  0.35745983
   0.25000000  0.92210501  0.60833148
   0.75000000  0.57789499  0.10833148
   0.25000000  0.42210501  0.89166852
   0.75000000  0.07789499  0.39166852
   0.75000000  0.08748291  0.88685133
   0.25000000  0.91251709  0.11314867
   0.75000000  0.58748291  0.61314867
   0.25000000  0.41251709  0.38685133
Al4C3 anti-CaFe2O4 - relax @ 50 GPa (ISI
           1
     2.788040    0.000000    0.000000
     0.000000    8.517484    0.000000
     0.000000    0.000000    9.880423
   Al   C 
    16    12
Direct configuration=    14
   0.25000000  0.42032871  0.58564628
   0.75000000  0.57967129  0.41435372
   0.25000000  0.92032871  0.91435372
   0.75000000  0.07967129  0.08564628
   0.25000000  0.49973321  0.21366027
   0.75000000  0.50026679  0.78633973
   0.25000000 -0.00026679  0.28633973
   0.75000000  0.00026679  0.71366027
   0.25000000  0.14105387  0.52059227
   0.75000000  0.85894613  0.47940773
   0.25000000  0.64105387  0.97940773
   0.75000000  0.35894613  0.02059227
   0.75000000  0.27246772  0.29943428
   0.25000000  0.72753228  0.70056572
   0.25000000  0.22753228  0.79943428
   0.75000000  0.77246772  0.20056572
   0.75000000  0.75740236  0.85836177
   0.25000000  0.24259764  0.14163823
   0.75000000  0.25740236  0.64163823
   0.25000000  0.74259764  0.35836177
   0.25000000  0.92772041  0.61086082
   0.75000000  0.57227959  0.11086082
   0.25000000  0.42772041  0.88913918
   0.75000000  0.07227959  0.38913918
   0.75000000  0.09437358  0.88946311
   0.25000000  0.90562642  0.11053689
   0.75000000  0.59437358  0.61053689
   0.25000000  0.40562642  0.38946311
Al4C3 anti-CaFe2O4 - relax @ 50 GPa (ISI
           1
     2.792379    0.000000    0.000000
     0.000000    8.530741    0.000000
     0.000000    0.000000    9.895801
   Al   C 
    16    12
Direct configuration=    15
   0.25000000  0.41864364  0.58356468
   0.75000000  0.58135636  0.41643532
   0.25000000  0.91864364  0.91643532
   0.75000000  0.08135636  0.08356468
   0.25000000  0.50531712  0.21406005
   0.75000000  0.49468288  0.78593995
   0.25000000  0.00531712  0.28593995
   0.75000000 -0.00531712  0.71406005
   0.25000000  0.14005792  0.52215887
   0.75000000  0.85994208  0.47784113
   0.25000000  0.64005792  0.97784113
   0.75000000  0.35994208  0.02215887
   0.75000000  0.27647454  0.30034706
   0.25000000  0.72352546  0.69965294
   0.25000000  0.22352546  0.80034706
   0.75000000  0.77647454  0.19965294
   0.75000000  0.75516443  0.85781687
   0.25000000  0.24483557  0.14218313
   0.75000000  0.25516443  0.64218313
   0.25000000  0.74483557  0.35781687
   0.25000000  0.92432790  0.60933273
   0.75000000  0.57567210  0.10933273
   0.25000000  0.42432790  0.89066727
   0.75000000  0.07567210  0.39066727
   0.75000000  0.09021062  0.88788521
   0.25000000  0.90978938  0.11211479
   0.75000000  0.59021062  0.61211479
   0.25000000  0.40978938  0.38788521
Al4C3 anti-CaFe2O4 - relax @ 50 GPa (ISI
           1
     2.791365    0.000000    0.000000
     0.000000    8.527642    0.000000
     0.000000    0.000000    9.892206
   Al   C 
    16    12
Direct configuration=    16
   0.25000000  0.41953142  0.58375229
   0.75000000  0.58046858  0.41624771
   0.25000000  0.91953142  0.91624771
   0.75000000  0.08046858  0.08375229
   0.25000000  0.50244418  0.21379827
   0.75000000  0.49755582  0.78620173
   0.25000000  0.00244418  0.28620173
   0.75000000 -0.00244418  0.71379827
   0.25000000  0.14085651  0.52155810
   0.75000000  0.85914349  0.47844190
   0.25000000  0.64085651  0.97844190
   0.75000000  0.35914349  0.02155810
   0.75000000  0.27486541  0.30020614
   0.25000000  0.72513459  0.69979386
   0.25000000  0.22513459  0.80020614
   0.75000000  0.77486541  0.19979386
   0.75000000  0.75535695  0.85773403
   0.25000000  0.24464305  0.14226597
   0.75000000  0.25535695  0.64226597
   0.25000000  0.74464305  0.35773403
   0.25000000  0.92519170  0.60957177
   0.75000000  0.57480830  0.10957177
   0.25000000  0.42519170  0.89042823
   0.75000000  0.07480830  0.39042823
   0.75000000  0.09173327  0.88831610
   0.25000000  0.90826673  0.11168390
   0.75000000  0.59173327  0.61168390
   0.25000000  0.40826673  0.38831610
Al4C3 anti-CaFe2O4 - relax @ 50 GPa (ISI
           1
     2.788321    0.000000    0.000000
     0.000000    8.518345    0.000000
     0.000000    0.000000    9.881421
   Al   C 
    16    12
Direct configuration=    17
   0.25000000  0.42219574  0.58431536
   0.75000000  0.57780426  0.41568464
   0.25000000  0.92219574  0.91568464
   0.75000000  0.07780426  0.08431536
   0.25000000  0.49382222  0.21301264
   0.75000000  0.50617778  0.78698736
   0.25000000 -0.00617778  0.28698736
   0.75000000  0.00617778  0.71301264
   0.25000000  0.14325314  0.51975512
   0.75000000  0.85674686  0.48024488
   0.25000000  0.64325314  0.98024488
   0.75000000  0.35674686  0.01975512
   0.75000000  0.27003629  0.29978324
   0.25000000  0.72996371  0.70021676
   0.25000000  0.22996371  0.79978324
   0.75000000  0.77003629  0.20021676
   0.75000000  0.75593473  0.85748542
   0.25000000  0.24406527  0.14251458
   0.75000000  0.25593473  0.64251458
   0.25000000  0.74406527  0.35748542
   0.25000000  0.92778404  0.61028913
   0.75000000  0.57221596  0.11028913
   0.25000000  0.42778404  0.88971087
   0.75000000  0.07221596  0.38971087
   0.75000000  0.09630288  0.88960923
   0.25000000  0.90369712  0.11039077
   0.75000000  0.59630288  0.61039077
   0.25000000  0.40369712  0.38960923
Al4C3 anti-CaFe2O4 - relax @ 50 GPa (ISI
           1
     2.782234    0.000000    0.000000
     0.000000    8.499749    0.000000
     0.000000    0.000000    9.859850
   Al   C 
    16    12
Direct configuration=    18
   0.25000000  0.42753019  0.58544271
   0.75000000  0.57246981  0.41455729
   0.25000000  0.92753019  0.91455729
   0.75000000  0.07246981  0.08544271
   0.25000000  0.47655947  0.21143967
   0.75000000  0.52344053  0.78856033
   0.25000000 -0.02344053  0.28856033
   0.75000000  0.02344053  0.71143967
   0.25000000  0.14805163  0.51614524
   0.75000000  0.85194837  0.48385476
   0.25000000  0.64805163  0.98385476
   0.75000000  0.35194837  0.01614524
   0.75000000  0.26036749  0.29893650
   0.25000000  0.73963251  0.70106350
   0.25000000  0.23963251  0.79893650
   0.75000000  0.76036749  0.20106350
   0.75000000  0.75709154  0.85698766
   0.25000000  0.24290846  0.14301234
   0.75000000  0.25709154  0.64301234
   0.25000000  0.74290846  0.35698766
   0.25000000  0.93297439  0.61172543
   0.75000000  0.56702561  0.11172543
   0.25000000  0.43297439  0.88827457
   0.75000000  0.06702561  0.38827457
   0.75000000  0.10545208  0.89219830
   0.25000000  0.89454792  0.10780170
   0.75000000  0.60545208  0.60780170
   0.25000000  0.39454792  0.39219830
Al4C3 anti-CaFe2O4 - relax @ 50 GPa (ISI
           1
     2.786631    0.000000    0.000000
     0.000000    8.513181    0.000000
     0.000000    0.000000    9.875431
   Al   C 
    16    12
Direct configuration=    19
   0.25000000  0.42366867  0.58462664
   0.75000000  0.57633133  0.41537336
   0.25000000  0.92366867  0.91537336
   0.75000000  0.07633133  0.08462664
   0.25000000  0.48905568  0.21257832
   0.75000000  0.51094432  0.78742168
   0.25000000 -0.01094432  0.28742168
   0.75000000  0.01094432  0.71257832
   0.25000000  0.14457808  0.51875837
   0.75000000  0.85542192  0.48124163
   0.25000000  0.64457808  0.98124163
   0.75000000  0.35542192  0.01875837
   0.75000000  0.26736657  0.29954944
   0.25000000  0.73263343  0.70045056
   0.25000000  0.23263343  0.79954944
   0.75000000  0.76736657  0.20045056
   0.75000000  0.75625414  0.85734798
   0.25000000  0.24374586  0.14265202
   0.75000000  0.25625414  0.64265202
   0.25000000  0.74374586  0.35734798
   0.25000000  0.92921719  0.61068572
   0.75000000  0.57078281  0.11068572
   0.25000000  0.42921719  0.88931428
   0.75000000  0.07078281  0.38931428
   0.75000000  0.09882913  0.89032411
   0.25000000  0.90117087  0.10967589
   0.75000000  0.59882913  0.60967589
   0.25000000  0.40117087  0.39032411
Al4C3 anti-CaFe2O4 - relax @ 50 GPa (ISI
           1
     2.789912    0.000000    0.000000
     0.000000    8.523204    0.000000
     0.000000    0.000000    9.887057
   Al   C 
    16    12
Direct configuration=    20
   0.25000000  0.42447765  0.58532968
   0.75000000  0.57552235  0.41467032
   0.25000000  0.92447765  0.91467032
   0.75000000  0.07552235  0.08532968
   0.25000000  0.48531077  0.21083002
   0.75000000  0.51468923  0.78916998
   0.25000000 -0.01468923  0.28916998
   0.75000000  0.01468923  0.71083002
   0.25000000  0.14594264  0.51737945
   0.75000000  0.85405736  0.48262055
   0.25000000  0.64594264  0.98262055
   0.75000000  0.35405736  0.01737945
   0.75000000  0.26552524  0.29966092
   0.25000000  0.73447476  0.70033908
   0.25000000  0.23447476  0.79966092
   0.75000000  0.76552524  0.20033908
   0.75000000  0.75572107  0.85732281
   0.25000000  0.24427893  0.14267719
   0.75000000  0.25572107  0.64267719
   0.25000000  0.74427893  0.35732281
   0.25000000  0.93060736  0.61073673
   0.75000000  0.56939264  0.11073673
   0.25000000  0.43060736  0.88926327
   0.75000000  0.06939264  0.38926327
   0.75000000  0.09953608  0.89049334
   0.25000000  0.90046392  0.10950666
   0.75000000  0.59953608  0.60950666
   0.25000000  0.40046392  0.39049334
Al4C3 anti-CaFe2O4 - relax @ 50 GPa (ISI
           1
     2.794523    0.000000    0.000000
     0.000000    8.537293    0.000000
     0.000000    0.000000    9.903401
   Al   C 
    16    12
Direct configuration=    21
   0.25000000  0.42561350  0.58631679
   0.75000000  0.57438650  0.41368321
   0.25000000  0.92561350  0.91368321
   0.75000000  0.07438650  0.08631679
   0.25000000  0.48005272  0.20837531
   0.75000000  0.51994728  0.79162469
   0.25000000 -0.01994728  0.29162469
   0.75000000  0.01994728  0.70837531
   0.25000000  0.14785855  0.51544336
   0.75000000  0.85214145  0.48455664
   0.25000000  0.64785855  0.98455664
   0.75000000  0.35214145  0.01544336
   0.75000000  0.26293993  0.29981743
   0.25000000  0.73706007  0.70018257
   0.25000000  0.23706007  0.79981743
   0.75000000  0.76293993  0.20018257
   0.75000000  0.75497261  0.85728746
   0.25000000  0.24502739  0.14271254
   0.75000000  0.25497261  0.64271254
   0.25000000  0.74502739  0.35728746
   0.25000000  0.93255923  0.61080835
   0.75000000  0.56744077  0.11080835
   0.25000000  0.43255923  0.88919165
   0.75000000  0.06744077  0.38919165
   0.75000000  0.10052866  0.89073095
   0.25000000  0.89947134  0.10926905
   0.75000000  0.60052866  0.60926905
   0.25000000  0.39947134  0.39073095
Al4C3 anti-CaFe2O4 - relax @ 50 GPa (ISI
           1
     2.786626    0.000000    0.000000
     0.000000    8.513165    0.000000
     0.000000    0.000000    9.875412
   Al   C 
    16    12
Direct configuration=    22
   0.25000000  0.42603428  0.58761156
   0.75000000  0.57396572  0.41238844
   0.25000000  0.92603428  0.91238844
   0.75000000  0.07396572  0.08761156
   0.25000000  0.47687380  0.20670532
   0.75000000  0.52312620  0.79329468
   0.25000000 -0.02312620  0.29329468
   0.75000000  0.02312620  0.70670532
   0.25000000  0.14907549  0.51396188
   0.75000000  0.85092451  0.48603812
   0.25000000  0.64907549  0.98603812
   0.75000000  0.35092451  0.01396188
   0.75000000  0.26252269  0.29999517
   0.25000000  0.73747731  0.70000483
   0.25000000  0.23747731  0.79999517
   0.75000000  0.76252269  0.20000483
   0.75000000  0.75481756  0.85792753
   0.25000000  0.24518244  0.14207247
   0.75000000  0.25481756  0.64207247
   0.25000000  0.74518244  0.35792753
   0.25000000  0.93334978  0.61073693
   0.75000000  0.56665022  0.11073693
   0.25000000  0.43334978  0.88926307
   0.75000000  0.06665022  0.38926307
   0.75000000  0.09999532  0.89031969
   0.25000000  0.90000468  0.10968031
   0.75000000  0.59999532  0.60968031
   0.25000000  0.40000468  0.39031969
Al4C3 anti-CaFe2O4 - relax @ 50 GPa (ISI
           1
     2.787158    0.000000    0.000000
     0.000000    8.514792    0.000000
     0.000000    0.000000    9.877300
   Al   C 
    16    12
Direct configuration=    23
   0.25000000  0.42600581  0.58752397
   0.75000000  0.57399419  0.41247603
   0.25000000  0.92600581  0.91247603
   0.75000000  0.07399419  0.08752397
   0.25000000  0.47708883  0.20681829
   0.75000000  0.52291117  0.79318171
   0.25000000 -0.02291117  0.29318171
   0.75000000  0.02291117  0.70681829
   0.25000000  0.14899317  0.51406209
   0.75000000  0.85100683  0.48593791
   0.25000000  0.64899317  0.98593791
   0.75000000  0.35100683  0.01406209
   0.75000000  0.26255092  0.29998315
   0.25000000  0.73744908  0.70001685
   0.25000000  0.23744908  0.79998315
   0.75000000  0.76255092  0.20001685
   0.75000000  0.75482804  0.85788423
   0.25000000  0.24517196  0.14211577
   0.75000000  0.25482804  0.64211577
   0.25000000  0.74517196  0.35788423
   0.25000000  0.93329631  0.61074176
   0.75000000  0.56670369  0.11074176
   0.25000000  0.43329631  0.88925824
   0.75000000  0.06670369  0.38925824
   0.75000000  0.10003140  0.89034751
   0.25000000  0.89996860  0.10965249
   0.75000000  0.60003140  0.60965249
   0.25000000  0.39996860  0.39034751
Al4C3 anti-CaFe2O4 - relax @ 50 GPa (ISI
           1
     2.789402    0.000000    0.000000
     0.000000    8.521647    0.000000
     0.000000    0.000000    9.885251
   Al   C 
    16    12
Direct configuration=    24
   0.25000000  0.42596749  0.58802446
   0.75000000  0.57403251  0.41197554
   0.25000000  0.92596749  0.91197554
   0.75000000  0.07403251  0.08802446
   0.25000000  0.47675787  0.20640122
   0.75000000  0.52324213  0.79359878
   0.25000000 -0.02324213  0.29359878
   0.75000000  0.02324213  0.70640122
   0.25000000  0.14936742  0.51362414
   0.75000000  0.85063258  0.48637586
   0.25000000  0.64936742  0.98637586
   0.75000000  0.35063258  0.01362414
   0.75000000  0.26318522  0.30000763
   0.25000000  0.73681478  0.69999237
   0.25000000  0.23681478  0.80000763
   0.75000000  0.76318522  0.19999237
   0.75000000  0.75528501  0.85853274
   0.25000000  0.24471499  0.14146726
   0.75000000  0.25528501  0.64146726
   0.25000000  0.74471499  0.35853274
   0.25000000  0.93286405  0.61085230
   0.75000000  0.56713595  0.11085230
   0.25000000  0.43286405  0.88914770
   0.75000000  0.06713595  0.38914770
   0.75000000  0.09953204  0.89020270
   0.25000000  0.90046796  0.10979730
   0.75000000  0.59953204  0.60979730
   0.25000000  0.40046796  0.39020270
Al4C3 anti-CaFe2O4 - relax @ 50 GPa (ISI
           1
     2.790483    0.000000    0.000000
     0.000000    8.524948    0.000000
     0.000000    0.000000    9.889081
   Al   C 
    16    12
Direct configuration=    25
   0.25000000  0.42594904  0.58826533
   0.75000000  0.57405096  0.41173467
   0.25000000  0.92594904  0.91173467
   0.75000000  0.07405096  0.08826533
   0.25000000  0.47659859  0.20620050
   0.75000000  0.52340141  0.79379950
   0.25000000 -0.02340141  0.29379950
   0.75000000  0.02340141  0.70620050
   0.25000000  0.14954753  0.51341338
   0.75000000  0.85045247  0.48658662
   0.25000000  0.64954753  0.98658662
   0.75000000  0.35045247  0.01341338
   0.75000000  0.26349049  0.30001942
   0.25000000  0.73650951  0.69998058
   0.25000000  0.23650951  0.80001942
   0.75000000  0.76349049  0.19998058
   0.75000000  0.75550493  0.85884484
   0.25000000  0.24449507  0.14115516
   0.75000000  0.25550493  0.64115516
   0.25000000  0.74449507  0.35884484
   0.25000000  0.93265603  0.61090549
   0.75000000  0.56734397  0.11090549
   0.25000000  0.43265603  0.88909451
   0.75000000  0.06734397  0.38909451
   0.75000000  0.09929172  0.89013301
   0.25000000  0.90070828  0.10986699
   0.75000000  0.59929172  0.60986699
   0.25000000  0.40070828  0.39013301
Al4C3 anti-CaFe2O4 - relax @ 50 GPa (ISI
           1
     2.788244    0.000000    0.000000
     0.000000    8.518110    0.000000
     0.000000    0.000000    9.881149
   Al   C 
    16    12
Direct configuration=    26
   0.25000000  0.42595941  0.58820786
   0.75000000  0.57404059  0.41179214
   0.25000000  0.92595941  0.91179214
   0.75000000  0.07404059  0.08820786
   0.25000000  0.47682013  0.20573063
   0.75000000  0.52317987  0.79426937
   0.25000000 -0.02317987  0.29426937
   0.75000000  0.02317987  0.70573063
   0.25000000  0.14975510  0.51320521
   0.75000000  0.85024490  0.48679479
   0.25000000  0.64975510  0.98679479
   0.75000000  0.35024490  0.01320521
   0.75000000  0.26397831  0.29996862
   0.25000000  0.73602169  0.70003138
   0.25000000  0.23602169  0.79996862
   0.75000000  0.76397831  0.20003138
   0.75000000  0.75544301  0.85916532
   0.25000000  0.24455699  0.14083468
   0.75000000  0.25544301  0.64083468
   0.25000000  0.74455699  0.35916532
   0.25000000  0.93219546  0.61113507
   0.75000000  0.56780454  0.11113507
   0.25000000  0.43219546  0.88886493
   0.75000000  0.06780454  0.38886493
   0.75000000  0.09901011  0.88993752
   0.25000000  0.90098989  0.11006248
   0.75000000  0.59901011  0.61006248
   0.25000000  0.40098989  0.38993752
Al4C3 anti-CaFe2O4 - relax @ 50 GPa (ISI
           1
     2.788027    0.000000    0.000000
     0.000000    8.517447    0.000000
     0.000000    0.000000    9.880379
   Al   C 
    16    12
Direct configuration=    27
   0.25000000  0.42596041  0.58820228
   0.75000000  0.57403959  0.41179772
   0.25000000  0.92596041  0.91179772
   0.75000000  0.07403959  0.08820228
   0.25000000  0.47684164  0.20568501
   0.75000000  0.52315836  0.79431499
   0.25000000 -0.02315836  0.29431499
   0.75000000  0.02315836  0.70568501
   0.25000000  0.14977525  0.51318500
   0.75000000  0.85022475  0.48681500
   0.25000000  0.64977525  0.98681500
   0.75000000  0.35022475  0.01318500
   0.75000000  0.26402567  0.29996369
   0.25000000  0.73597433  0.70003631
   0.25000000  0.23597433  0.79996369
   0.75000000  0.76402567  0.20003631
   0.75000000  0.75543700  0.85919644
   0.25000000  0.24456300  0.14080356
   0.75000000  0.25543700  0.64080356
   0.25000000  0.74456300  0.35919644
   0.25000000  0.93215074  0.61115736
   0.75000000  0.56784926  0.11115736
   0.25000000  0.43215074  0.88884264
   0.75000000  0.06784926  0.38884264
   0.75000000  0.09898277  0.88991855
   0.25000000  0.90101723  0.11008145
   0.75000000  0.59898277  0.61008145
   0.25000000  0.40101723  0.38991855
Al4C3 anti-CaFe2O4 - relax @ 50 GPa (ISI
           1
     2.789104    0.000000    0.000000
     0.000000    8.520736    0.000000
     0.000000    0.000000    9.884195
   Al   C 
    16    12
Direct configuration=    28
   0.25000000  0.42594869  0.58804394
   0.75000000  0.57405131  0.41195606
   0.25000000  0.92594869  0.91195606
   0.75000000  0.07405131  0.08804394
   0.25000000  0.47712901  0.20549200
   0.75000000  0.52287099  0.79450800
   0.25000000 -0.02287099  0.29450800
   0.75000000  0.02287099  0.70549200
   0.25000000  0.14995510  0.51311084
   0.75000000  0.85004490  0.48688916
   0.25000000  0.64995510  0.98688916
   0.75000000  0.35004490  0.01311084
   0.75000000  0.26448100  0.29975003
   0.25000000  0.73551900  0.70024997
   0.25000000  0.23551900  0.79975003
   0.75000000  0.76448100  0.20024997
   0.75000000  0.75506169  0.85933253
   0.25000000  0.24493831  0.14066747
   0.75000000  0.25506169  0.64066747
   0.25000000  0.74493831  0.35933253
   0.25000000  0.93169436  0.61113776
   0.75000000  0.56830564  0.11113776
   0.25000000  0.43169436  0.88886224
   0.75000000  0.06830564  0.38886224
   0.75000000  0.09877520  0.88966589
   0.25000000  0.90122480  0.11033411
   0.75000000  0.59877520  0.61033411
   0.25000000  0.40122480  0.38966589
Al4C3 anti-CaFe2O4 - relax @ 50 GPa (ISI
           1
     2.789802    0.000000    0.000000
     0.000000    8.522869    0.000000
     0.000000    0.000000    9.886669
   Al   C 
    16    12
Direct configuration=    29
   0.25000000  0.42594108  0.58794129
   0.75000000  0.57405892  0.41205871
   0.25000000  0.92594108  0.91205871
   0.75000000  0.07405892  0.08794129
   0.25000000  0.47731531  0.20536688
   0.75000000  0.52268469  0.79463312
   0.25000000 -0.02268469  0.29463312
   0.75000000  0.02268469  0.70536688
   0.25000000  0.15007170  0.51306276
   0.75000000  0.84992830  0.48693724
   0.25000000  0.65007170  0.98693724
   0.75000000  0.34992830  0.01306276
   0.75000000  0.26477619  0.29961152
   0.25000000  0.73522381  0.70038848
   0.25000000  0.23522381  0.79961152
   0.75000000  0.76477619  0.20038848
   0.75000000  0.75481837  0.85942076
   0.25000000  0.24518163  0.14057924
   0.75000000  0.25481837  0.64057924
   0.25000000  0.74518163  0.35942076
   0.25000000  0.93139848  0.61112505
   0.75000000  0.56860152  0.11112505
   0.25000000  0.43139848  0.88887495
   0.75000000  0.06860152  0.38887495
   0.75000000  0.09864063  0.88950210
   0.25000000  0.90135937  0.11049790
   0.75000000  0.59864063  0.61049790
   0.25000000  0.40135937  0.38950210
Al4C3 anti-CaFe2O4 - relax @ 50 GPa (ISI
           1
     2.789481    0.000000    0.000000
     0.000000    8.521887    0.000000
     0.000000    0.000000    9.885530
   Al   C 
    16    12
Direct configuration=    30
   0.25000000  0.42576115  0.58793560
   0.75000000  0.57423885  0.41206440
   0.25000000  0.92576115  0.91206440
   0.75000000  0.07423885  0.08793560
   0.25000000  0.47780733  0.20528715
   0.75000000  0.52219267  0.79471285
   0.25000000 -0.02219267  0.29471285
   0.75000000  0.02219267  0.70528715
   0.25000000  0.14996454  0.51308728
   0.75000000  0.85003546  0.48691272
   0.25000000  0.64996454  0.98691272
   0.75000000  0.35003546  0.01308728
   0.75000000  0.26485044  0.29936085
   0.25000000  0.73514956  0.70063915
   0.25000000  0.23514956  0.79936085
   0.75000000  0.76485044  0.20063915
   0.75000000  0.75450456  0.85946116
   0.25000000  0.24549544  0.14053884
   0.75000000  0.25450456  0.64053884
   0.25000000  0.74549544  0.35946116
   0.25000000  0.93104925  0.61103048
   0.75000000  0.56895075  0.11103048
   0.25000000  0.43104925  0.88896952
   0.75000000  0.06895075  0.38896952
   0.75000000  0.09828261  0.88944073
   0.25000000  0.90171739  0.11055927
   0.75000000  0.59828261  0.61055927
   0.25000000  0.40171739  0.38944073
Al4C3 anti-CaFe2O4 - relax @ 50 GPa (ISI
           1
     2.789365    0.000000    0.000000
     0.000000    8.521535    0.000000
     0.000000    0.000000    9.885122
   Al   C 
    16    12
Direct configuration=    31
   0.25000000  0.42569655  0.58793356
   0.75000000  0.57430345  0.41206644
   0.25000000  0.92569655  0.91206644
   0.75000000  0.07430345  0.08793356
   0.25000000  0.47798398  0.20525852
   0.75000000  0.52201602  0.79474148
   0.25000000 -0.02201602  0.29474148
   0.75000000  0.02201602  0.70525852
   0.25000000  0.14992606  0.51309609
   0.75000000  0.85007394  0.48690391
   0.25000000  0.64992606  0.98690391
   0.75000000  0.35007394  0.01309609
   0.75000000  0.26487710  0.29927085
   0.25000000  0.73512290  0.70072915
   0.25000000  0.23512290  0.79927085
   0.75000000  0.76487710  0.20072915
   0.75000000  0.75439189  0.85947567
   0.25000000  0.24560811  0.14052433
   0.75000000  0.25439189  0.64052433
   0.25000000  0.74560811  0.35947567
   0.25000000  0.93092386  0.61099652
   0.75000000  0.56907614  0.11099652
   0.25000000  0.43092386  0.88900348
   0.75000000  0.06907614  0.38900348
   0.75000000  0.09815407  0.88941869
   0.25000000  0.90184593  0.11058131
   0.75000000  0.59815407  0.61058131
   0.25000000  0.40184593  0.38941869
Al4C3 anti-CaFe2O4 - relax @ 50 GPa (ISI
           1
     2.789594    0.000000    0.000000
     0.000000    8.522232    0.000000
     0.000000    0.000000    9.885930
   Al   C 
    16    12
Direct configuration=    32
   0.25000000  0.42555262  0.58784406
   0.75000000  0.57444738  0.41215594
   0.25000000  0.92555262  0.91215594
   0.75000000  0.07444738  0.08784406
   0.25000000  0.47834252  0.20549666
   0.75000000  0.52165748  0.79450334
   0.25000000 -0.02165748  0.29450334
   0.75000000  0.02165748  0.70549666
   0.25000000  0.14975908  0.51325971
   0.75000000  0.85024092  0.48674029
   0.25000000  0.64975908  0.98674029
   0.75000000  0.35024092  0.01325971
   0.75000000  0.26514786  0.29918151
   0.25000000  0.73485214  0.70081849
   0.25000000  0.23485214  0.79918151
   0.75000000  0.76514786  0.20081849
   0.75000000  0.75422191  0.85943631
   0.25000000  0.24577809  0.14056369
   0.75000000  0.25422191  0.64056369
   0.25000000  0.74577809  0.35943631
   0.25000000  0.93077452  0.61085888
   0.75000000  0.56922548  0.11085888
   0.25000000  0.43077452  0.88914112
   0.75000000  0.06922548  0.38914112
   0.75000000  0.09786332  0.88931261
   0.25000000  0.90213668  0.11068739
   0.75000000  0.59786332  0.61068739
   0.25000000  0.40213668  0.38931261
Al4C3 anti-CaFe2O4 - relax @ 50 GPa (ISI
           1
     2.789679    0.000000    0.000000
     0.000000    8.522491    0.000000
     0.000000    0.000000    9.886231
   Al   C 
    16    12
Direct configuration=    33
   0.25000000  0.42549898  0.58781070
   0.75000000  0.57450102  0.41218930
   0.25000000  0.92549898  0.91218930
   0.75000000  0.07450102  0.08781070
   0.25000000  0.47847614  0.20558541
   0.75000000  0.52152386  0.79441459
   0.25000000 -0.02152386  0.29441459
   0.75000000  0.02152386  0.70558541
   0.25000000  0.14969685  0.51332069
   0.75000000  0.85030315  0.48667931
   0.25000000  0.64969685  0.98667931
   0.75000000  0.35030315  0.01332069
   0.75000000  0.26524877  0.29914822
   0.25000000  0.73475123  0.70085178
   0.25000000  0.23475123  0.79914822
   0.75000000  0.76524877  0.20085178
   0.75000000  0.75415856  0.85942164
   0.25000000  0.24584144  0.14057836
   0.75000000  0.25415856  0.64057836
   0.25000000  0.74584144  0.35942164
   0.25000000  0.93071885  0.61080758
   0.75000000  0.56928115  0.11080758
   0.25000000  0.43071885  0.88919242
   0.75000000  0.06928115  0.38919242
   0.75000000  0.09775496  0.88927307
   0.25000000  0.90224504  0.11072693
   0.75000000  0.59775496  0.61072693
   0.25000000  0.40224504  0.38927307
Al4C3 anti-CaFe2O4 - relax @ 50 GPa (ISI
           1
     2.789724    0.000000    0.000000
     0.000000    8.522629    0.000000
     0.000000    0.000000    9.886391
   Al   C 
    16    12
Direct configuration=    34
   0.25000000  0.42537238  0.58770172
   0.75000000  0.57462762  0.41229828
   0.25000000  0.92537238  0.91229828
   0.75000000  0.07462762  0.08770172
   0.25000000  0.47880630  0.20567790
   0.75000000  0.52119370  0.79432210
   0.25000000 -0.02119370  0.29432210
   0.75000000  0.02119370  0.70567790
   0.25000000  0.14951616  0.51346504
   0.75000000  0.85048384  0.48653496
   0.25000000  0.64951616  0.98653496
   0.75000000  0.35048384  0.01346504
   0.75000000  0.26538759  0.29921199
   0.25000000  0.73461241  0.70078801
   0.25000000  0.23461241  0.79921199
   0.75000000  0.76538759  0.20078801
   0.75000000  0.75409962  0.85937389
   0.25000000  0.24590038  0.14062611
   0.75000000  0.25409962  0.64062611
   0.25000000  0.74590038  0.35937389
   0.25000000  0.93063202  0.61082362
   0.75000000  0.56936798  0.11082362
   0.25000000  0.43063202  0.88917638
   0.75000000  0.06936798  0.38917638
   0.75000000  0.09760125  0.88926376
   0.25000000  0.90239875  0.11073624
   0.75000000  0.59760125  0.61073624
   0.25000000  0.40239875  0.38926376
Al4C3 anti-CaFe2O4 - relax @ 50 GPa (ISI
           1
     2.789859    0.000000    0.000000
     0.000000    8.523043    0.000000
     0.000000    0.000000    9.886871
   Al   C 
    16    12
Direct configuration=    35
   0.25000000  0.42499258  0.58737479
   0.75000000  0.57500742  0.41262521
   0.25000000  0.92499258  0.91262521
   0.75000000  0.07500742  0.08737479
   0.25000000  0.47979676  0.20595537
   0.75000000  0.52020324  0.79404463
   0.25000000 -0.02020324  0.29404463
   0.75000000  0.02020324  0.70595537
   0.25000000  0.14897411  0.51389807
   0.75000000  0.85102589  0.48610193
   0.25000000  0.64897411  0.98610193
   0.75000000  0.35102589  0.01389807
   0.75000000  0.26580405  0.29940329
   0.25000000  0.73419595  0.70059671
   0.25000000  0.23419595  0.79940329
   0.75000000  0.76580405  0.20059671
   0.75000000  0.75392281  0.85923066
   0.25000000  0.24607719  0.14076934
   0.75000000  0.25392281  0.64076934
   0.25000000  0.74607719  0.35923066
   0.25000000  0.93037152  0.61087173
   0.75000000  0.56962848  0.11087173
   0.25000000  0.43037152  0.88912827
   0.75000000  0.06962848  0.38912827
   0.75000000  0.09714012  0.88923581
   0.25000000  0.90285988  0.11076419
   0.75000000  0.59714012  0.61076419
   0.25000000  0.40285988  0.38923581
Al4C3 anti-CaFe2O4 - relax @ 50 GPa (ISI
           1
     2.789926    0.000000    0.000000
     0.000000    8.523247    0.000000
     0.000000    0.000000    9.887107
   Al   C 
    16    12
Direct configuration=    36
   0.25000000  0.42484826  0.58734100
   0.75000000  0.57515174  0.41265900
   0.25000000  0.92484826  0.91265900
   0.75000000  0.07515174  0.08734100
   0.25000000  0.47989175  0.20607116
   0.75000000  0.52010825  0.79392884
   0.25000000 -0.02010825  0.29392884
   0.75000000  0.02010825  0.70607116
   0.25000000  0.14882300  0.51403397
   0.75000000  0.85117700  0.48596603
   0.25000000  0.64882300  0.98596603
   0.75000000  0.35117700  0.01403397
   0.75000000  0.26594635  0.29958221
   0.25000000  0.73405365  0.70041779
   0.25000000  0.23405365  0.79958221
   0.75000000  0.76594635  0.20041779
   0.75000000  0.75385575  0.85917830
   0.25000000  0.24614425  0.14082170
   0.75000000  0.25385575  0.64082170
   0.25000000  0.74614425  0.35917830
   0.25000000  0.93023178  0.61082144
   0.75000000  0.56976822  0.11082144
   0.25000000  0.43023178  0.88917856
   0.75000000  0.06976822  0.38917856
   0.75000000  0.09711771  0.88923285
   0.25000000  0.90288229  0.11076715
   0.75000000  0.59711771  0.61076715
   0.25000000  0.40288229  0.38923285
Al4C3 anti-CaFe2O4 - relax @ 50 GPa (ISI
           1
     2.789976    0.000000    0.000000
     0.000000    8.523401    0.000000
     0.000000    0.000000    9.887286
   Al   C 
    16    12
Direct configuration=    37
   0.25000000  0.42473921  0.58731546
   0.75000000  0.57526079  0.41268454
   0.25000000  0.92473921  0.91268454
   0.75000000  0.07526079  0.08731546
   0.25000000  0.47996353  0.20615867
   0.75000000  0.52003647  0.79384133
   0.25000000 -0.02003647  0.29384133
   0.75000000  0.02003647  0.70615867
   0.25000000  0.14870881  0.51413667
   0.75000000  0.85129119  0.48586333
   0.25000000  0.64870881  0.98586333
   0.75000000  0.35129119  0.01413667
   0.75000000  0.26605389  0.29971742
   0.25000000  0.73394611  0.70028258
   0.25000000  0.23394611  0.79971742
   0.75000000  0.76605389  0.20028258
   0.75000000  0.75380508  0.85913874
   0.25000000  0.24619492  0.14086126
   0.75000000  0.25380508  0.64086126
   0.25000000  0.74619492  0.35913874
   0.25000000  0.93012619  0.61078343
   0.75000000  0.56987381  0.11078343
   0.25000000  0.43012619  0.88921657
   0.75000000  0.06987381  0.38921657
   0.75000000  0.09710077  0.88923061
   0.25000000  0.90289923  0.11076939
   0.75000000  0.59710077  0.61076939
   0.25000000  0.40289923  0.38923061
Al4C3 anti-CaFe2O4 - relax @ 50 GPa (ISI
           1
     2.789917    0.000000    0.000000
     0.000000    8.523221    0.000000
     0.000000    0.000000    9.887077
   Al   C 
    16    12
Direct configuration=    38
   0.25000000  0.42458261  0.58733778
   0.75000000  0.57541739  0.41266222
   0.25000000  0.92458261  0.91266222
   0.75000000  0.07541739  0.08733778
   0.25000000  0.48006288  0.20613786
   0.75000000  0.51993712  0.79386214
   0.25000000 -0.01993712  0.29386214
   0.75000000  0.01993712  0.70613786
   0.25000000  0.14852767  0.51427178
   0.75000000  0.85147233  0.48572822
   0.25000000  0.64852767  0.98572822
   0.75000000  0.35147233  0.01427178
   0.75000000  0.26614772  0.29991990
   0.25000000  0.73385228  0.70008010
   0.25000000  0.23385228  0.79991990
   0.75000000  0.76614772  0.20008010
   0.75000000  0.75371815  0.85906867
   0.25000000  0.24628185  0.14093133
   0.75000000  0.25371815  0.64093133
   0.25000000  0.74628185  0.35906867
   0.25000000  0.93011555  0.61078294
   0.75000000  0.56988445  0.11078294
   0.25000000  0.43011555  0.88921706
   0.75000000  0.06988445  0.38921706
   0.75000000  0.09702429  0.88931828
   0.25000000  0.90297571  0.11068172
   0.75000000  0.59702429  0.61068172
   0.25000000  0.40297571  0.38931828
Al4C3 anti-CaFe2O4 - relax @ 50 GPa (ISI
           1
     2.789906    0.000000    0.000000
     0.000000    8.523186    0.000000
     0.000000    0.000000    9.887037
   Al   C 
    16    12
Direct configuration=    39
   0.25000000  0.42455198  0.58734214
   0.75000000  0.57544802  0.41265786
   0.25000000  0.92455198  0.91265786
   0.75000000  0.07544802  0.08734214
   0.25000000  0.48008232  0.20613379
   0.75000000  0.51991768  0.79386621
   0.25000000 -0.01991768  0.29386621
   0.75000000  0.01991768  0.70613379
   0.25000000  0.14849224  0.51429822
   0.75000000  0.85150776  0.48570178
   0.25000000  0.64849224  0.98570178
   0.75000000  0.35150776  0.01429822
   0.75000000  0.26616608  0.29995951
   0.25000000  0.73383392  0.70004049
   0.25000000  0.23383392  0.79995951
   0.75000000  0.76616608  0.20004049
   0.75000000  0.75370114  0.85905496
   0.25000000  0.24629886  0.14094504
   0.75000000  0.25370114  0.64094504
   0.25000000  0.74629886  0.35905496
   0.25000000  0.93011347  0.61078284
   0.75000000  0.56988653  0.11078284
   0.25000000  0.43011347  0.88921716
   0.75000000  0.06988653  0.38921716
   0.75000000  0.09700933  0.88933543
   0.25000000  0.90299067  0.11066457
   0.75000000  0.59700933  0.61066457
   0.25000000  0.40299067  0.38933543
Al4C3 anti-CaFe2O4 - relax @ 50 GPa (ISI
           1
     2.790045    0.000000    0.000000
     0.000000    8.523611    0.000000
     0.000000    0.000000    9.887530
   Al   C 
    16    12
Direct configuration=    40
   0.25000000  0.42452673  0.58737169
   0.75000000  0.57547327  0.41262831
   0.25000000  0.92452673  0.91262831
   0.75000000  0.07547327  0.08737169
   0.25000000  0.48006014  0.20616567
   0.75000000  0.51993986  0.79383433
   0.25000000 -0.01993986  0.29383433
   0.75000000  0.01993986  0.70616567
   0.25000000  0.14844413  0.51434757
   0.75000000  0.85155587  0.48565243
   0.25000000  0.64844413  0.98565243
   0.75000000  0.35155587  0.01434757
   0.75000000  0.26623367  0.30003900
   0.25000000  0.73376633  0.69996100
   0.25000000  0.23376633  0.80003900
   0.75000000  0.76623367  0.19996100
   0.75000000  0.75363005  0.85900018
   0.25000000  0.24636995  0.14099982
   0.75000000  0.25363005  0.64099982
   0.25000000  0.74636995  0.35900018
   0.25000000  0.93017970  0.61077023
   0.75000000  0.56982030  0.11077023
   0.25000000  0.43017970  0.88922977
   0.75000000  0.06982030  0.38922977
   0.75000000  0.09689492  0.88934541
   0.25000000  0.90310508  0.11065459
   0.75000000  0.59689492  0.61065459
   0.25000000  0.40310508  0.38934541
