  28  28   0   0
  0.1046948E+02  0.9319161E-09  0.3201941E-09  0.9824107E-09  0.5000000E-15
  1.000000000000000E-004
  CAR 
 Al4C3 Pnma-VII - H(P) scan @ 10 GPa (ISI
     15.96290076     -7.14492184  301      8.10864814      1.00000000
     -7.145  0.0000E+00  0.0000E+00
     -7.068  0.0000E+00  0.0000E+00
     -6.991  0.0000E+00  0.0000E+00
     -6.914  0.0000E+00  0.0000E+00
     -6.837  0.0000E+00  0.0000E+00
     -6.760  0.0000E+00  0.0000E+00
     -6.683  0.0000E+00  0.0000E+00
     -6.606  0.0000E+00  0.0000E+00
     -6.529  0.0000E+00  0.0000E+00
     -6.452  0.0000E+00  0.0000E+00
     -6.375  0.9459E-18  0.7286E-19
     -6.298  0.3759E-11  0.2896E-12
     -6.221  0.1476E-06  0.1137E-07
     -6.144  0.6799E-04  0.5249E-05
     -6.067  0.9047E-03  0.7494E-04
     -5.990  0.3558E-02  0.3490E-03
     -5.913  0.6755E-02  0.8693E-03
     -5.835  0.7984E-02  0.1484E-02
     -5.758  0.7930E-02  0.2095E-02
     -5.681  0.9499E-02  0.2827E-02
     -5.604  0.1478E-01  0.3965E-02
     -5.527  0.1344E-01  0.5000E-02
     -5.450  0.1202E-01  0.5926E-02
     -5.373  0.1207E-01  0.6856E-02
     -5.296  0.1572E-01  0.8067E-02
     -5.219  0.1181E-01  0.8976E-02
     -5.142  0.9872E-02  0.9737E-02
     -5.065  0.1969E-01  0.1125E-01
     -4.988  0.2289E-01  0.1302E-01
     -4.911  0.1661E-01  0.1430E-01
     -4.834  0.1169E-01  0.1520E-01
     -4.757  0.2616E-01  0.1721E-01
     -4.680  0.2806E-01  0.1937E-01
     -4.603  0.1866E-01  0.2081E-01
     -4.526  0.1362E-01  0.2186E-01
     -4.449  0.1416E-01  0.2295E-01
     -4.372  0.2011E-01  0.2450E-01
     -4.295  0.2356E-01  0.2631E-01
     -4.218  0.2616E-01  0.2833E-01
     -4.141  0.2303E-01  0.3010E-01
     -4.064  0.2974E-01  0.3239E-01
     -3.987  0.2647E-01  0.3443E-01
     -3.910  0.2954E-01  0.3671E-01
     -3.833  0.3202E-01  0.3917E-01
     -3.756  0.2451E-01  0.4106E-01
     -3.679  0.2723E-01  0.4316E-01
     -3.602  0.2509E-01  0.4509E-01
     -3.525  0.2402E-01  0.4694E-01
     -3.448  0.3099E-01  0.4933E-01
     -3.371  0.5406E-01  0.5349E-01
     -3.294  0.4345E-01  0.5684E-01
     -3.217  0.3127E-01  0.5925E-01
     -3.140  0.3830E-01  0.6220E-01
     -3.063  0.4811E-01  0.6590E-01
     -2.986  0.4231E-01  0.6916E-01
     -2.908  0.5147E-01  0.7313E-01
     -2.831  0.5630E-01  0.7746E-01
     -2.754  0.5604E-01  0.8178E-01
     -2.677  0.4531E-01  0.8527E-01
     -2.600  0.3659E-01  0.8809E-01
     -2.523  0.4744E-01  0.9174E-01
     -2.446  0.3925E-01  0.9477E-01
     -2.369  0.5374E-01  0.9891E-01
     -2.292  0.6288E-01  0.1037E+00
     -2.215  0.6798E-01  0.1090E+00
     -2.138  0.6501E-01  0.1140E+00
     -2.061  0.6378E-01  0.1189E+00
     -1.984  0.1405E-01  0.1200E+00
     -1.907  0.1785E-03  0.1200E+00
     -1.830  0.5580E-07  0.1200E+00
     -1.753  0.2755E-12  0.1200E+00
     -1.676  0.0000E+00  0.1200E+00
     -1.599  0.0000E+00  0.1200E+00
     -1.522  0.0000E+00  0.1200E+00
     -1.445  0.0000E+00  0.1200E+00
     -1.368  0.0000E+00  0.1200E+00
     -1.291  0.0000E+00  0.1200E+00
     -1.214  0.0000E+00  0.1200E+00
     -1.137  0.0000E+00  0.1200E+00
     -1.060  0.0000E+00  0.1200E+00
     -0.983  0.0000E+00  0.1200E+00
     -0.906  0.0000E+00  0.1200E+00
     -0.829  0.0000E+00  0.1200E+00
     -0.752  0.0000E+00  0.1200E+00
     -0.675  0.0000E+00  0.1200E+00
     -0.598  0.0000E+00  0.1200E+00
     -0.521  0.0000E+00  0.1200E+00
     -0.444  0.0000E+00  0.1200E+00
     -0.367  0.0000E+00  0.1200E+00
     -0.290  0.0000E+00  0.1200E+00
     -0.213  0.0000E+00  0.1200E+00
     -0.136  0.0000E+00  0.1200E+00
     -0.059  0.7657E-17  0.1200E+00
      0.019  0.2099E-10  0.1200E+00
      0.096  0.5766E-06  0.1200E+00
      0.173  0.2089E-03  0.1200E+00
      0.250  0.2517E-02  0.1202E+00
      0.327  0.3620E-02  0.1205E+00
      0.404  0.7383E-02  0.1211E+00
      0.481  0.1196E-01  0.1220E+00
      0.558  0.1021E-01  0.1228E+00
      0.635  0.1304E-01  0.1238E+00
      0.712  0.2885E-01  0.1260E+00
      0.789  0.2798E-01  0.1281E+00
      0.866  0.1546E-01  0.1293E+00
      0.943  0.1776E-01  0.1307E+00
      1.020  0.1980E-01  0.1322E+00
      1.097  0.3213E-01  0.1347E+00
      1.174  0.2944E-01  0.1370E+00
      1.251  0.3574E-01  0.1397E+00
      1.328  0.2890E-01  0.1420E+00
      1.405  0.2852E-01  0.1441E+00
      1.482  0.3011E-01  0.1465E+00
      1.559  0.2680E-01  0.1485E+00
      1.636  0.3032E-01  0.1509E+00
      1.713  0.2965E-01  0.1532E+00
      1.790  0.3333E-01  0.1557E+00
      1.867  0.3067E-01  0.1581E+00
      1.944  0.5396E-01  0.1622E+00
      2.021  0.6525E-01  0.1673E+00
      2.098  0.6542E-01  0.1723E+00
      2.175  0.5824E-01  0.1768E+00
      2.252  0.5328E-01  0.1809E+00
      2.329  0.3728E-01  0.1838E+00
      2.406  0.4088E-01  0.1869E+00
      2.483  0.6808E-01  0.1922E+00
      2.560  0.6324E-01  0.1970E+00
      2.637  0.4374E-01  0.2004E+00
      2.714  0.4017E-01  0.2035E+00
      2.791  0.3986E-01  0.2066E+00
      2.868  0.4038E-01  0.2097E+00
      2.945  0.3560E-01  0.2124E+00
      3.023  0.4022E-01  0.2155E+00
      3.100  0.3648E-01  0.2183E+00
      3.177  0.4214E-01  0.2216E+00
      3.254  0.3592E-01  0.2243E+00
      3.331  0.5695E-01  0.2287E+00
      3.408  0.3956E-01  0.2318E+00
      3.485  0.3299E-01  0.2343E+00
      3.562  0.3794E-01  0.2372E+00
      3.639  0.3014E-01  0.2396E+00
      3.716  0.4710E-01  0.2432E+00
      3.793  0.7289E-01  0.2488E+00
      3.870  0.4190E-01  0.2520E+00
      3.947  0.3259E-01  0.2545E+00
      4.024  0.4072E-01  0.2577E+00
      4.101  0.5435E-01  0.2619E+00
      4.178  0.6303E-01  0.2667E+00
      4.255  0.5284E-01  0.2708E+00
      4.332  0.4464E-01  0.2742E+00
      4.409  0.5084E-01  0.2781E+00
      4.486  0.4918E-01  0.2819E+00
      4.563  0.4850E-01  0.2857E+00
      4.640  0.4335E-01  0.2890E+00
      4.717  0.4914E-01  0.2928E+00
      4.794  0.6478E-01  0.2978E+00
      4.871  0.5915E-01  0.3023E+00
      4.948  0.6401E-01  0.3073E+00
      5.025  0.6065E-01  0.3119E+00
      5.102  0.6000E-01  0.3166E+00
      5.179  0.5130E-01  0.3205E+00
      5.256  0.6420E-01  0.3255E+00
      5.333  0.6798E-01  0.3307E+00
      5.410  0.8442E-01  0.3372E+00
      5.487  0.8149E-01  0.3435E+00
      5.564  0.6585E-01  0.3485E+00
      5.641  0.6939E-01  0.3539E+00
      5.718  0.5886E-01  0.3584E+00
      5.795  0.6941E-01  0.3638E+00
      5.872  0.8648E-01  0.3704E+00
      5.950  0.8154E-01  0.3767E+00
      6.027  0.7308E-01  0.3823E+00
      6.104  0.7512E-01  0.3881E+00
      6.181  0.9206E-01  0.3952E+00
      6.258  0.5833E-01  0.3997E+00
      6.335  0.4318E-01  0.4030E+00
      6.412  0.8523E-01  0.4096E+00
      6.489  0.8072E-01  0.4158E+00
      6.566  0.7357E-01  0.4215E+00
      6.643  0.9215E-01  0.4286E+00
      6.720  0.7411E-01  0.4343E+00
      6.797  0.5460E-01  0.4385E+00
      6.874  0.5676E-01  0.4429E+00
      6.951  0.6815E-01  0.4481E+00
      7.028  0.7286E-01  0.4537E+00
      7.105  0.6461E-01  0.4587E+00
      7.182  0.5616E-01  0.4630E+00
      7.259  0.3700E-01  0.4659E+00
      7.336  0.4458E-01  0.4693E+00
      7.413  0.3942E-01  0.4724E+00
      7.490  0.3943E-01  0.4754E+00
      7.567  0.2869E-01  0.4776E+00
      7.644  0.4998E-02  0.4780E+00
      7.721  0.7165E-02  0.4785E+00
      7.798  0.1177E-01  0.4794E+00
      7.875  0.6820E-02  0.4800E+00
      7.952  0.4259E-03  0.4800E+00
      8.029  0.7582E-06  0.4800E+00
      8.106  0.1862E-10  0.4800E+00
      8.183  0.1991E-08  0.4800E+00
      8.260  0.9167E-05  0.4800E+00
      8.337  0.5778E-03  0.4800E+00
      8.414  0.1090E-02  0.4801E+00
      8.491  0.6445E-03  0.4802E+00
      8.568  0.4666E-03  0.4802E+00
      8.645  0.2676E-02  0.4804E+00
      8.722  0.2369E-02  0.4806E+00
      8.799  0.6118E-02  0.4811E+00
      8.877  0.4734E-02  0.4814E+00
      8.954  0.5823E-02  0.4819E+00
      9.031  0.8604E-02  0.4826E+00
      9.108  0.7952E-02  0.4832E+00
      9.185  0.4739E-02  0.4835E+00
      9.262  0.3946E-02  0.4838E+00
      9.339  0.9073E-02  0.4845E+00
      9.416  0.1086E-01  0.4854E+00
      9.493  0.1188E-01  0.4863E+00
      9.570  0.6113E-02  0.4868E+00
      9.647  0.9245E-02  0.4875E+00
      9.724  0.1880E-01  0.4889E+00
      9.801  0.1744E-01  0.4903E+00
      9.878  0.1986E-01  0.4918E+00
      9.955  0.1588E-01  0.4930E+00
     10.032  0.8507E-02  0.4937E+00
     10.109  0.1789E-01  0.4950E+00
     10.186  0.2058E-01  0.4966E+00
     10.263  0.2523E-01  0.4986E+00
     10.340  0.1789E-01  0.4999E+00
     10.417  0.1324E-01  0.5010E+00
     10.494  0.1487E-01  0.5021E+00
     10.571  0.1946E-01  0.5036E+00
     10.648  0.1960E-01  0.5051E+00
     10.725  0.1894E-01  0.5066E+00
     10.802  0.2627E-01  0.5086E+00
     10.879  0.3090E-01  0.5110E+00
     10.956  0.3006E-01  0.5133E+00
     11.033  0.2201E-01  0.5150E+00
     11.110  0.3421E-01  0.5176E+00
     11.187  0.3479E-01  0.5203E+00
     11.264  0.4101E-01  0.5235E+00
     11.341  0.3636E-01  0.5263E+00
     11.418  0.2415E-01  0.5281E+00
     11.495  0.3726E-01  0.5310E+00
     11.572  0.4704E-01  0.5346E+00
     11.649  0.3957E-01  0.5377E+00
     11.726  0.3354E-01  0.5403E+00
     11.803  0.2091E-01  0.5419E+00
     11.881  0.3115E-01  0.5443E+00
     11.958  0.4670E-01  0.5479E+00
     12.035  0.4223E-01  0.5511E+00
     12.112  0.3686E-01  0.5540E+00
     12.189  0.5414E-01  0.5581E+00
     12.266  0.3733E-01  0.5610E+00
     12.343  0.2176E-01  0.5627E+00
     12.420  0.2757E-01  0.5648E+00
     12.497  0.3226E-01  0.5673E+00
     12.574  0.3483E-01  0.5700E+00
     12.651  0.5273E-01  0.5740E+00
     12.728  0.6254E-01  0.5788E+00
     12.805  0.5780E-01  0.5833E+00
     12.882  0.5674E-01  0.5877E+00
     12.959  0.4577E-01  0.5912E+00
     13.036  0.4626E-01  0.5948E+00
     13.113  0.4075E-01  0.5979E+00
     13.190  0.4922E-01  0.6017E+00
     13.267  0.4184E-01  0.6049E+00
     13.344  0.5392E-01  0.6091E+00
     13.421  0.3535E-01  0.6118E+00
     13.498  0.3866E-01  0.6148E+00
     13.575  0.4318E-01  0.6181E+00
     13.652  0.5177E-01  0.6221E+00
     13.729  0.5203E-01  0.6261E+00
     13.806  0.4437E-01  0.6295E+00
     13.883  0.6138E-01  0.6342E+00
     13.960  0.5503E-01  0.6385E+00
     14.037  0.5428E-01  0.6427E+00
     14.114  0.4651E-01  0.6462E+00
     14.191  0.3475E-01  0.6489E+00
     14.268  0.2927E-01  0.6512E+00
     14.345  0.3337E-01  0.6537E+00
     14.422  0.3021E-01  0.6561E+00
     14.499  0.1745E-01  0.6574E+00
     14.576  0.1555E-01  0.6586E+00
     14.653  0.1018E-01  0.6594E+00
     14.730  0.2925E-02  0.6596E+00
     14.808  0.8366E-03  0.6597E+00
     14.885  0.2633E-02  0.6599E+00
     14.962  0.1416E-02  0.6600E+00
     15.039  0.1347E-03  0.6600E+00
     15.116  0.2952E-06  0.6600E+00
     15.193  0.7518E-11  0.6600E+00
     15.270  0.1802E-17  0.6600E+00
     15.347  0.0000E+00  0.6600E+00
     15.424  0.0000E+00  0.6600E+00
     15.501  0.0000E+00  0.6600E+00
     15.578  0.0000E+00  0.6600E+00
     15.655  0.0000E+00  0.6600E+00
     15.732  0.0000E+00  0.6600E+00
     15.809  0.0000E+00  0.6600E+00
     15.886  0.0000E+00  0.6600E+00
     15.963  0.0000E+00  0.6600E+00
