Al4C3 R-3m polymorph (findsym-output, fr
   1.00000000000000     
     3.3560657766485384    0.0000000000000000    0.0000000000000000
    -1.6780328883242692    2.9064382193865077    0.0000000000000000
     0.0000000000000000    0.0000000000000000   25.0899611210740474
   Al   C 
    12     9
Direct
     0.0000000000000000    0.0000000000000000    0.6298870309821493
     0.0000000000000000    0.0000000000000000    0.3701129690178506
     0.6666666870000029    0.3333333429999996    0.9632203439821464
     0.6666666870000029    0.3333333429999996    0.7034462830178515
     0.3333333429999996    0.6666666870000029    0.2965536869821461
     0.3333333429999996    0.6666666870000029    0.0367796370178555
     1.0000000000000000    0.0000000000000000    0.2065074097884464
     0.0000000000000000    0.0000000000000000    0.7934925902115535
     0.6666666870000029    0.3333333429999996    0.5398407237884473
     0.6666666870000029    0.3333333429999996    0.1268259182115556
     0.3333333429999996    0.6666666870000029    0.8731740967884494
     0.3333333429999996    0.6666666870000029    0.4601592462115504
     0.0000000000000000    0.0000000000000000    0.7167309911410956
     0.0000000000000000    0.0000000000000000    0.2832690088589044
     0.6666666870000029    0.3333333429999996    0.0500643231410979
     0.6666666870000029    0.3333333429999996    0.6166023218589015
     0.3333333429999996    0.6666666870000029    0.3833976481410960
     0.3333333429999996    0.6666666870000029    0.9499356958589001
     0.0000000000000000    0.0000000000000000    0.5000000000000000
     0.6666666870000029    0.3333333429999996    0.8333333129999971
     0.3333333429999996    0.6666666870000029    0.1666666719999981
 
  0.00000000E+00  0.00000000E+00  0.00000000E+00
  0.00000000E+00  0.00000000E+00  0.00000000E+00
  0.00000000E+00  0.00000000E+00  0.00000000E+00
  0.00000000E+00  0.00000000E+00  0.00000000E+00
  0.00000000E+00  0.00000000E+00  0.00000000E+00
  0.00000000E+00  0.00000000E+00  0.00000000E+00
  0.00000000E+00  0.00000000E+00  0.00000000E+00
  0.00000000E+00  0.00000000E+00  0.00000000E+00
  0.00000000E+00  0.00000000E+00  0.00000000E+00
  0.00000000E+00  0.00000000E+00  0.00000000E+00
  0.00000000E+00  0.00000000E+00  0.00000000E+00
  0.00000000E+00  0.00000000E+00  0.00000000E+00
  0.00000000E+00  0.00000000E+00  0.00000000E+00
  0.00000000E+00  0.00000000E+00  0.00000000E+00
  0.00000000E+00  0.00000000E+00  0.00000000E+00
  0.00000000E+00  0.00000000E+00  0.00000000E+00
  0.00000000E+00  0.00000000E+00  0.00000000E+00
  0.00000000E+00  0.00000000E+00  0.00000000E+00
  0.00000000E+00  0.00000000E+00  0.00000000E+00
  0.00000000E+00  0.00000000E+00  0.00000000E+00
  0.00000000E+00  0.00000000E+00  0.00000000E+00
