  21  21   0   0
  0.9447860E+01  0.3129326E-09  0.3129326E-09  0.2339486E-08  0.5000000E-15
  1.000000000000000E-004
  CAR 
 Al4C3 R-3m - relax @ 0 GPa (ISIF=8)     
     14.43337389     -7.27287948  301      7.49189495      1.00000000
     -7.273  0.0000E+00  0.0000E+00
     -7.201  0.0000E+00  0.0000E+00
     -7.128  0.0000E+00  0.0000E+00
     -7.056  0.0000E+00  0.0000E+00
     -6.983  0.0000E+00  0.0000E+00
     -6.911  0.0000E+00  0.0000E+00
     -6.839  0.0000E+00  0.0000E+00
     -6.766  0.0000E+00  0.0000E+00
     -6.694  0.0000E+00  0.0000E+00
     -6.622  0.0000E+00  0.0000E+00
     -6.549  0.2442E-17  0.1767E-18
     -6.477  0.2604E-11  0.1884E-12
     -6.405  0.5577E-07  0.4035E-08
     -6.332  0.3118E-04  0.2260E-05
     -6.260  0.8358E-03  0.6274E-04
     -6.188  0.3094E-02  0.2866E-03
     -6.115  0.4995E-02  0.6480E-03
     -6.043  0.6707E-02  0.1133E-02
     -5.971  0.7678E-02  0.1689E-02
     -5.898  0.7805E-02  0.2254E-02
     -5.826  0.7847E-02  0.2821E-02
     -5.753  0.7892E-02  0.3392E-02
     -5.681  0.7972E-02  0.3969E-02
     -5.609  0.8580E-02  0.4590E-02
     -5.536  0.9825E-02  0.5301E-02
     -5.464  0.1083E-01  0.6085E-02
     -5.392  0.1170E-01  0.6931E-02
     -5.319  0.1255E-01  0.7839E-02
     -5.247  0.1341E-01  0.8810E-02
     -5.175  0.1438E-01  0.9850E-02
     -5.102  0.1564E-01  0.1098E-01
     -5.030  0.1680E-01  0.1220E-01
     -4.958  0.1714E-01  0.1344E-01
     -4.885  0.1732E-01  0.1469E-01
     -4.813  0.1751E-01  0.1596E-01
     -4.740  0.1773E-01  0.1724E-01
     -4.668  0.1795E-01  0.1854E-01
     -4.596  0.1818E-01  0.1985E-01
     -4.523  0.1845E-01  0.2119E-01
     -4.451  0.1877E-01  0.2255E-01
     -4.379  0.1911E-01  0.2393E-01
     -4.306  0.1946E-01  0.2534E-01
     -4.234  0.1988E-01  0.2678E-01
     -4.162  0.2040E-01  0.2825E-01
     -4.089  0.2098E-01  0.2977E-01
     -4.017  0.2167E-01  0.3134E-01
     -3.945  0.2302E-01  0.3300E-01
     -3.872  0.2544E-01  0.3484E-01
     -3.800  0.2807E-01  0.3687E-01
     -3.728  0.3167E-01  0.3917E-01
     -3.655  0.3568E-01  0.4175E-01
     -3.583  0.3662E-01  0.4440E-01
     -3.510  0.3557E-01  0.4697E-01
     -3.438  0.3590E-01  0.4957E-01
     -3.366  0.3895E-01  0.5239E-01
     -3.293  0.4048E-01  0.5532E-01
     -3.221  0.4048E-01  0.5824E-01
     -3.149  0.3995E-01  0.6113E-01
     -3.076  0.3493E-01  0.6366E-01
     -3.004  0.2874E-01  0.6574E-01
     -2.932  0.2680E-01  0.6768E-01
     -2.859  0.2556E-01  0.6953E-01
     -2.787  0.2409E-01  0.7127E-01
     -2.715  0.3110E-01  0.7352E-01
     -2.642  0.5668E-01  0.7762E-01
     -2.570  0.8026E-01  0.8343E-01
     -2.498  0.6561E-01  0.8818E-01
     -2.425  0.2311E-01  0.8985E-01
     -2.353  0.2056E-02  0.9000E-01
     -2.280  0.1542E-04  0.9000E-01
     -2.208  0.3949E-08  0.9000E-01
     -2.136  0.2264E-13  0.9000E-01
     -2.063  0.0000E+00  0.9000E-01
     -1.991  0.0000E+00  0.9000E-01
     -1.919  0.0000E+00  0.9000E-01
     -1.846  0.0000E+00  0.9000E-01
     -1.774  0.0000E+00  0.9000E-01
     -1.702  0.0000E+00  0.9000E-01
     -1.629  0.0000E+00  0.9000E-01
     -1.557  0.0000E+00  0.9000E-01
     -1.485  0.0000E+00  0.9000E-01
     -1.412  0.0000E+00  0.9000E-01
     -1.340  0.0000E+00  0.9000E-01
     -1.267  0.0000E+00  0.9000E-01
     -1.195  0.0000E+00  0.9000E-01
     -1.123  0.0000E+00  0.9000E-01
     -1.050  0.0000E+00  0.9000E-01
     -0.978  0.0000E+00  0.9000E-01
     -0.906  0.0000E+00  0.9000E-01
     -0.833  0.0000E+00  0.9000E-01
     -0.761  0.0000E+00  0.9000E-01
     -0.689  0.0000E+00  0.9000E-01
     -0.616  0.0000E+00  0.9000E-01
     -0.544  0.0000E+00  0.9000E-01
     -0.472  0.2449E-14  0.9000E-01
     -0.399  0.4393E-09  0.9000E-01
     -0.327  0.1736E-05  0.9000E-01
     -0.255  0.2233E-03  0.9002E-01
     -0.182  0.2144E-02  0.9017E-01
     -0.110  0.4967E-02  0.9053E-01
     -0.037  0.7520E-02  0.9107E-01
      0.035  0.1029E-01  0.9182E-01
      0.107  0.1148E-01  0.9265E-01
      0.180  0.1207E-01  0.9352E-01
      0.252  0.1321E-01  0.9448E-01
      0.324  0.1423E-01  0.9551E-01
      0.397  0.1513E-01  0.9660E-01
      0.469  0.1608E-01  0.9777E-01
      0.541  0.1719E-01  0.9901E-01
      0.614  0.1881E-01  0.1004E+00
      0.686  0.2154E-01  0.1019E+00
      0.758  0.2178E-01  0.1035E+00
      0.831  0.1856E-01  0.1048E+00
      0.903  0.1597E-01  0.1060E+00
      0.975  0.1483E-01  0.1071E+00
      1.048  0.1501E-01  0.1082E+00
      1.120  0.1866E-01  0.1095E+00
      1.193  0.2253E-01  0.1111E+00
      1.265  0.2563E-01  0.1130E+00
      1.337  0.2917E-01  0.1151E+00
      1.410  0.3321E-01  0.1175E+00
      1.482  0.3682E-01  0.1202E+00
      1.554  0.3929E-01  0.1230E+00
      1.627  0.4156E-01  0.1260E+00
      1.699  0.3875E-01  0.1288E+00
      1.771  0.3477E-01  0.1313E+00
      1.844  0.3308E-01  0.1337E+00
      1.916  0.3386E-01  0.1362E+00
      1.988  0.3548E-01  0.1388E+00
      2.061  0.3477E-01  0.1413E+00
      2.133  0.3352E-01  0.1437E+00
      2.206  0.3930E-01  0.1465E+00
      2.278  0.4553E-01  0.1498E+00
      2.350  0.4925E-01  0.1534E+00
      2.423  0.4621E-01  0.1567E+00
      2.495  0.4023E-01  0.1597E+00
      2.567  0.3329E-01  0.1621E+00
      2.640  0.3148E-01  0.1643E+00
      2.712  0.3233E-01  0.1667E+00
      2.784  0.3434E-01  0.1692E+00
      2.857  0.3588E-01  0.1718E+00
      2.929  0.3542E-01  0.1743E+00
      3.001  0.3760E-01  0.1770E+00
      3.074  0.3501E-01  0.1796E+00
      3.146  0.3449E-01  0.1821E+00
      3.218  0.3581E-01  0.1847E+00
      3.291  0.3312E-01  0.1871E+00
      3.363  0.3284E-01  0.1894E+00
      3.436  0.3259E-01  0.1918E+00
      3.508  0.3250E-01  0.1941E+00
      3.580  0.3459E-01  0.1966E+00
      3.653  0.3613E-01  0.1993E+00
      3.725  0.3538E-01  0.2018E+00
      3.797  0.3670E-01  0.2045E+00
      3.870  0.3658E-01  0.2071E+00
      3.942  0.3559E-01  0.2097E+00
      4.014  0.3528E-01  0.2122E+00
      4.087  0.3391E-01  0.2147E+00
      4.159  0.3329E-01  0.2171E+00
      4.231  0.3499E-01  0.2196E+00
      4.304  0.3816E-01  0.2224E+00
      4.376  0.4392E-01  0.2256E+00
      4.448  0.5103E-01  0.2293E+00
      4.521  0.5271E-01  0.2331E+00
      4.593  0.4970E-01  0.2367E+00
      4.666  0.4697E-01  0.2401E+00
      4.738  0.4333E-01  0.2432E+00
      4.810  0.4170E-01  0.2462E+00
      4.883  0.4259E-01  0.2493E+00
      4.955  0.4544E-01  0.2526E+00
      5.027  0.4789E-01  0.2561E+00
      5.100  0.5048E-01  0.2597E+00
      5.172  0.5667E-01  0.2638E+00
      5.244  0.6005E-01  0.2682E+00
      5.317  0.6281E-01  0.2727E+00
      5.389  0.6460E-01  0.2774E+00
      5.461  0.6351E-01  0.2820E+00
      5.534  0.6294E-01  0.2865E+00
      5.606  0.6313E-01  0.2911E+00
      5.679  0.6264E-01  0.2956E+00
      5.751  0.6051E-01  0.3000E+00
      5.823  0.5959E-01  0.3043E+00
      5.896  0.5943E-01  0.3086E+00
      5.968  0.6107E-01  0.3130E+00
      6.040  0.5694E-01  0.3172E+00
      6.113  0.5029E-01  0.3208E+00
      6.185  0.4984E-01  0.3244E+00
      6.257  0.5391E-01  0.3283E+00
      6.330  0.5902E-01  0.3326E+00
      6.402  0.5288E-01  0.3364E+00
      6.474  0.4923E-01  0.3400E+00
      6.547  0.4539E-01  0.3433E+00
      6.619  0.3890E-01  0.3461E+00
      6.691  0.3227E-01  0.3484E+00
      6.764  0.2807E-01  0.3504E+00
      6.836  0.2522E-01  0.3523E+00
      6.909  0.2267E-01  0.3539E+00
      6.981  0.1936E-01  0.3553E+00
      7.053  0.1657E-01  0.3565E+00
      7.126  0.1590E-01  0.3576E+00
      7.198  0.1616E-01  0.3588E+00
      7.270  0.1299E-01  0.3598E+00
      7.343  0.3296E-02  0.3600E+00
      7.415  0.9552E-04  0.3600E+00
      7.487  0.1212E-06  0.3600E+00
      7.560  0.3821E-11  0.3600E+00
      7.632  0.2314E-17  0.3600E+00
      7.704  0.0000E+00  0.3600E+00
      7.777  0.0000E+00  0.3600E+00
      7.849  0.0000E+00  0.3600E+00
      7.921  0.0000E+00  0.3600E+00
      7.994  0.0000E+00  0.3600E+00
      8.066  0.0000E+00  0.3600E+00
      8.139  0.0000E+00  0.3600E+00
      8.211  0.0000E+00  0.3600E+00
      8.283  0.0000E+00  0.3600E+00
      8.356  0.1010E-16  0.3600E+00
      8.428  0.6265E-11  0.3600E+00
      8.500  0.8186E-07  0.3600E+00
      8.573  0.3021E-04  0.3600E+00
      8.645  0.6708E-03  0.3601E+00
      8.717  0.3269E-02  0.3603E+00
      8.790  0.6170E-02  0.3607E+00
      8.862  0.6806E-02  0.3612E+00
      8.934  0.7071E-02  0.3617E+00
      9.007  0.7331E-02  0.3623E+00
      9.079  0.7600E-02  0.3628E+00
      9.152  0.8002E-02  0.3634E+00
      9.224  0.8382E-02  0.3640E+00
      9.296  0.8812E-02  0.3646E+00
      9.369  0.9417E-02  0.3653E+00
      9.441  0.1013E-01  0.3661E+00
      9.513  0.1118E-01  0.3669E+00
      9.586  0.1594E-01  0.3680E+00
      9.658  0.2474E-01  0.3698E+00
      9.730  0.2516E-01  0.3716E+00
      9.803  0.2180E-01  0.3732E+00
      9.875  0.1926E-01  0.3746E+00
      9.947  0.1825E-01  0.3759E+00
     10.020  0.1908E-01  0.3773E+00
     10.092  0.2058E-01  0.3788E+00
     10.164  0.2122E-01  0.3803E+00
     10.237  0.2137E-01  0.3819E+00
     10.309  0.2193E-01  0.3835E+00
     10.382  0.2328E-01  0.3851E+00
     10.454  0.2560E-01  0.3870E+00
     10.526  0.2845E-01  0.3891E+00
     10.599  0.3154E-01  0.3913E+00
     10.671  0.3381E-01  0.3938E+00
     10.743  0.3836E-01  0.3966E+00
     10.816  0.4621E-01  0.3999E+00
     10.888  0.5455E-01  0.4038E+00
     10.960  0.5286E-01  0.4077E+00
     11.033  0.4533E-01  0.4110E+00
     11.105  0.3869E-01  0.4138E+00
     11.177  0.3365E-01  0.4162E+00
     11.250  0.2943E-01  0.4183E+00
     11.322  0.2636E-01  0.4202E+00
     11.394  0.2466E-01  0.4220E+00
     11.467  0.2543E-01  0.4238E+00
     11.539  0.2845E-01  0.4259E+00
     11.612  0.3001E-01  0.4281E+00
     11.684  0.3240E-01  0.4304E+00
     11.756  0.3491E-01  0.4329E+00
     11.829  0.3532E-01  0.4355E+00
     11.901  0.3604E-01  0.4381E+00
     11.973  0.3794E-01  0.4409E+00
     12.046  0.4076E-01  0.4438E+00
     12.118  0.4493E-01  0.4471E+00
     12.190  0.5057E-01  0.4507E+00
     12.263  0.5250E-01  0.4545E+00
     12.335  0.5064E-01  0.4582E+00
     12.407  0.4320E-01  0.4613E+00
     12.480  0.4084E-01  0.4643E+00
     12.552  0.3718E-01  0.4669E+00
     12.625  0.3249E-01  0.4693E+00
     12.697  0.2911E-01  0.4714E+00
     12.769  0.2320E-01  0.4731E+00
     12.842  0.1977E-01  0.4745E+00
     12.914  0.1871E-01  0.4759E+00
     12.986  0.1542E-01  0.4770E+00
     13.059  0.1186E-01  0.4778E+00
     13.131  0.9950E-02  0.4786E+00
     13.203  0.8272E-02  0.4792E+00
     13.276  0.7122E-02  0.4797E+00
     13.348  0.3109E-02  0.4799E+00
     13.420  0.1053E-02  0.4800E+00
     13.493  0.3001E-03  0.4800E+00
     13.565  0.1718E-04  0.4800E+00
     13.637  0.4912E-07  0.4800E+00
     13.710  0.3276E-11  0.4800E+00
     13.782  0.4039E-17  0.4800E+00
     13.855  0.0000E+00  0.4800E+00
     13.927  0.0000E+00  0.4800E+00
     13.999  0.0000E+00  0.4800E+00
     14.072  0.0000E+00  0.4800E+00
     14.144  0.0000E+00  0.4800E+00
     14.216  0.0000E+00  0.4800E+00
     14.289  0.0000E+00  0.4800E+00
     14.361  0.0000E+00  0.4800E+00
     14.433  0.0000E+00  0.4800E+00
