  28  28   0   0
  0.1028631E+02  0.2985219E-09  0.9119871E-09  0.1057920E-08  0.5000000E-15
  1.000000000000000E-004
  CAR 
 Al4C3 anti-CaFe2O4 - r2SCAN H(P) scan @ 
     17.71930543     -7.46877569  301     10.25208888      1.00000000
     -7.469  0.0000E+00  0.0000E+00
     -7.385  0.0000E+00  0.0000E+00
     -7.301  0.0000E+00  0.0000E+00
     -7.217  0.0000E+00  0.0000E+00
     -7.133  0.0000E+00  0.0000E+00
     -7.049  0.0000E+00  0.0000E+00
     -6.965  0.0000E+00  0.0000E+00
     -6.881  0.0000E+00  0.0000E+00
     -6.797  0.0000E+00  0.0000E+00
     -6.713  0.0000E+00  0.0000E+00
     -6.629  0.0000E+00  0.0000E+00
     -6.545  0.1729E-12  0.1452E-13
     -6.461  0.4598E-07  0.3861E-08
     -6.377  0.5899E-04  0.4956E-05
     -6.293  0.7706E-03  0.6965E-04
     -6.209  0.2896E-02  0.3128E-03
     -6.125  0.5474E-02  0.7724E-03
     -6.041  0.7895E-02  0.1435E-02
     -5.957  0.7658E-02  0.2078E-02
     -5.874  0.6181E-02  0.2597E-02
     -5.790  0.1129E-01  0.3545E-02
     -5.706  0.1532E-01  0.4831E-02
     -5.622  0.1340E-01  0.5956E-02
     -5.538  0.5791E-02  0.6442E-02
     -5.454  0.6686E-02  0.7004E-02
     -5.370  0.9630E-02  0.7812E-02
     -5.286  0.1214E-01  0.8831E-02
     -5.202  0.9447E-02  0.9624E-02
     -5.118  0.1762E-01  0.1110E-01
     -5.034  0.1217E-01  0.1213E-01
     -4.950  0.1151E-01  0.1309E-01
     -4.866  0.1373E-01  0.1424E-01
     -4.782  0.2725E-01  0.1653E-01
     -4.698  0.1977E-01  0.1819E-01
     -4.614  0.1049E-01  0.1907E-01
     -4.530  0.1359E-01  0.2021E-01
     -4.446  0.1158E-01  0.2119E-01
     -4.362  0.1111E-01  0.2212E-01
     -4.278  0.1822E-01  0.2365E-01
     -4.194  0.3269E-01  0.2639E-01
     -4.110  0.1926E-01  0.2801E-01
     -4.026  0.1932E-01  0.2963E-01
     -3.942  0.2573E-01  0.3179E-01
     -3.858  0.2183E-01  0.3362E-01
     -3.775  0.2301E-01  0.3556E-01
     -3.691  0.2216E-01  0.3742E-01
     -3.607  0.1827E-01  0.3895E-01
     -3.523  0.1700E-01  0.4038E-01
     -3.439  0.2124E-01  0.4216E-01
     -3.355  0.3283E-01  0.4492E-01
     -3.271  0.4087E-01  0.4835E-01
     -3.187  0.3662E-01  0.5142E-01
     -3.103  0.3648E-01  0.5449E-01
     -3.019  0.3589E-01  0.5750E-01
     -2.935  0.3081E-01  0.6009E-01
     -2.851  0.2943E-01  0.6256E-01
     -2.767  0.3565E-01  0.6555E-01
     -2.683  0.3957E-01  0.6887E-01
     -2.599  0.4518E-01  0.7267E-01
     -2.515  0.5518E-01  0.7730E-01
     -2.431  0.5425E-01  0.8185E-01
     -2.347  0.4752E-01  0.8584E-01
     -2.263  0.3760E-01  0.8900E-01
     -2.179  0.5945E-01  0.9399E-01
     -2.095  0.4738E-01  0.9797E-01
     -2.011  0.1827E-01  0.9950E-01
     -1.927  0.9921E-02  0.1003E+00
     -1.843  0.1759E-01  0.1018E+00
     -1.759  0.2019E-01  0.1035E+00
     -1.676  0.2018E-01  0.1052E+00
     -1.592  0.1335E-01  0.1063E+00
     -1.508  0.6834E-02  0.1069E+00
     -1.424  0.1299E-01  0.1080E+00
     -1.340  0.1529E-01  0.1093E+00
     -1.256  0.1861E-01  0.1108E+00
     -1.172  0.2492E-01  0.1129E+00
     -1.088  0.1354E-01  0.1141E+00
     -1.004  0.1035E-01  0.1149E+00
     -0.920  0.1061E-01  0.1158E+00
     -0.836  0.1632E-01  0.1172E+00
     -0.752  0.1070E-01  0.1181E+00
     -0.668  0.1223E-01  0.1191E+00
     -0.584  0.7845E-02  0.1198E+00
     -0.500  0.2609E-02  0.1200E+00
     -0.416  0.4253E-04  0.1200E+00
     -0.332  0.4641E-08  0.1200E+00
     -0.248  0.2279E-14  0.1200E+00
     -0.164  0.0000E+00  0.1200E+00
     -0.080  0.0000E+00  0.1200E+00
      0.004  0.0000E+00  0.1200E+00
      0.088  0.0000E+00  0.1200E+00
      0.172  0.0000E+00  0.1200E+00
      0.256  0.0000E+00  0.1200E+00
      0.340  0.0000E+00  0.1200E+00
      0.423  0.0000E+00  0.1200E+00
      0.507  0.3332E-15  0.1200E+00
      0.591  0.7253E-09  0.1200E+00
      0.675  0.6965E-05  0.1200E+00
      0.759  0.4890E-03  0.1200E+00
      0.843  0.2731E-02  0.1203E+00
      0.927  0.4072E-02  0.1206E+00
      1.011  0.5680E-02  0.1211E+00
      1.095  0.3127E-02  0.1214E+00
      1.179  0.7339E-02  0.1220E+00
      1.263  0.1780E-01  0.1235E+00
      1.347  0.2164E-01  0.1253E+00
      1.431  0.2069E-01  0.1270E+00
      1.515  0.1876E-01  0.1286E+00
      1.599  0.3904E-01  0.1319E+00
      1.683  0.4169E-01  0.1354E+00
      1.767  0.2467E-01  0.1374E+00
      1.851  0.4380E-01  0.1411E+00
      1.935  0.4825E-01  0.1452E+00
      2.019  0.3809E-01  0.1484E+00
      2.103  0.4145E-01  0.1518E+00
      2.187  0.5063E-01  0.1561E+00
      2.271  0.3570E-01  0.1591E+00
      2.355  0.3876E-01  0.1623E+00
      2.439  0.3823E-01  0.1656E+00
      2.522  0.3721E-01  0.1687E+00
      2.606  0.3540E-01  0.1717E+00
      2.690  0.4370E-01  0.1753E+00
      2.774  0.4323E-01  0.1790E+00
      2.858  0.4524E-01  0.1828E+00
      2.942  0.3170E-01  0.1854E+00
      3.026  0.2393E-01  0.1874E+00
      3.110  0.4162E-01  0.1909E+00
      3.194  0.5355E-01  0.1954E+00
      3.278  0.4178E-01  0.1989E+00
      3.362  0.4120E-01  0.2024E+00
      3.446  0.3228E-01  0.2051E+00
      3.530  0.3984E-01  0.2084E+00
      3.614  0.4354E-01  0.2121E+00
      3.698  0.3577E-01  0.2151E+00
      3.782  0.3543E-01  0.2181E+00
      3.866  0.2675E-01  0.2203E+00
      3.950  0.3712E-01  0.2234E+00
      4.034  0.3957E-01  0.2268E+00
      4.118  0.3132E-01  0.2294E+00
      4.202  0.3087E-01  0.2320E+00
      4.286  0.3556E-01  0.2350E+00
      4.370  0.3376E-01  0.2378E+00
      4.454  0.4036E-01  0.2412E+00
      4.538  0.4302E-01  0.2448E+00
      4.622  0.4247E-01  0.2484E+00
      4.705  0.4700E-01  0.2523E+00
      4.789  0.7466E-01  0.2586E+00
      4.873  0.4769E-01  0.2626E+00
      4.957  0.4891E-01  0.2667E+00
      5.041  0.4182E-01  0.2702E+00
      5.125  0.3680E-01  0.2733E+00
      5.209  0.5693E-01  0.2781E+00
      5.293  0.5845E-01  0.2830E+00
      5.377  0.4313E-01  0.2866E+00
      5.461  0.2618E-01  0.2888E+00
      5.545  0.4712E-01  0.2928E+00
      5.629  0.5421E-01  0.2973E+00
      5.713  0.4093E-01  0.3007E+00
      5.797  0.3937E-01  0.3040E+00
      5.881  0.5000E-01  0.3082E+00
      5.965  0.5554E-01  0.3129E+00
      6.049  0.3928E-01  0.3162E+00
      6.133  0.3730E-01  0.3193E+00
      6.217  0.3517E-01  0.3223E+00
      6.301  0.4591E-01  0.3261E+00
      6.385  0.5559E-01  0.3308E+00
      6.469  0.6660E-01  0.3364E+00
      6.553  0.6583E-01  0.3419E+00
      6.637  0.6360E-01  0.3473E+00
      6.721  0.5833E-01  0.3522E+00
      6.804  0.4157E-01  0.3557E+00
      6.888  0.3875E-01  0.3589E+00
      6.972  0.4990E-01  0.3631E+00
      7.056  0.4493E-01  0.3669E+00
      7.140  0.1817E-01  0.3684E+00
      7.224  0.3715E-01  0.3715E+00
      7.308  0.2675E-01  0.3738E+00
      7.392  0.3296E-01  0.3765E+00
      7.476  0.7474E-01  0.3828E+00
      7.560  0.8767E-01  0.3902E+00
      7.644  0.6259E-01  0.3954E+00
      7.728  0.6669E-01  0.4010E+00
      7.812  0.6516E-01  0.4065E+00
      7.896  0.6643E-01  0.4121E+00
      7.980  0.5183E-01  0.4164E+00
      8.064  0.6756E-01  0.4221E+00
      8.148  0.7240E-01  0.4282E+00
      8.232  0.6919E-01  0.4340E+00
      8.316  0.6572E-01  0.4395E+00
      8.400  0.3915E-01  0.4428E+00
      8.484  0.4134E-01  0.4463E+00
      8.568  0.7305E-01  0.4524E+00
      8.652  0.5868E-01  0.4573E+00
      8.736  0.4330E-01  0.4610E+00
      8.820  0.4739E-01  0.4649E+00
      8.903  0.3012E-01  0.4675E+00
      8.987  0.2399E-01  0.4695E+00
      9.071  0.1328E-01  0.4706E+00
      9.155  0.1112E-01  0.4715E+00
      9.239  0.2113E-01  0.4733E+00
      9.323  0.1905E-01  0.4749E+00
      9.407  0.1492E-01  0.4761E+00
      9.491  0.6274E-02  0.4767E+00
      9.575  0.4329E-02  0.4770E+00
      9.659  0.3202E-02  0.4773E+00
      9.743  0.7623E-02  0.4779E+00
      9.827  0.6351E-02  0.4785E+00
      9.911  0.9298E-02  0.4793E+00
      9.995  0.6290E-02  0.4798E+00
     10.079  0.2434E-02  0.4800E+00
     10.163  0.8463E-04  0.4800E+00
     10.247  0.5876E-07  0.4800E+00
     10.331  0.3445E-07  0.4800E+00
     10.415  0.1105E-03  0.4800E+00
     10.499  0.3473E-02  0.4803E+00
     10.583  0.3670E-02  0.4806E+00
     10.667  0.5338E-02  0.4811E+00
     10.751  0.4662E-02  0.4814E+00
     10.835  0.9879E-02  0.4823E+00
     10.919  0.1191E-01  0.4833E+00
     11.002  0.1441E-01  0.4845E+00
     11.086  0.3176E-01  0.4872E+00
     11.170  0.2207E-01  0.4890E+00
     11.254  0.1429E-01  0.4902E+00
     11.338  0.4843E-02  0.4906E+00
     11.422  0.1534E-01  0.4919E+00
     11.506  0.7950E-02  0.4926E+00
     11.590  0.1284E-01  0.4936E+00
     11.674  0.1690E-01  0.4951E+00
     11.758  0.1945E-01  0.4967E+00
     11.842  0.3345E-01  0.4995E+00
     11.926  0.2526E-01  0.5016E+00
     12.010  0.3739E-01  0.5048E+00
     12.094  0.3127E-01  0.5074E+00
     12.178  0.3588E-01  0.5104E+00
     12.262  0.2439E-01  0.5125E+00
     12.346  0.1873E-01  0.5140E+00
     12.430  0.1899E-01  0.5156E+00
     12.514  0.2982E-01  0.5181E+00
     12.598  0.2513E-01  0.5202E+00
     12.682  0.2054E-01  0.5220E+00
     12.766  0.2958E-01  0.5244E+00
     12.850  0.4108E-01  0.5279E+00
     12.934  0.4183E-01  0.5314E+00
     13.018  0.4675E-01  0.5353E+00
     13.101  0.3260E-01  0.5381E+00
     13.185  0.4423E-01  0.5418E+00
     13.269  0.4232E-01  0.5453E+00
     13.353  0.4949E-01  0.5495E+00
     13.437  0.3072E-01  0.5521E+00
     13.521  0.4525E-01  0.5559E+00
     13.605  0.5621E-01  0.5606E+00
     13.689  0.4862E-01  0.5647E+00
     13.773  0.3586E-01  0.5677E+00
     13.857  0.4138E-01  0.5712E+00
     13.941  0.4259E-01  0.5747E+00
     14.025  0.5740E-01  0.5795E+00
     14.109  0.4673E-01  0.5835E+00
     14.193  0.3487E-01  0.5864E+00
     14.277  0.3248E-01  0.5891E+00
     14.361  0.3247E-01  0.5919E+00
     14.445  0.3911E-01  0.5951E+00
     14.529  0.4281E-01  0.5987E+00
     14.613  0.6780E-01  0.6044E+00
     14.697  0.5839E-01  0.6093E+00
     14.781  0.4775E-01  0.6133E+00
     14.865  0.4780E-01  0.6173E+00
     14.949  0.4491E-01  0.6211E+00
     15.033  0.2781E-01  0.6235E+00
     15.117  0.3851E-01  0.6267E+00
     15.200  0.3581E-01  0.6297E+00
     15.284  0.2913E-01  0.6321E+00
     15.368  0.2348E-01  0.6341E+00
     15.452  0.3720E-01  0.6372E+00
     15.536  0.3524E-01  0.6402E+00
     15.620  0.2522E-01  0.6423E+00
     15.704  0.2810E-01  0.6447E+00
     15.788  0.3077E-01  0.6473E+00
     15.872  0.2915E-01  0.6497E+00
     15.956  0.2338E-01  0.6517E+00
     16.040  0.1401E-01  0.6528E+00
     16.124  0.2839E-01  0.6552E+00
     16.208  0.2961E-01  0.6577E+00
     16.292  0.1622E-01  0.6591E+00
     16.376  0.4745E-02  0.6595E+00
     16.460  0.3274E-02  0.6597E+00
     16.544  0.1299E-02  0.6599E+00
     16.628  0.1601E-02  0.6600E+00
     16.712  0.1195E-03  0.6600E+00
     16.796  0.9202E-07  0.6600E+00
     16.880  0.3458E-12  0.6600E+00
     16.964  0.0000E+00  0.6600E+00
     17.048  0.0000E+00  0.6600E+00
     17.132  0.0000E+00  0.6600E+00
     17.216  0.0000E+00  0.6600E+00
     17.300  0.0000E+00  0.6600E+00
     17.383  0.0000E+00  0.6600E+00
     17.467  0.0000E+00  0.6600E+00
     17.551  0.0000E+00  0.6600E+00
     17.635  0.0000E+00  0.6600E+00
     17.719  0.0000E+00  0.6600E+00
