       N       E                     dE             d eps       ncg     rms          rms(c)
DAV:   1    -0.260097100928E+03   -0.26010E+03   -0.96169E+01  5676   0.265E+01    0.261E+01
DAV:   2    -0.224297211289E+03    0.35800E+02   -0.58689E+01  5388   0.211E+01    0.970E+00
DAV:   3    -0.224992678144E+03   -0.69547E+00   -0.48158E+00  5610   0.734E+00    0.767E+00
DAV:   4    -0.225244870362E+03   -0.25219E+00   -0.51908E-01  5778   0.251E+00    0.462E+00
DAV:   5    -0.225360828820E+03   -0.11596E+00   -0.21312E-01  5346   0.201E+00    0.398E-01
DAV:   6    -0.225364517988E+03   -0.36892E-02   -0.17225E-02  5814   0.478E-01    0.237E-01
DAV:   7    -0.225365762547E+03   -0.12446E-02   -0.14398E-03  6186   0.164E-01    0.170E-01
DAV:   8    -0.225367213012E+03   -0.14505E-02   -0.22844E-03  5376   0.210E-01    0.565E-02
DAV:   9    -0.225367327754E+03   -0.11474E-03   -0.21104E-04  5718   0.635E-02    0.305E-02
DAV:  10    -0.225367362742E+03   -0.34988E-04   -0.11996E-04  6324   0.431E-02    0.159E-02
DAV:  11    -0.225367376075E+03   -0.13333E-04   -0.19498E-05  3408   0.178E-02    0.874E-03
DAV:  12    -0.225367380149E+03   -0.40732E-05   -0.73277E-06  3048   0.116E-02
   1 F= -.22536738E+03 E0= -.22536738E+03  d E =-.225367E+03
       N       E                     dE             d eps       ncg     rms          rms(c)
DAV:   1    -0.225451655446E+03   -0.84279E-01   -0.41922E+00  5370   0.835E+00    0.198E+00
DAV:   2    -0.225398057895E+03    0.53598E-01   -0.28949E-01  5640   0.173E+00    0.102E+00
DAV:   3    -0.225399027943E+03   -0.97005E-03   -0.35988E-02  5568   0.580E-01    0.410E-01
DAV:   4    -0.225399625218E+03   -0.59727E-03   -0.13688E-03  5676   0.157E-01    0.192E-01
DAV:   5    -0.225399764759E+03   -0.13954E-03   -0.29211E-04  5526   0.753E-02    0.114E-01
DAV:   6    -0.225399824728E+03   -0.59969E-04   -0.10773E-04  5490   0.451E-02    0.413E-02
DAV:   7    -0.225399810471E+03    0.14257E-04   -0.12996E-05  2994   0.125E-02    0.147E-02
DAV:   8    -0.225399807254E+03    0.32169E-05   -0.57696E-06  2928   0.778E-03
   2 F= -.22539981E+03 E0= -.22539981E+03  d E =-.324271E-01
       N       E                     dE             d eps       ncg     rms          rms(c)
DAV:   1    -0.225459364402E+03   -0.59554E-01   -0.77525E-01  5388   0.354E+00    0.860E-01
DAV:   2    -0.225450051272E+03    0.93131E-02   -0.55914E-02  5628   0.753E-01    0.443E-01
DAV:   3    -0.225450062632E+03   -0.11359E-04   -0.66906E-03  5556   0.250E-01    0.182E-01
DAV:   4    -0.225450108382E+03   -0.45750E-04   -0.26580E-04  5664   0.698E-02    0.836E-02
DAV:   5    -0.225450089009E+03    0.19373E-04   -0.54838E-05  5406   0.329E-02    0.489E-02
DAV:   6    -0.225450065732E+03    0.23277E-04   -0.18305E-05  3060   0.194E-02    0.163E-02
DAV:   7    -0.225450069518E+03   -0.37860E-05   -0.19050E-06  2880   0.586E-03
   3 F= -.22545007E+03 E0= -.22545007E+03  d E =-.826894E-01
       N       E                     dE             d eps       ncg     rms          rms(c)
DAV:   1    -0.225450073451E+03   -0.77195E-05   -0.19847E-05  2952   0.180E-02    0.366E-03
DAV:   2    -0.225450072579E+03    0.87190E-06   -0.15294E-06  2652   0.521E-03
   4 F= -.22545007E+03 E0= -.22545007E+03  d E =-.826924E-01
       N       E                     dE             d eps       ncg     rms          rms(c)
DAV:   1    -0.225451242803E+03   -0.11694E-02   -0.37414E-02  4752   0.786E-01    0.382E-02
DAV:   2    -0.225451347284E+03   -0.10448E-03   -0.12533E-03  6192   0.129E-01    0.338E-02
DAV:   3    -0.225451331557E+03    0.15726E-04   -0.36180E-05  4932   0.268E-02    0.229E-02
DAV:   4    -0.225451327181E+03    0.43759E-05   -0.63648E-05  5484   0.294E-02
   5 F= -.22545133E+03 E0= -.22545133E+03  d E =-.125460E-02
       N       E                     dE             d eps       ncg     rms          rms(c)
DAV:   1    -0.225451578455E+03   -0.24690E-03   -0.20476E-02  4800   0.582E-01    0.312E-02
DAV:   2    -0.225451641320E+03   -0.62865E-04   -0.71699E-04  6192   0.974E-02    0.270E-02
DAV:   3    -0.225451632705E+03    0.86147E-05   -0.18538E-05  3852   0.207E-02
   6 F= -.22545163E+03 E0= -.22545163E+03  d E =-.156013E-02
       N       E                     dE             d eps       ncg     rms          rms(c)
DAV:   1    -0.225452276946E+03   -0.63563E-03   -0.59161E-02  4752   0.966E-01    0.431E-02
DAV:   2    -0.225452312453E+03   -0.35507E-04   -0.13655E-03  5784   0.137E-01    0.354E-02
DAV:   3    -0.225452295242E+03    0.17211E-04   -0.60282E-05  5760   0.313E-02    0.239E-02
DAV:   4    -0.225452283333E+03    0.11908E-04   -0.43009E-05  5130   0.250E-02    0.788E-03
DAV:   5    -0.225452283513E+03   -0.17947E-06   -0.12742E-05  3306   0.114E-02
   7 F= -.22545228E+03 E0= -.22545228E+03  d E =-.650808E-03
       N       E                     dE             d eps       ncg     rms          rms(c)
DAV:   1    -0.225452367186E+03   -0.83853E-04   -0.15397E-02  4776   0.492E-01    0.223E-02
DAV:   2    -0.225452376709E+03   -0.95227E-05   -0.35641E-04  5784   0.700E-02    0.174E-02
DAV:   3    -0.225452372166E+03    0.45430E-05   -0.14525E-05  3996   0.157E-02
   8 F= -.22545237E+03 E0= -.22545237E+03  d E =-.739461E-03
       N       E                     dE             d eps       ncg     rms          rms(c)
DAV:   1    -0.225452559672E+03   -0.18296E-03   -0.33700E-02  4776   0.739E-01    0.341E-02
DAV:   2    -0.225452591304E+03   -0.31632E-04   -0.94073E-04  6000   0.117E-01    0.277E-02
DAV:   3    -0.225452582460E+03    0.88445E-05   -0.52618E-05  5202   0.282E-02
   9 F= -.22545258E+03 E0= -.22545258E+03  d E =-.210294E-03
       N       E                     dE             d eps       ncg     rms          rms(c)
DAV:   1    -0.225452581419E+03    0.98849E-05   -0.74040E-04  4782   0.109E-01    0.718E-03
DAV:   2    -0.225452584952E+03   -0.35326E-05   -0.42543E-05  4734   0.230E-02
  10 F= -.22545258E+03 E0= -.22545258E+03  d E =-.212786E-03
       N       E                     dE             d eps       ncg     rms          rms(c)
DAV:   1    -0.225452682045E+03   -0.10063E-03   -0.38841E-03  4776   0.255E-01    0.156E-02
DAV:   2    -0.225452694629E+03   -0.12584E-04   -0.12785E-04  5868   0.421E-02    0.122E-02
DAV:   3    -0.225452694736E+03   -0.10713E-06   -0.69185E-06  3060   0.111E-02
  11 F= -.22545269E+03 E0= -.22545269E+03  d E =-.109784E-03
       N       E                     dE             d eps       ncg     rms          rms(c)
DAV:   1    -0.225452698404E+03   -0.37745E-05   -0.23994E-04  4860   0.631E-02    0.640E-03
DAV:   2    -0.225452699613E+03   -0.12097E-05   -0.56244E-06  3240   0.960E-03
  12 F= -.22545270E+03 E0= -.22545270E+03  d E =-.114661E-03
       N       E                     dE             d eps       ncg     rms          rms(c)
DAV:   1    -0.225452728688E+03   -0.30285E-04   -0.41362E-03  4752   0.255E-01    0.106E-02
DAV:   2    -0.225452733847E+03   -0.51583E-05   -0.94260E-05  5982   0.366E-02
  13 F= -.22545273E+03 E0= -.22545273E+03  d E =-.342335E-04
