  56  56   0   0
  0.1012355E+02  0.8276378E-09  0.8276378E-09  0.8276378E-09  0.5000000E-15
  1.000000000000000E-004
  CAR 
 Al4C3 Fd-3m - r2SCAN H(P) scan @ 30 GPa 
     17.25632711     -7.72228734  301      9.51816051      1.00000000
     -7.722  0.0000E+00  0.0000E+00
     -7.639  0.0000E+00  0.0000E+00
     -7.556  0.0000E+00  0.0000E+00
     -7.473  0.0000E+00  0.0000E+00
     -7.389  0.0000E+00  0.0000E+00
     -7.306  0.0000E+00  0.0000E+00
     -7.223  0.0000E+00  0.0000E+00
     -7.139  0.0000E+00  0.0000E+00
     -7.056  0.0000E+00  0.0000E+00
     -6.973  0.0000E+00  0.0000E+00
     -6.890  0.0000E+00  0.0000E+00
     -6.806  0.5014E-12  0.4175E-13
     -6.723  0.1092E-06  0.9092E-08
     -6.640  0.1256E-03  0.1047E-04
     -6.557  0.1536E-02  0.1383E-03
     -6.473  0.6540E-02  0.6828E-03
     -6.390  0.1184E-01  0.1669E-02
     -6.307  0.1714E-01  0.3095E-02
     -6.224  0.1247E-01  0.4133E-02
     -6.140  0.9613E-02  0.4934E-02
     -6.057  0.2832E-01  0.7292E-02
     -5.974  0.4149E-01  0.1075E-01
     -5.891  0.2254E-01  0.1262E-01
     -5.807  0.7203E-02  0.1322E-01
     -5.724  0.4335E-01  0.1683E-01
     -5.641  0.3187E-01  0.1949E-01
     -5.557  0.4470E-01  0.2321E-01
     -5.474  0.6720E-01  0.2880E-01
     -5.391  0.4245E-01  0.3234E-01
     -5.308  0.2896E-01  0.3475E-01
     -5.224  0.1537E-02  0.3488E-01
     -5.141  0.1308E-01  0.3597E-01
     -5.058  0.9622E-02  0.3677E-01
     -4.975  0.2930E-01  0.3921E-01
     -4.891  0.4580E-01  0.4302E-01
     -4.808  0.6737E-02  0.4358E-01
     -4.725  0.1703E-01  0.4500E-01
     -4.642  0.8535E-02  0.4571E-01
     -4.558  0.4699E-01  0.4962E-01
     -4.475  0.5846E-01  0.5449E-01
     -4.392  0.6863E-01  0.6020E-01
     -4.309  0.3938E-01  0.6348E-01
     -4.225  0.2198E-01  0.6531E-01
     -4.142  0.9706E-02  0.6612E-01
     -4.059  0.2736E-01  0.6840E-01
     -3.975  0.3080E-01  0.7096E-01
     -3.892  0.1571E-02  0.7109E-01
     -3.809  0.4214E-03  0.7113E-01
     -3.726  0.2216E-01  0.7297E-01
     -3.642  0.2584E-01  0.7513E-01
     -3.559  0.5815E-01  0.7997E-01
     -3.476  0.3647E-01  0.8300E-01
     -3.393  0.5536E-01  0.8761E-01
     -3.309  0.7541E-01  0.9389E-01
     -3.226  0.6526E-01  0.9933E-01
     -3.143  0.4782E-01  0.1033E+00
     -3.060  0.6004E-01  0.1083E+00
     -2.976  0.8371E-01  0.1153E+00
     -2.893  0.7937E-01  0.1219E+00
     -2.810  0.1063E+00  0.1307E+00
     -2.727  0.8920E-01  0.1382E+00
     -2.643  0.1427E+00  0.1500E+00
     -2.560  0.1029E+00  0.1586E+00
     -2.477  0.5312E-01  0.1630E+00
     -2.394  0.2938E-01  0.1655E+00
     -2.310  0.6959E-01  0.1713E+00
     -2.227  0.7785E-01  0.1778E+00
     -2.144  0.1785E+00  0.1926E+00
     -2.060  0.1500E+00  0.2051E+00
     -1.977  0.1048E+00  0.2138E+00
     -1.894  0.1986E+00  0.2304E+00
     -1.811  0.6828E-01  0.2361E+00
     -1.727  0.3670E-01  0.2391E+00
     -1.644  0.1053E-01  0.2400E+00
     -1.561  0.8220E-04  0.2400E+00
     -1.478  0.7627E-08  0.2400E+00
     -1.394  0.4888E-14  0.2400E+00
     -1.311  0.0000E+00  0.2400E+00
     -1.228  0.0000E+00  0.2400E+00
     -1.145  0.0000E+00  0.2400E+00
     -1.061  0.0000E+00  0.2400E+00
     -0.978  0.0000E+00  0.2400E+00
     -0.895  0.0000E+00  0.2400E+00
     -0.812  0.0000E+00  0.2400E+00
     -0.728  0.0000E+00  0.2400E+00
     -0.645  0.0000E+00  0.2400E+00
     -0.562  0.0000E+00  0.2400E+00
     -0.478  0.0000E+00  0.2400E+00
     -0.395  0.0000E+00  0.2400E+00
     -0.312  0.0000E+00  0.2400E+00
     -0.229  0.0000E+00  0.2400E+00
     -0.145  0.0000E+00  0.2400E+00
     -0.062  0.0000E+00  0.2400E+00
      0.021  0.0000E+00  0.2400E+00
      0.104  0.3354E-16  0.2400E+00
      0.188  0.1674E-09  0.2400E+00
      0.271  0.3906E-05  0.2400E+00
      0.354  0.5682E-03  0.2400E+00
      0.437  0.1243E-02  0.2402E+00
      0.521  0.6107E-04  0.2402E+00
      0.604  0.3492E-04  0.2402E+00
      0.687  0.3920E-02  0.2405E+00
      0.770  0.7579E-02  0.2411E+00
      0.854  0.1434E-01  0.2423E+00
      0.937  0.8756E-02  0.2430E+00
      1.020  0.1103E-01  0.2440E+00
      1.103  0.3112E-02  0.2442E+00
      1.187  0.1661E-04  0.2442E+00
      1.270  0.4110E-02  0.2446E+00
      1.353  0.3781E-01  0.2477E+00
      1.437  0.5019E-01  0.2519E+00
      1.520  0.3768E-01  0.2550E+00
      1.603  0.3687E-01  0.2581E+00
      1.686  0.1470E-01  0.2593E+00
      1.770  0.5845E-01  0.2642E+00
      1.853  0.7879E-01  0.2707E+00
      1.936  0.8412E-01  0.2778E+00
      2.019  0.8711E-01  0.2850E+00
      2.103  0.8640E-01  0.2922E+00
      2.186  0.1124E+00  0.3016E+00
      2.269  0.3948E-01  0.3048E+00
      2.352  0.7406E-01  0.3110E+00
      2.436  0.1524E+00  0.3237E+00
      2.519  0.9233E-01  0.3314E+00
      2.602  0.7414E-01  0.3376E+00
      2.685  0.1309E+00  0.3485E+00
      2.769  0.1343E+00  0.3596E+00
      2.852  0.1012E+00  0.3681E+00
      2.935  0.8273E-01  0.3750E+00
      3.019  0.7103E-01  0.3809E+00
      3.102  0.2293E-01  0.3828E+00
      3.185  0.7258E-01  0.3888E+00
      3.268  0.9303E-01  0.3966E+00
      3.352  0.1194E+00  0.4065E+00
      3.435  0.8366E-01  0.4135E+00
      3.518  0.6609E-01  0.4190E+00
      3.601  0.6753E-01  0.4246E+00
      3.685  0.1962E-01  0.4262E+00
      3.768  0.6660E-01  0.4318E+00
      3.851  0.9181E-01  0.4394E+00
      3.934  0.6925E-01  0.4452E+00
      4.018  0.7128E-01  0.4511E+00
      4.101  0.4740E-01  0.4551E+00
      4.184  0.1097E+00  0.4642E+00
      4.267  0.3165E-01  0.4668E+00
      4.351  0.2194E-01  0.4687E+00
      4.434  0.1212E+00  0.4788E+00
      4.517  0.1052E+00  0.4875E+00
      4.600  0.5945E-01  0.4925E+00
      4.684  0.9231E-01  0.5002E+00
      4.767  0.6130E-01  0.5053E+00
      4.850  0.3740E-01  0.5084E+00
      4.934  0.1069E+00  0.5173E+00
      5.017  0.7067E-01  0.5232E+00
      5.100  0.3642E-01  0.5262E+00
      5.183  0.1387E-01  0.5273E+00
      5.267  0.2417E-01  0.5294E+00
      5.350  0.8442E-01  0.5364E+00
      5.433  0.1165E+00  0.5461E+00
      5.516  0.9761E-01  0.5542E+00
      5.600  0.1312E+00  0.5651E+00
      5.683  0.1269E+00  0.5757E+00
      5.766  0.1507E+00  0.5883E+00
      5.849  0.8591E-01  0.5954E+00
      5.933  0.5647E-01  0.6001E+00
      6.016  0.9213E-01  0.6078E+00
      6.099  0.6879E-01  0.6135E+00
      6.182  0.1235E+00  0.6238E+00
      6.266  0.8411E-01  0.6308E+00
      6.349  0.6797E-01  0.6364E+00
      6.432  0.1607E+00  0.6498E+00
      6.516  0.1460E+00  0.6620E+00
      6.599  0.1646E+00  0.6757E+00
      6.682  0.1454E+00  0.6878E+00
      6.765  0.1358E+00  0.6991E+00
      6.849  0.2227E+00  0.7176E+00
      6.932  0.1448E+00  0.7297E+00
      7.015  0.1231E+00  0.7399E+00
      7.098  0.1977E+00  0.7564E+00
      7.182  0.1949E+00  0.7726E+00
      7.265  0.1393E+00  0.7842E+00
      7.348  0.1810E+00  0.7993E+00
      7.431  0.2193E+00  0.8176E+00
      7.515  0.1970E+00  0.8340E+00
      7.598  0.2222E+00  0.8525E+00
      7.681  0.1409E+00  0.8642E+00
      7.764  0.1439E+00  0.8762E+00
      7.848  0.6238E-01  0.8814E+00
      7.931  0.3268E-01  0.8841E+00
      8.014  0.4495E-01  0.8878E+00
      8.098  0.8336E-01  0.8948E+00
      8.181  0.4171E-01  0.8982E+00
      8.264  0.1072E+00  0.9072E+00
      8.347  0.1021E+00  0.9157E+00
      8.431  0.8394E-01  0.9227E+00
      8.514  0.5233E-01  0.9270E+00
      8.597  0.7706E-01  0.9334E+00
      8.680  0.1086E+00  0.9425E+00
      8.764  0.7291E-01  0.9485E+00
      8.847  0.3152E-01  0.9512E+00
      8.930  0.1193E-01  0.9522E+00
      9.013  0.4151E-01  0.9556E+00
      9.097  0.2953E-01  0.9581E+00
      9.180  0.1707E-01  0.9595E+00
      9.263  0.4824E-02  0.9599E+00
      9.346  0.1170E-02  0.9600E+00
      9.430  0.4340E-05  0.9600E+00
      9.513  0.9452E-10  0.9600E+00
      9.596  0.9376E-17  0.9600E+00
      9.679  0.0000E+00  0.9600E+00
      9.763  0.0000E+00  0.9600E+00
      9.846  0.0000E+00  0.9600E+00
      9.929  0.0000E+00  0.9600E+00
     10.013  0.0000E+00  0.9600E+00
     10.096  0.0000E+00  0.9600E+00
     10.179  0.0000E+00  0.9600E+00
     10.262  0.0000E+00  0.9600E+00
     10.346  0.0000E+00  0.9600E+00
     10.429  0.0000E+00  0.9600E+00
     10.512  0.0000E+00  0.9600E+00
     10.595  0.3548E-14  0.9600E+00
     10.679  0.4157E-08  0.9600E+00
     10.762  0.2384E-04  0.9600E+00
     10.845  0.1004E-02  0.9601E+00
     10.928  0.8362E-03  0.9602E+00
     11.012  0.1250E-04  0.9602E+00
     11.095  0.1282E-08  0.9602E+00
     11.178  0.6147E-10  0.9602E+00
     11.261  0.4375E-05  0.9602E+00
     11.345  0.1766E-02  0.9603E+00
     11.428  0.8491E-02  0.9610E+00
     11.511  0.9968E-03  0.9611E+00
     11.595  0.1194E-05  0.9611E+00
     11.678  0.5078E-05  0.9611E+00
     11.761  0.2796E-02  0.9613E+00
     11.844  0.1720E-01  0.9628E+00
     11.928  0.7541E-02  0.9634E+00
     12.011  0.9983E-02  0.9642E+00
     12.094  0.6483E-02  0.9648E+00
     12.177  0.3261E-01  0.9675E+00
     12.261  0.6114E-01  0.9726E+00
     12.344  0.6885E-01  0.9783E+00
     12.427  0.1300E+00  0.9891E+00
     12.510  0.4820E-01  0.9931E+00
     12.594  0.3329E-01  0.9959E+00
     12.677  0.6079E-01  0.1001E+01
     12.760  0.3021E-01  0.1003E+01
     12.843  0.1691E-01  0.1005E+01
     12.927  0.1015E+00  0.1013E+01
     13.010  0.1240E+00  0.1024E+01
     13.093  0.4663E-01  0.1028E+01
     13.176  0.3087E-01  0.1030E+01
     13.260  0.1114E+00  0.1039E+01
     13.343  0.1807E+00  0.1054E+01
     13.426  0.5682E-01  0.1059E+01
     13.510  0.9520E-01  0.1067E+01
     13.593  0.1978E+00  0.1084E+01
     13.676  0.1737E+00  0.1098E+01
     13.759  0.6196E-01  0.1103E+01
     13.843  0.2021E-01  0.1105E+01
     13.926  0.2772E-01  0.1107E+01
     14.009  0.5539E-01  0.1112E+01
     14.092  0.5384E-01  0.1116E+01
     14.176  0.3122E-01  0.1119E+01
     14.259  0.7753E-01  0.1125E+01
     14.342  0.3890E-01  0.1129E+01
     14.425  0.8562E-01  0.1136E+01
     14.509  0.7207E-01  0.1142E+01
     14.592  0.4371E-01  0.1145E+01
     14.675  0.1292E+00  0.1156E+01
     14.758  0.8315E-01  0.1163E+01
     14.842  0.9025E-01  0.1171E+01
     14.925  0.1176E+00  0.1180E+01
     15.008  0.1232E+00  0.1191E+01
     15.092  0.2121E+00  0.1208E+01
     15.175  0.9732E-01  0.1216E+01
     15.258  0.9827E-01  0.1225E+01
     15.341  0.8886E-01  0.1232E+01
     15.425  0.8322E-01  0.1239E+01
     15.508  0.1033E+00  0.1247E+01
     15.591  0.4262E-01  0.1251E+01
     15.674  0.5020E-01  0.1255E+01
     15.758  0.3082E-01  0.1258E+01
     15.841  0.2752E-02  0.1258E+01
     15.924  0.1706E-01  0.1259E+01
     16.007  0.3256E-02  0.1260E+01
     16.091  0.7400E-03  0.1260E+01
     16.174  0.2767E-02  0.1260E+01
     16.257  0.2512E-03  0.1260E+01
     16.340  0.2184E-06  0.1260E+01
     16.424  0.1003E-11  0.1260E+01
     16.507  0.0000E+00  0.1260E+01
     16.590  0.0000E+00  0.1260E+01
     16.673  0.0000E+00  0.1260E+01
     16.757  0.0000E+00  0.1260E+01
     16.840  0.0000E+00  0.1260E+01
     16.923  0.0000E+00  0.1260E+01
     17.007  0.0000E+00  0.1260E+01
     17.090  0.0000E+00  0.1260E+01
     17.173  0.0000E+00  0.1260E+01
     17.256  0.0000E+00  0.1260E+01
