Al4C3 anti-CaFe2O4-type, volume pre-scal
   1.00000000000000     
     2.8187555447193535    0.0000000000000000    0.0000000000000000
     0.0000000000000000    8.6113218535573530    0.0000000000000000
     0.0000000000000000    0.0000000000000000    9.9892759840490584
   Al   C 
    16    12
Direct
  0.2500000000000000  0.4227135479304099  0.5863543770869490
  0.7500000000000000  0.5772864520695898  0.4136456229130511
  0.2500000000000000  0.9227135479304102  0.9136456229130510
  0.7500000000000000  0.0772864520695901  0.0863543770869489
  0.2500000000000000  0.4817490444400137  0.2061775242277578
  0.7500000000000000  0.5182509555599862  0.7938224757722421
  0.2500000000000000  0.9817490444400138  0.2938224757722425
  0.7500000000000000  0.0182509555599863  0.7061775242277579
  0.2500000000000000  0.1461943101190636  0.5153459080416894
  0.7500000000000000  0.8538056898809293  0.4846540919583105
  0.2500000000000000  0.6461943101190707  0.9846540919583106
  0.7500000000000000  0.3538056898809365  0.0153459080416895
  0.7500000000000000  0.2680189796347729  0.3008574237826377
  0.2500000000000000  0.7319810203652273  0.6991425762173624
  0.2500000000000000  0.2319810203652271  0.8008574237826376
  0.7500000000000000  0.7680189796347727  0.1991425762173624
  0.7500000000000000  0.7516771781596180  0.8592131490524330
  0.2500000000000000  0.2483228218403820  0.1407868509475671
  0.7500000000000000  0.2516771781596181  0.6407868509475670
  0.2500000000000000  0.7483228218403820  0.3592131490524330
  0.2500000000000000  0.9286929209213670  0.6109856872876416
  0.7500000000000000  0.5713070790786330  0.1109856872876415
  0.2500000000000000  0.4286929209213671  0.8890143127123584
  0.7500000000000000  0.0713070790786329  0.3890143127123585
  0.7500000000000000  0.0941945114298387  0.8884356213967687
  0.2500000000000000  0.9058054885701612  0.1115643786032313
  0.7500000000000000  0.5941945114298388  0.6115643786032313
  0.2500000000000000  0.4058054885701612  0.3884356213967687
 
  0.00000000E+00  0.00000000E+00  0.00000000E+00
  0.00000000E+00  0.00000000E+00  0.00000000E+00
  0.00000000E+00  0.00000000E+00  0.00000000E+00
  0.00000000E+00  0.00000000E+00  0.00000000E+00
  0.00000000E+00  0.00000000E+00  0.00000000E+00
  0.00000000E+00  0.00000000E+00  0.00000000E+00
  0.00000000E+00  0.00000000E+00  0.00000000E+00
  0.00000000E+00  0.00000000E+00  0.00000000E+00
  0.00000000E+00  0.00000000E+00  0.00000000E+00
  0.00000000E+00  0.00000000E+00  0.00000000E+00
  0.00000000E+00  0.00000000E+00  0.00000000E+00
  0.00000000E+00  0.00000000E+00  0.00000000E+00
  0.00000000E+00  0.00000000E+00  0.00000000E+00
  0.00000000E+00  0.00000000E+00  0.00000000E+00
  0.00000000E+00  0.00000000E+00  0.00000000E+00
  0.00000000E+00  0.00000000E+00  0.00000000E+00
  0.00000000E+00  0.00000000E+00  0.00000000E+00
  0.00000000E+00  0.00000000E+00  0.00000000E+00
  0.00000000E+00  0.00000000E+00  0.00000000E+00
  0.00000000E+00  0.00000000E+00  0.00000000E+00
  0.00000000E+00  0.00000000E+00  0.00000000E+00
  0.00000000E+00  0.00000000E+00  0.00000000E+00
  0.00000000E+00  0.00000000E+00  0.00000000E+00
  0.00000000E+00  0.00000000E+00  0.00000000E+00
  0.00000000E+00  0.00000000E+00  0.00000000E+00
  0.00000000E+00  0.00000000E+00  0.00000000E+00
  0.00000000E+00  0.00000000E+00  0.00000000E+00
  0.00000000E+00  0.00000000E+00  0.00000000E+00
