Al4C3 Pbam polymorph (findsym-output) - 
   1.00000000000000     
     8.8491614057069850    0.0000000000000000    0.0000000000000000
     0.0000000000000000    5.1095822735524585    0.0000000000000000
     0.0000000000000000    0.0000000000000000    3.0267699315552345
   Al   C 
     8     6
Direct
  0.7848633988637300  0.1585533189909722  0.0000000000000000
  0.2151366011362700  0.8414466810090278 -0.0000000000000000
  0.7151366011362700  0.6585533189909722  0.0000000000000000
  0.2848633988637299  0.3414466810090277 -0.0000000000000000
  0.0262790589425594  0.2536117016382827  0.5000000000000000
  0.9737209650574425  0.7463882983617103  0.5000000000000000
  0.4737209350574401  0.7536117016382897  0.5000000000000000
  0.5262790349425575  0.2463882983617104  0.5000000000000000
  0.0000000000000000  0.0000000000000000  0.0000000000000000
  0.5000000000000000  0.5000000000000000  0.0000000000000000
  0.8268064963933760  0.4525872445501335  0.5000000000000000
  0.1731935036066240  0.5474127554498661  0.5000000000000000
  0.6731935036066240  0.9525872445501339  0.5000000000000000
  0.3268064963933761  0.0474127554498664  0.5000000000000000
 
  0.00000000E+00  0.00000000E+00  0.00000000E+00
  0.00000000E+00  0.00000000E+00  0.00000000E+00
  0.00000000E+00  0.00000000E+00  0.00000000E+00
  0.00000000E+00  0.00000000E+00  0.00000000E+00
  0.00000000E+00  0.00000000E+00  0.00000000E+00
  0.00000000E+00  0.00000000E+00  0.00000000E+00
  0.00000000E+00  0.00000000E+00  0.00000000E+00
  0.00000000E+00  0.00000000E+00  0.00000000E+00
  0.00000000E+00  0.00000000E+00  0.00000000E+00
  0.00000000E+00  0.00000000E+00  0.00000000E+00
  0.00000000E+00  0.00000000E+00  0.00000000E+00
  0.00000000E+00  0.00000000E+00  0.00000000E+00
  0.00000000E+00  0.00000000E+00  0.00000000E+00
  0.00000000E+00  0.00000000E+00  0.00000000E+00
