  14  14   0   0
  0.9940081E+01  0.8898548E-09  0.5138098E-09  0.3043662E-09  0.5000000E-15
  1.000000000000000E-004
  CAR 
 Al4C3 Pbam - r2SCAN H(P) scan @ 10 GPa (
     19.18552398     -7.42365647  301      9.89582329      1.00000000
     -7.424  0.0000E+00  0.0000E+00
     -7.335  0.0000E+00  0.0000E+00
     -7.246  0.0000E+00  0.0000E+00
     -7.158  0.0000E+00  0.0000E+00
     -7.069  0.0000E+00  0.0000E+00
     -6.980  0.0000E+00  0.0000E+00
     -6.891  0.0000E+00  0.0000E+00
     -6.803  0.0000E+00  0.0000E+00
     -6.714  0.0000E+00  0.0000E+00
     -6.625  0.0000E+00  0.0000E+00
     -6.537  0.0000E+00  0.0000E+00
     -6.448  0.6849E-14  0.6075E-15
     -6.359  0.7393E-08  0.6558E-09
     -6.271  0.2020E-04  0.1793E-05
     -6.182  0.3264E-03  0.3075E-04
     -6.093  0.1503E-02  0.1641E-03
     -6.005  0.2841E-02  0.4161E-03
     -5.916  0.3152E-02  0.6956E-03
     -5.827  0.2604E-02  0.9266E-03
     -5.738  0.2840E-02  0.1179E-02
     -5.650  0.6591E-02  0.1763E-02
     -5.561  0.7471E-02  0.2426E-02
     -5.472  0.2617E-02  0.2658E-02
     -5.384  0.2385E-02  0.2869E-02
     -5.295  0.7670E-02  0.3550E-02
     -5.206  0.9828E-02  0.4421E-02
     -5.118  0.6441E-02  0.4993E-02
     -5.029  0.5922E-02  0.5518E-02
     -4.940  0.8782E-02  0.6297E-02
     -4.851  0.9159E-02  0.7109E-02
     -4.763  0.1108E-01  0.8092E-02
     -4.674  0.1006E-01  0.8984E-02
     -4.585  0.5630E-02  0.9484E-02
     -4.497  0.3428E-02  0.9788E-02
     -4.408  0.7449E-02  0.1045E-01
     -4.319  0.8545E-02  0.1121E-01
     -4.231  0.9903E-02  0.1208E-01
     -4.142  0.4350E-02  0.1247E-01
     -4.053  0.9020E-02  0.1327E-01
     -3.964  0.1291E-01  0.1442E-01
     -3.876  0.9460E-02  0.1525E-01
     -3.787  0.6235E-02  0.1581E-01
     -3.698  0.1487E-01  0.1713E-01
     -3.610  0.1493E-01  0.1845E-01
     -3.521  0.7488E-02  0.1912E-01
     -3.432  0.9662E-02  0.1997E-01
     -3.344  0.2035E-01  0.2178E-01
     -3.255  0.1153E-01  0.2280E-01
     -3.166  0.1561E-01  0.2418E-01
     -3.077  0.1228E-01  0.2527E-01
     -2.989  0.7775E-02  0.2596E-01
     -2.900  0.2150E-01  0.2787E-01
     -2.811  0.1721E-01  0.2940E-01
     -2.723  0.1858E-01  0.3105E-01
     -2.634  0.1898E-01  0.3273E-01
     -2.545  0.1906E-01  0.3442E-01
     -2.457  0.2948E-01  0.3703E-01
     -2.368  0.2700E-01  0.3943E-01
     -2.279  0.2124E-01  0.4131E-01
     -2.191  0.3149E-01  0.4411E-01
     -2.102  0.2265E-01  0.4612E-01
     -2.013  0.1517E-01  0.4746E-01
     -1.924  0.1290E-01  0.4861E-01
     -1.836  0.1244E-01  0.4971E-01
     -1.747  0.1150E-01  0.5073E-01
     -1.658  0.8061E-02  0.5144E-01
     -1.570  0.8057E-02  0.5216E-01
     -1.481  0.1440E-01  0.5344E-01
     -1.392  0.1417E-01  0.5469E-01
     -1.304  0.9102E-02  0.5550E-01
     -1.215  0.3717E-02  0.5583E-01
     -1.126  0.8349E-02  0.5657E-01
     -1.037  0.8862E-02  0.5736E-01
     -0.949  0.6159E-02  0.5790E-01
     -0.860  0.1333E-02  0.5802E-01
     -0.771  0.1698E-02  0.5817E-01
     -0.683  0.6597E-02  0.5876E-01
     -0.594  0.3687E-02  0.5908E-01
     -0.505  0.2829E-02  0.5933E-01
     -0.417  0.5870E-03  0.5939E-01
     -0.328  0.2769E-02  0.5963E-01
     -0.239  0.1207E-02  0.5974E-01
     -0.150  0.2089E-02  0.5992E-01
     -0.062  0.3607E-03  0.5996E-01
      0.027  0.4825E-03  0.6000E-01
      0.116  0.1505E-04  0.6000E-01
      0.204  0.1955E-08  0.6000E-01
      0.293  0.6109E-15  0.6000E-01
      0.382  0.0000E+00  0.6000E-01
      0.470  0.0000E+00  0.6000E-01
      0.559  0.0000E+00  0.6000E-01
      0.648  0.0000E+00  0.6000E-01
      0.736  0.4408E-15  0.6000E-01
      0.825  0.1245E-08  0.6000E-01
      0.914  0.8507E-05  0.6000E-01
      1.003  0.2648E-03  0.6002E-01
      1.091  0.8952E-03  0.6010E-01
      1.180  0.2049E-02  0.6029E-01
      1.269  0.2442E-02  0.6050E-01
      1.357  0.4793E-02  0.6093E-01
      1.446  0.6949E-02  0.6154E-01
      1.535  0.1122E-01  0.6254E-01
      1.623  0.1514E-01  0.6388E-01
      1.712  0.1324E-01  0.6506E-01
      1.801  0.1047E-01  0.6598E-01
      1.890  0.1869E-01  0.6764E-01
      1.978  0.3375E-01  0.7064E-01
      2.067  0.1935E-01  0.7235E-01
      2.156  0.2133E-01  0.7424E-01
      2.244  0.2313E-01  0.7630E-01
      2.333  0.1894E-01  0.7798E-01
      2.422  0.2111E-01  0.7985E-01
      2.510  0.1714E-01  0.8137E-01
      2.599  0.1833E-01  0.8299E-01
      2.688  0.1777E-01  0.8457E-01
      2.777  0.1747E-01  0.8612E-01
      2.865  0.1485E-01  0.8744E-01
      2.954  0.2658E-01  0.8979E-01
      3.043  0.2214E-01  0.9176E-01
      3.131  0.2177E-01  0.9369E-01
      3.220  0.1946E-01  0.9542E-01
      3.309  0.1145E-01  0.9643E-01
      3.397  0.1791E-01  0.9802E-01
      3.486  0.2435E-01  0.1002E+00
      3.575  0.1796E-01  0.1018E+00
      3.664  0.2010E-01  0.1036E+00
      3.752  0.1541E-01  0.1049E+00
      3.841  0.1340E-01  0.1061E+00
      3.930  0.1451E-01  0.1074E+00
      4.018  0.1442E-01  0.1087E+00
      4.107  0.1851E-01  0.1103E+00
      4.196  0.2366E-01  0.1124E+00
      4.284  0.3113E-01  0.1152E+00
      4.373  0.2671E-01  0.1175E+00
      4.462  0.1868E-01  0.1192E+00
      4.550  0.2070E-01  0.1210E+00
      4.639  0.1364E-01  0.1223E+00
      4.728  0.1265E-01  0.1234E+00
      4.817  0.1778E-01  0.1249E+00
      4.905  0.2180E-01  0.1269E+00
      4.994  0.2469E-01  0.1291E+00
      5.083  0.3053E-01  0.1318E+00
      5.171  0.2329E-01  0.1338E+00
      5.260  0.2529E-01  0.1361E+00
      5.349  0.2202E-01  0.1380E+00
      5.437  0.1663E-01  0.1395E+00
      5.526  0.2487E-01  0.1417E+00
      5.615  0.2725E-01  0.1441E+00
      5.704  0.2341E-01  0.1462E+00
      5.792  0.2608E-01  0.1485E+00
      5.881  0.2466E-01  0.1507E+00
      5.970  0.1699E-01  0.1522E+00
      6.058  0.1412E-01  0.1535E+00
      6.147  0.2303E-01  0.1555E+00
      6.236  0.2500E-01  0.1577E+00
      6.324  0.2262E-01  0.1597E+00
      6.413  0.1915E-01  0.1614E+00
      6.502  0.3304E-01  0.1644E+00
      6.591  0.3891E-01  0.1678E+00
      6.679  0.2415E-01  0.1700E+00
      6.768  0.1545E-01  0.1713E+00
      6.857  0.1712E-01  0.1729E+00
      6.945  0.3147E-01  0.1756E+00
      7.034  0.2575E-01  0.1779E+00
      7.123  0.3006E-01  0.1806E+00
      7.211  0.2188E-01  0.1825E+00
      7.300  0.1999E-01  0.1843E+00
      7.389  0.2996E-01  0.1870E+00
      7.477  0.3181E-01  0.1898E+00
      7.566  0.2787E-01  0.1923E+00
      7.655  0.3462E-01  0.1953E+00
      7.744  0.2265E-01  0.1973E+00
      7.832  0.2800E-01  0.1998E+00
      7.921  0.2082E-01  0.2017E+00
      8.010  0.3342E-01  0.2046E+00
      8.098  0.3510E-01  0.2077E+00
      8.187  0.2759E-01  0.2102E+00
      8.276  0.1500E-01  0.2115E+00
      8.364  0.2304E-01  0.2136E+00
      8.453  0.1844E-01  0.2152E+00
      8.542  0.3343E-01  0.2182E+00
      8.631  0.3473E-01  0.2212E+00
      8.719  0.2960E-01  0.2239E+00
      8.808  0.3271E-01  0.2268E+00
      8.897  0.2736E-01  0.2292E+00
      8.985  0.2835E-01  0.2317E+00
      9.074  0.2117E-01  0.2336E+00
      9.163  0.1867E-01  0.2353E+00
      9.251  0.1555E-01  0.2366E+00
      9.340  0.9594E-02  0.2375E+00
      9.429  0.4285E-02  0.2379E+00
      9.518  0.6452E-02  0.2384E+00
      9.606  0.6766E-02  0.2390E+00
      9.695  0.3243E-02  0.2393E+00
      9.784  0.3313E-02  0.2396E+00
      9.872  0.3346E-02  0.2399E+00
      9.961  0.3317E-02  0.2402E+00
     10.050  0.1234E-02  0.2403E+00
     10.138  0.2663E-03  0.2403E+00
     10.227  0.2256E-02  0.2405E+00
     10.316  0.1035E-02  0.2406E+00
     10.404  0.1207E-02  0.2407E+00
     10.493  0.4443E-03  0.2408E+00
     10.582  0.1007E-04  0.2408E+00
     10.671  0.1229E-02  0.2409E+00
     10.759  0.5639E-02  0.2414E+00
     10.848  0.5481E-03  0.2414E+00
     10.937  0.3328E-02  0.2417E+00
     11.025  0.3888E-02  0.2421E+00
     11.114  0.1505E-02  0.2422E+00
     11.203  0.8801E-03  0.2423E+00
     11.291  0.2241E-02  0.2425E+00
     11.380  0.6955E-02  0.2431E+00
     11.469  0.5862E-02  0.2436E+00
     11.558  0.2155E-02  0.2438E+00
     11.646  0.1758E-02  0.2440E+00
     11.735  0.1809E-02  0.2441E+00
     11.824  0.4643E-02  0.2445E+00
     11.912  0.5443E-02  0.2450E+00
     12.001  0.1215E-01  0.2461E+00
     12.090  0.7865E-02  0.2468E+00
     12.178  0.4753E-02  0.2472E+00
     12.267  0.5561E-02  0.2477E+00
     12.356  0.8768E-02  0.2485E+00
     12.445  0.1139E-01  0.2495E+00
     12.533  0.1446E-01  0.2508E+00
     12.622  0.1339E-01  0.2520E+00
     12.711  0.1184E-01  0.2530E+00
     12.799  0.1406E-01  0.2543E+00
     12.888  0.2053E-01  0.2561E+00
     12.977  0.1396E-01  0.2573E+00
     13.065  0.1465E-01  0.2586E+00
     13.154  0.1474E-01  0.2599E+00
     13.243  0.1425E-01  0.2612E+00
     13.332  0.2024E-01  0.2630E+00
     13.420  0.1447E-01  0.2643E+00
     13.509  0.1655E-01  0.2657E+00
     13.598  0.1976E-01  0.2675E+00
     13.686  0.2048E-01  0.2693E+00
     13.775  0.1922E-01  0.2710E+00
     13.864  0.1862E-01  0.2727E+00
     13.952  0.1772E-01  0.2742E+00
     14.041  0.1901E-01  0.2759E+00
     14.130  0.2175E-01  0.2779E+00
     14.218  0.1883E-01  0.2795E+00
     14.307  0.1601E-01  0.2810E+00
     14.396  0.1383E-01  0.2822E+00
     14.485  0.2018E-01  0.2840E+00
     14.573  0.2363E-01  0.2861E+00
     14.662  0.2282E-01  0.2881E+00
     14.751  0.2094E-01  0.2899E+00
     14.839  0.2393E-01  0.2921E+00
     14.928  0.2168E-01  0.2940E+00
     15.017  0.2686E-01  0.2964E+00
     15.105  0.2725E-01  0.2988E+00
     15.194  0.3019E-01  0.3015E+00
     15.283  0.2639E-01  0.3038E+00
     15.372  0.3097E-01  0.3066E+00
     15.460  0.1807E-01  0.3082E+00
     15.549  0.2585E-01  0.3105E+00
     15.638  0.3127E-01  0.3132E+00
     15.726  0.2175E-01  0.3152E+00
     15.815  0.2424E-01  0.3173E+00
     15.904  0.3020E-01  0.3200E+00
     15.992  0.3684E-01  0.3232E+00
     16.081  0.3644E-01  0.3265E+00
     16.170  0.2360E-01  0.3286E+00
     16.259  0.2071E-01  0.3304E+00
     16.347  0.2250E-01  0.3324E+00
     16.436  0.2950E-01  0.3350E+00
     16.525  0.2928E-01  0.3376E+00
     16.613  0.2495E-01  0.3398E+00
     16.702  0.1648E-01  0.3413E+00
     16.791  0.2101E-01  0.3432E+00
     16.879  0.2636E-01  0.3455E+00
     16.968  0.2203E-01  0.3475E+00
     17.057  0.2284E-01  0.3495E+00
     17.145  0.2122E-01  0.3514E+00
     17.234  0.2322E-01  0.3534E+00
     17.323  0.1711E-01  0.3549E+00
     17.412  0.2047E-01  0.3568E+00
     17.500  0.1281E-01  0.3579E+00
     17.589  0.8999E-02  0.3587E+00
     17.678  0.8198E-02  0.3594E+00
     17.766  0.2061E-02  0.3596E+00
     17.855  0.1404E-02  0.3597E+00
     17.944  0.1757E-02  0.3599E+00
     18.032  0.1302E-02  0.3600E+00
     18.121  0.8119E-04  0.3600E+00
     18.210  0.2958E-07  0.3600E+00
     18.299  0.2740E-13  0.3600E+00
     18.387  0.0000E+00  0.3600E+00
     18.476  0.0000E+00  0.3600E+00
     18.565  0.0000E+00  0.3600E+00
     18.653  0.0000E+00  0.3600E+00
     18.742  0.0000E+00  0.3600E+00
     18.831  0.0000E+00  0.3600E+00
     18.919  0.0000E+00  0.3600E+00
     19.008  0.0000E+00  0.3600E+00
     19.097  0.0000E+00  0.3600E+00
     19.186  0.0000E+00  0.3600E+00
