       N       E                     dE             d eps       ncg     rms          rms(c)
DAV:   1    -0.131957341518E+03   -0.13196E+03   -0.44017E+01  6528   0.241E+01    0.194E+01
DAV:   2    -0.113602264395E+03    0.18355E+02   -0.28274E+01  6192   0.198E+01    0.736E+00
DAV:   3    -0.113983858927E+03   -0.38159E+00   -0.26582E+00  6564   0.698E+00    0.544E+00
DAV:   4    -0.114139378684E+03   -0.15552E+00   -0.14565E-01  6780   0.184E+00    0.359E+00
DAV:   5    -0.114200337495E+03   -0.60959E-01   -0.90301E-02  6180   0.177E+00    0.252E-01
DAV:   6    -0.114201799397E+03   -0.14619E-02   -0.29883E-03  6576   0.299E-01    0.216E-01
DAV:   7    -0.114202217244E+03   -0.41785E-03   -0.59480E-04  6852   0.129E-01    0.154E-01
DAV:   8    -0.114202579396E+03   -0.36215E-03   -0.41520E-04  6252   0.124E-01    0.391E-02
DAV:   9    -0.114202622217E+03   -0.42821E-04   -0.71168E-05  6624   0.522E-02    0.124E-02
DAV:  10    -0.114202625702E+03   -0.34851E-05   -0.25108E-06  3612   0.902E-03
   1 F= -.10551687E+03 E0= -.10551652E+03  d E =-.105517E+03
       N       E                     dE             d eps       ncg     rms          rms(c)
DAV:   1    -0.113926315434E+03    0.27631E+00   -0.16516E+00  6120   0.696E+00    0.126E+00
DAV:   2    -0.113904388921E+03    0.21927E-01   -0.10217E-01  6396   0.141E+00    0.686E-01
DAV:   3    -0.113904625398E+03   -0.23648E-03   -0.12147E-02  6456   0.465E-01    0.294E-01
DAV:   4    -0.113904779727E+03   -0.15433E-03   -0.51691E-04  6432   0.126E-01    0.124E-01
DAV:   5    -0.113904802895E+03   -0.23168E-04   -0.10152E-04  6456   0.596E-02    0.631E-02
DAV:   6    -0.113904796145E+03    0.67502E-05   -0.42802E-05  6000   0.355E-02
   2 F= -.10551230E+03 E0= -.10551186E+03  d E =0.457678E-02
       N       E                     dE             d eps       ncg     rms          rms(c)
DAV:   1    -0.114093351836E+03   -0.18855E+00   -0.43177E-01  6156   0.351E+00    0.663E-01
DAV:   2    -0.114088010070E+03    0.53418E-02   -0.28675E-02  6372   0.736E-01    0.355E-01
DAV:   3    -0.114088217902E+03   -0.20783E-03   -0.29070E-03  6444   0.234E-01    0.157E-01
DAV:   4    -0.114088291896E+03   -0.73993E-04   -0.16404E-04  6432   0.711E-02    0.640E-02
DAV:   5    -0.114088308101E+03   -0.16205E-04   -0.21599E-05  4800   0.301E-02    0.305E-02
DAV:   6    -0.114088310279E+03   -0.21783E-05   -0.89909E-06  3420   0.199E-02
   3 F= -.10554544E+03 E0= -.10554505E+03  d E =-.285677E-01
       N       E                     dE             d eps       ncg     rms          rms(c)
DAV:   1    -0.114087529850E+03    0.77825E-03   -0.10360E-05  3168   0.185E-02    0.830E-03
DAV:   2    -0.114087528980E+03    0.86956E-06   -0.85548E-07  2928   0.546E-03
   4 F= -.10554544E+03 E0= -.10554504E+03  d E =-.285659E-01
       N       E                     dE             d eps       ncg     rms          rms(c)
DAV:   1    -0.114087618643E+03   -0.88793E-04   -0.60445E-07  2760   0.339E-03    0.312E-03
DAV:   2    -0.114087618407E+03    0.23558E-06   -0.53789E-08  2724   0.143E-03
   5 F= -.10554544E+03 E0= -.10554504E+03  d E =-.285650E-01
       N       E                     dE             d eps       ncg     rms          rms(c)
DAV:   1    -0.114087923931E+03   -0.30529E-03   -0.58137E-03  5208   0.391E-01    0.154E-02
DAV:   2    -0.114087926256E+03   -0.23255E-05   -0.13884E-04  6888   0.576E-02    0.128E-02
DAV:   3    -0.114087922752E+03    0.35043E-05   -0.57844E-06  3948   0.142E-02
   6 F= -.10554574E+03 E0= -.10554534E+03  d E =-.303229E-03
       N       E                     dE             d eps       ncg     rms          rms(c)
DAV:   1    -0.114088082718E+03   -0.15646E-03   -0.13542E-02  5208   0.597E-01    0.248E-02
DAV:   2    -0.114088092330E+03   -0.96114E-05   -0.30775E-04  6876   0.862E-02    0.207E-02
DAV:   3    -0.114088085819E+03    0.65108E-05   -0.14344E-05  4392   0.224E-02
   7 F= -.10554590E+03 E0= -.10554548E+03  d E =-.464584E-03
       N       E                     dE             d eps       ncg     rms          rms(c)
DAV:   1    -0.114088035073E+03    0.57257E-04   -0.22566E-02  5184   0.789E-01    0.252E-02
DAV:   2    -0.114088055203E+03   -0.20130E-04   -0.33791E-04  6780   0.950E-02    0.171E-02
DAV:   3    -0.114088047547E+03    0.76559E-05   -0.11464E-05  4260   0.229E-02
   8 F= -.10554614E+03 E0= -.10554570E+03  d E =-.231445E-03
       N       E                     dE             d eps       ncg     rms          rms(c)
DAV:   1    -0.114087781070E+03    0.27413E-03   -0.33885E-02  5208   0.969E-01    0.311E-02
DAV:   2    -0.114087807631E+03   -0.26561E-04   -0.44479E-04  6756   0.110E-01    0.204E-02
DAV:   3    -0.114087797350E+03    0.10281E-04   -0.18881E-05  4944   0.289E-02    0.113E-02
DAV:   4    -0.114087796432E+03    0.91808E-06   -0.25005E-05  4500   0.260E-02
   9 F= -.10554622E+03 E0= -.10554577E+03  d E =-.315248E-03
       N       E                     dE             d eps       ncg     rms          rms(c)
DAV:   1    -0.114088388902E+03   -0.59155E-03   -0.27325E-02  5208   0.884E-01    0.242E-02
DAV:   2    -0.114088406863E+03   -0.17961E-04   -0.26503E-04  6852   0.831E-02    0.177E-02
DAV:   3    -0.114088403746E+03    0.31177E-05   -0.75138E-06  4380   0.162E-02
  10 F= -.10554627E+03 E0= -.10554580E+03  d E =-.525231E-04
       N       E                     dE             d eps       ncg     rms          rms(c)
DAV:   1    -0.114088225953E+03    0.18091E-03   -0.34818E-03  5208   0.315E-01    0.786E-03
DAV:   2    -0.114088229983E+03   -0.40307E-05   -0.41404E-05  6768   0.326E-02
  11 F= -.10554629E+03 E0= -.10554582E+03  d E =-.736810E-04
