Al4C3 Pbam polymorph (findsym-output) - 
   1.00000000000000     
     8.8985475240443126    0.0000000000000000    0.0000000000000000
     0.0000000000000000    5.1380982450944890    0.0000000000000000
     0.0000000000000000    0.0000000000000000    3.0436619748988285
   Al   C 
     8     6
Direct
  0.7852577412650392  0.1567727413910114  0.0000000000000000
  0.2147422587349608  0.8432272586089887 -0.0000000000000000
  0.7147422587349608  0.6567727413910113  0.0000000000000000
  0.2852577412650392  0.3432272586089887 -0.0000000000000000
  0.0269604465919958  0.2537969302837786  0.5000000000000000
  0.9730395774080062  0.7462030697162144  0.5000000000000000
  0.4730395474080037  0.7537969302837856  0.5000000000000000
  0.5269604225919938  0.2462030697162144  0.5000000000000000
 -0.0000000000000000  0.0000000000000000  0.0000000000000000
  0.5000000000000000  0.5000000000000000  0.0000000000000000
  0.8264641835220355  0.4516705569005464  0.5000000000000000
  0.1735358164779645  0.5483294430994536  0.5000000000000000
  0.6735358164779645  0.9516705569005464  0.5000000000000000
  0.3264641835220355  0.0483294430994536  0.5000000000000000
 
  0.00000000E+00  0.00000000E+00  0.00000000E+00
  0.00000000E+00  0.00000000E+00  0.00000000E+00
  0.00000000E+00  0.00000000E+00  0.00000000E+00
  0.00000000E+00  0.00000000E+00  0.00000000E+00
  0.00000000E+00  0.00000000E+00  0.00000000E+00
  0.00000000E+00  0.00000000E+00  0.00000000E+00
  0.00000000E+00  0.00000000E+00  0.00000000E+00
  0.00000000E+00  0.00000000E+00  0.00000000E+00
  0.00000000E+00  0.00000000E+00  0.00000000E+00
  0.00000000E+00  0.00000000E+00  0.00000000E+00
  0.00000000E+00  0.00000000E+00  0.00000000E+00
  0.00000000E+00  0.00000000E+00  0.00000000E+00
  0.00000000E+00  0.00000000E+00  0.00000000E+00
  0.00000000E+00  0.00000000E+00  0.00000000E+00
