Al4C3 Pbam - r2SCAN H(P) scan @ 10 GPa (
           1
     8.898548    0.000000    0.000000
     0.000000    5.138098    0.000000
     0.000000    0.000000    3.043662
   Al   C 
     8     6
Direct configuration=     1
   0.78525774  0.15677274  0.00000000
   0.21474226  0.84322726  0.00000000
   0.71474226  0.65677274  0.00000000
   0.28525774  0.34322726  0.00000000
   0.02696045  0.25379693  0.50000000
   0.97303958  0.74620307  0.50000000
   0.47303955  0.75379693  0.50000000
   0.52696042  0.24620307  0.50000000
   0.00000000  0.00000000  0.00000000
   0.50000000  0.50000000  0.00000000
   0.82646418  0.45167056  0.50000000
   0.17353582  0.54832944  0.50000000
   0.67353582  0.95167056  0.50000000
   0.32646418  0.04832944  0.50000000
Al4C3 Pbam - r2SCAN H(P) scan @ 10 GPa (
           1
     8.797253    0.000000    0.000000
     0.000000    5.079610    0.000000
     0.000000    0.000000    3.009015
   Al   C 
     8     6
Direct configuration=     2
   0.78540553  0.15677510  0.00000000
   0.21459447  0.84322490  0.00000000
   0.71459447  0.65677510  0.00000000
   0.28540553  0.34322490  0.00000000
   0.02649751  0.25376554  0.50000000
   0.97350251  0.74623446  0.50000000
   0.47350248  0.75376554  0.50000000
   0.52649749  0.24623446  0.50000000
   0.00000000  0.00000000  0.00000000
   0.50000000  0.50000000  0.00000000
   0.82702884  0.45199051  0.50000000
   0.17297116  0.54800949  0.50000000
   0.67297116  0.95199051  0.50000000
   0.32702884  0.04800949  0.50000000
Al4C3 Pbam - r2SCAN H(P) scan @ 10 GPa (
           1
     8.849483    0.000000    0.000000
     0.000000    5.109768    0.000000
     0.000000    0.000000    3.026880
   Al   C 
     8     6
Direct configuration=     3
   0.78532845  0.15677387  0.00000000
   0.21467155  0.84322613  0.00000000
   0.71467155  0.65677387  0.00000000
   0.28532845  0.34322613  0.00000000
   0.02673896  0.25378191  0.50000000
   0.97326106  0.74621809  0.50000000
   0.47326103  0.75378191  0.50000000
   0.52673894  0.24621809  0.50000000
   0.00000000  0.00000000  0.00000000
   0.50000000  0.50000000  0.00000000
   0.82673434  0.45182364  0.50000000
   0.17326566  0.54817636  0.50000000
   0.67326566  0.95182364  0.50000000
   0.32673434  0.04817636  0.50000000
Al4C3 Pbam - r2SCAN H(P) scan @ 10 GPa (
           1
     8.849214    0.000000    0.000000
     0.000000    5.109612    0.000000
     0.000000    0.000000    3.026788
   Al   C 
     8     6
Direct configuration=     4
   0.78532884  0.15677388  0.00000000
   0.21467116  0.84322612  0.00000000
   0.71467116  0.65677388  0.00000000
   0.28532884  0.34322612  0.00000000
   0.02673772  0.25378183  0.50000000
   0.97326230  0.74621817  0.50000000
   0.47326227  0.75378183  0.50000000
   0.52673770  0.24621817  0.50000000
   0.00000000  0.00000000  0.00000000
   0.50000000  0.50000000  0.00000000
   0.82673585  0.45182449  0.50000000
   0.17326415  0.54817551  0.50000000
   0.67326415  0.95182449  0.50000000
   0.32673585  0.04817551  0.50000000
Al4C3 Pbam - r2SCAN H(P) scan @ 10 GPa (
           1
     8.849245    0.000000    0.000000
     0.000000    5.109631    0.000000
     0.000000    0.000000    3.026799
   Al   C 
     8     6
Direct configuration=     5
   0.78532880  0.15677388  0.00000000
   0.21467120  0.84322612  0.00000000
   0.71467120  0.65677388  0.00000000
   0.28532880  0.34322612  0.00000000
   0.02673787  0.25378184  0.50000000
   0.97326216  0.74621816  0.50000000
   0.47326213  0.75378184  0.50000000
   0.52673784  0.24621816  0.50000000
   0.00000000  0.00000000  0.00000000
   0.50000000  0.50000000  0.00000000
   0.82673567  0.45182439  0.50000000
   0.17326433  0.54817561  0.50000000
   0.67326433  0.95182439  0.50000000
   0.32673567  0.04817561  0.50000000
Al4C3 Pbam - r2SCAN H(P) scan @ 10 GPa (
           1
     8.849245    0.000000    0.000000
     0.000000    5.109631    0.000000
     0.000000    0.000000    3.026799
   Al   C 
     8     6
Direct configuration=     6
   0.78522887  0.15707456  0.00000000
   0.21477113  0.84292544  0.00000000
   0.71477113  0.65707456 -0.00000000
   0.28522887  0.34292544  0.00000000
   0.02664874  0.25373573  0.50000000
   0.97335129  0.74626427  0.50000000
   0.47335126  0.75373573  0.50000000
   0.52664871  0.24626427  0.50000000
   0.00000000  0.00000000  0.00000000
   0.50000000  0.50000000  0.00000000
   0.82680210  0.45177675  0.50000000
   0.17319790  0.54822325  0.50000000
   0.67319790  0.95177675  0.50000000
   0.32680210  0.04822325  0.50000000
Al4C3 Pbam - r2SCAN H(P) scan @ 10 GPa (
           1
     8.849246    0.000000    0.000000
     0.000000    5.109631    0.000000
     0.000000    0.000000    3.026799
   Al   C 
     8     6
Direct configuration=     7
   0.78507554  0.15753595  0.00000000
   0.21492446  0.84246405  0.00000000
   0.71492446  0.65753595 -0.00000000
   0.28507554  0.34246405  0.00000000
   0.02651197  0.25366498  0.50000000
   0.97348805  0.74633502  0.50000000
   0.47348802  0.75366498  0.50000000
   0.52651195  0.24633502  0.50000000
   0.00000000  0.00000000  0.00000000
   0.50000000  0.50000000  0.00000000
   0.82690403  0.45170364  0.50000000
   0.17309597  0.54829636  0.50000000
   0.67309597  0.95170364  0.50000000
   0.32690403  0.04829636  0.50000000
Al4C3 Pbam - r2SCAN H(P) scan @ 10 GPa (
           1
     8.849153    0.000000    0.000000
     0.000000    5.109577    0.000000
     0.000000    0.000000    3.026767
   Al   C 
     8     6
Direct configuration=     8
   0.78496547  0.15788117  0.00000000
   0.21503453  0.84211883  0.00000000
   0.71503453  0.65788117 -0.00000000
   0.28496547  0.34211883  0.00000000
   0.02645212  0.25369582  0.50000000
   0.97354790  0.74630418  0.50000000
   0.47354787  0.75369582  0.50000000
   0.52645210  0.24630418  0.50000000
   0.00000000  0.00000000  0.00000000
   0.50000000  0.50000000  0.00000000
   0.82685964  0.45199725  0.50000000
   0.17314036  0.54800275  0.50000000
   0.67314036  0.95199725  0.50000000
   0.32685964  0.04800275  0.50000000
Al4C3 Pbam - r2SCAN H(P) scan @ 10 GPa (
           1
     8.849037    0.000000    0.000000
     0.000000    5.109511    0.000000
     0.000000    0.000000    3.026727
   Al   C 
     8     6
Direct configuration=     9
   0.78482878  0.15830986  0.00000000
   0.21517122  0.84169014  0.00000000
   0.71517122  0.65830986 -0.00000000
   0.28482878  0.34169014  0.00000000
   0.02637779  0.25373411  0.50000000
   0.97362223  0.74626589  0.50000000
   0.47362220  0.75373411  0.50000000
   0.52637777  0.24626589  0.50000000
   0.00000000  0.00000000  0.00000000
   0.50000000  0.50000000  0.00000000
   0.82680452  0.45236184  0.50000000
   0.17319548  0.54763816  0.50000000
   0.67319548  0.95236184  0.50000000
   0.32680452  0.04763816  0.50000000
Al4C3 Pbam - r2SCAN H(P) scan @ 10 GPa (
           1
     8.849229    0.000000    0.000000
     0.000000    5.109621    0.000000
     0.000000    0.000000    3.026793
   Al   C 
     8     6
Direct configuration=    10
   0.78488215  0.15868518  0.00000000
   0.21511785  0.84131482 -0.00000000
   0.71511785  0.65868518  0.00000000
   0.28488215  0.34131482 -0.00000000
   0.02622558  0.25354540  0.50000000
   0.97377444  0.74645460  0.50000000
   0.47377441  0.75354540  0.50000000
   0.52622556  0.24645460  0.50000000
   0.00000000  0.00000000  0.00000000
   0.50000000  0.50000000  0.00000000
   0.82680756  0.45270933  0.50000000
   0.17319244  0.54729067  0.50000000
   0.67319244  0.95270933  0.50000000
   0.32680756  0.04729067  0.50000000
Al4C3 Pbam - r2SCAN H(P) scan @ 10 GPa (
           1
     8.849161    0.000000    0.000000
     0.000000    5.109582    0.000000
     0.000000    0.000000    3.026770
   Al   C 
     8     6
Direct configuration=    11
   0.78486340  0.15855332  0.00000000
   0.21513660  0.84144668 -0.00000000
   0.71513660  0.65855332  0.00000000
   0.28486340  0.34144668 -0.00000000
   0.02627906  0.25361170  0.50000000
   0.97372097  0.74638830  0.50000000
   0.47372094  0.75361170  0.50000000
   0.52627903  0.24638830  0.50000000
   0.00000000  0.00000000  0.00000000
   0.50000000  0.50000000  0.00000000
   0.82680650  0.45258724  0.50000000
   0.17319350  0.54741276  0.50000000
   0.67319350  0.95258724  0.50000000
   0.32680650  0.04741276  0.50000000
