Al4C3 I-43d polymorph (findsym-output, f
   1.00000000000000     
     6.3957044461458166    0.0000000000000000    0.0000000000000000
     0.0000000000000000    6.3957044461458166    0.0000000000000000
     0.0000000000000000    0.0000000000000000    6.3957044461458166
   Al   C 
    16    12
Direct
  0.3062247115205853  0.3062247115205853  0.3062247115205853
  0.1937752884794146  0.6937752884794147  0.8062247115205853
  0.6937752884794147  0.8062247115205853  0.1937752884794146
  0.8062247115205853  0.1937752884794146  0.6937752884794147
  0.5562247115205853  0.5562247115205853  0.5562247115205853
  0.9437752884794147  0.4437752884794147  0.0562247115205854
  0.0562247115205854  0.9437752884794147  0.4437752884794147
  0.4437752884794147  0.0562247115205854  0.9437752884794147
  0.8062247115205853  0.8062247115205853  0.8062247115205853
  0.6937752884794147  0.1937752884794146  0.3062247115205853
  0.1937752884794146  0.3062247115205853  0.6937752884794147
  0.3062247115205853  0.6937752884794147  0.1937752884794146
  0.0562247115205854  0.0562247115205854  0.0562247115205854
  0.4437752884794147  0.9437752884794147  0.5562247115205853
  0.5562247115205853  0.4437752884794147  0.9437752884794147
  0.9437752884794147  0.5562247115205853  0.4437752884794147
  0.3750000000000000  0.0000000000000000  0.2500000000000000
  0.1250000000000000  0.0000000000000000  0.7500000000000000
  0.6250000000000000  0.5000000000000000  0.2500000000000000
  0.8750000000000000  0.5000000000000000  0.7500000000000000
  0.2500000000000000  0.3750000000000000 -0.0000000000000000
  0.7500000000000000  0.1250000000000000 -0.0000000000000000
  0.2500000000000000  0.6250000000000000  0.5000000000000000
  0.7500000000000000  0.8750000000000000  0.5000000000000000
 -0.0000000000000000  0.2500000000000000  0.3750000000000000
  0.0000000000000000  0.7500000000000000  0.1250000000000000
  0.5000000000000000  0.2500000000000000  0.6250000000000000
  0.5000000000000000  0.7500000000000000  0.8750000000000000
 
  0.00000000E+00  0.00000000E+00  0.00000000E+00
  0.00000000E+00  0.00000000E+00  0.00000000E+00
  0.00000000E+00  0.00000000E+00  0.00000000E+00
  0.00000000E+00  0.00000000E+00  0.00000000E+00
  0.00000000E+00  0.00000000E+00  0.00000000E+00
  0.00000000E+00  0.00000000E+00  0.00000000E+00
  0.00000000E+00  0.00000000E+00  0.00000000E+00
  0.00000000E+00  0.00000000E+00  0.00000000E+00
  0.00000000E+00  0.00000000E+00  0.00000000E+00
  0.00000000E+00  0.00000000E+00  0.00000000E+00
  0.00000000E+00  0.00000000E+00  0.00000000E+00
  0.00000000E+00  0.00000000E+00  0.00000000E+00
  0.00000000E+00  0.00000000E+00  0.00000000E+00
  0.00000000E+00  0.00000000E+00  0.00000000E+00
  0.00000000E+00  0.00000000E+00  0.00000000E+00
  0.00000000E+00  0.00000000E+00  0.00000000E+00
  0.00000000E+00  0.00000000E+00  0.00000000E+00
  0.00000000E+00  0.00000000E+00  0.00000000E+00
  0.00000000E+00  0.00000000E+00  0.00000000E+00
  0.00000000E+00  0.00000000E+00  0.00000000E+00
  0.00000000E+00  0.00000000E+00  0.00000000E+00
  0.00000000E+00  0.00000000E+00  0.00000000E+00
  0.00000000E+00  0.00000000E+00  0.00000000E+00
  0.00000000E+00  0.00000000E+00  0.00000000E+00
  0.00000000E+00  0.00000000E+00  0.00000000E+00
  0.00000000E+00  0.00000000E+00  0.00000000E+00
  0.00000000E+00  0.00000000E+00  0.00000000E+00
  0.00000000E+00  0.00000000E+00  0.00000000E+00
