Al4C3 Pbam polymorph (findsym-output) - 
   1.00000000000000     
     8.9954935739644881    0.0000000000000000    0.0000000000000000
     0.0000000000000000    5.1940757321638955    0.0000000000000000
     0.0000000000000000    0.0000000000000000    3.0768214320980376
   Al   C 
     8     6
Direct
  0.7844235190047294  0.1548990059735547  0.0000000000000000
  0.2155764809952706  0.8451009940264453 -0.0000000000000000
  0.7155764809952706  0.6548990059735547  0.0000000000000000
  0.2844235190047295  0.3451009940264454 -0.0000000000000000
  0.0246235022958741  0.2541837787416257  0.5000000000000000
  0.9753765217041279  0.7458162212583672  0.5000000000000000
  0.4753764917041254  0.7541837787416328  0.5000000000000000
  0.5246234782958721  0.2458162212583672  0.5000000000000000
  0.0000000000000000 -0.0000000000000000 -0.0000000000000000
  0.5000000000000000  0.5000000000000000 -0.0000000000000000
  0.8275614264282045  0.4542466917740094  0.5000000000000000
  0.1724385735717957  0.5457533082259908  0.5000000000000000
  0.6724385735717955  0.9542466917740092  0.5000000000000000
  0.3275614264282043  0.0457533082259906  0.5000000000000000
 
  0.00000000E+00  0.00000000E+00  0.00000000E+00
  0.00000000E+00  0.00000000E+00  0.00000000E+00
  0.00000000E+00  0.00000000E+00  0.00000000E+00
  0.00000000E+00  0.00000000E+00  0.00000000E+00
  0.00000000E+00  0.00000000E+00  0.00000000E+00
  0.00000000E+00  0.00000000E+00  0.00000000E+00
  0.00000000E+00  0.00000000E+00  0.00000000E+00
  0.00000000E+00  0.00000000E+00  0.00000000E+00
  0.00000000E+00  0.00000000E+00  0.00000000E+00
  0.00000000E+00  0.00000000E+00  0.00000000E+00
  0.00000000E+00  0.00000000E+00  0.00000000E+00
  0.00000000E+00  0.00000000E+00  0.00000000E+00
  0.00000000E+00  0.00000000E+00  0.00000000E+00
  0.00000000E+00  0.00000000E+00  0.00000000E+00
