Al4C3 Pnma (POSCAR.IV, symmetrized via s
   1.00000000000000     
     8.0839242622496990    0.0000000000000000    0.0000000000000000
     0.0000000000000000    2.7888069624033851    0.0000000000000000
     0.0000000000000000    0.0000000000000000    9.6095095398892809
   Al   C 
    16    12
Direct
  0.2615242071877865  0.2500000000000000  0.2971353625489962
  0.2384757928122136  0.7500000000000000  0.7971353625489961
  0.7384757928122138  0.7500000000000000  0.7028646374510039
  0.7615242071877862  0.2500000000000000  0.2028646374510038
  0.3440698963408367  0.2500000000000000  0.0108687729670727
  0.1559301036591633  0.7500000000000000  0.5108687729670728
  0.6559301036591635  0.7500000000000000  0.9891312270329272
  0.8440698963408365  0.2500000000000000  0.4891312270329274
  0.5226180755517228  0.2500000000000000  0.7935635907036799
  0.9773819244482772  0.7500000000000000  0.2935635907036799
  0.4773819244482770  0.7500000000000000  0.2064364092963201
  0.0226180755517229  0.2500000000000000  0.7064364092963201
  0.0664256504606295  0.2500000000000000  0.0907770610594053
  0.4335743495393777  0.7500000000000000  0.5907770610594055
  0.9335743495393704  0.7500000000000000  0.9092229389405945
  0.5664256504606296  0.2500000000000000  0.4092229389405946
  0.2618882602881550  0.2500000000000000  0.6426183013057305
  0.2381117397118449  0.7500000000000000  0.1426183013057304
  0.7381117397118451  0.7500000000000000  0.3573816986942695
  0.7618882602881549  0.2500000000000000  0.8573816986942695
  0.6075525829386825  0.2500000000000000  0.6067591197530999
  0.8924474170613175  0.7500000000000000  0.1067591197531002
  0.3924474170613175  0.7500000000000000  0.3932408802468996
  0.1075525829386825  0.2500000000000000  0.8932408802469001
  0.0627490854655631  0.2500000000000000  0.3902147106802245
  0.4372509145344370  0.7500000000000000  0.8902147106802243
  0.9372509145344371  0.7500000000000000  0.6097852893197757
  0.5627490854655629  0.2500000000000000  0.1097852893197756
 
  0.00000000E+00  0.00000000E+00  0.00000000E+00
  0.00000000E+00  0.00000000E+00  0.00000000E+00
  0.00000000E+00  0.00000000E+00  0.00000000E+00
  0.00000000E+00  0.00000000E+00  0.00000000E+00
  0.00000000E+00  0.00000000E+00  0.00000000E+00
  0.00000000E+00  0.00000000E+00  0.00000000E+00
  0.00000000E+00  0.00000000E+00  0.00000000E+00
  0.00000000E+00  0.00000000E+00  0.00000000E+00
  0.00000000E+00  0.00000000E+00  0.00000000E+00
  0.00000000E+00  0.00000000E+00  0.00000000E+00
  0.00000000E+00  0.00000000E+00  0.00000000E+00
  0.00000000E+00  0.00000000E+00  0.00000000E+00
  0.00000000E+00  0.00000000E+00  0.00000000E+00
  0.00000000E+00  0.00000000E+00  0.00000000E+00
  0.00000000E+00  0.00000000E+00  0.00000000E+00
  0.00000000E+00  0.00000000E+00  0.00000000E+00
  0.00000000E+00  0.00000000E+00  0.00000000E+00
  0.00000000E+00  0.00000000E+00  0.00000000E+00
  0.00000000E+00  0.00000000E+00  0.00000000E+00
  0.00000000E+00  0.00000000E+00  0.00000000E+00
  0.00000000E+00  0.00000000E+00  0.00000000E+00
  0.00000000E+00  0.00000000E+00  0.00000000E+00
  0.00000000E+00  0.00000000E+00  0.00000000E+00
  0.00000000E+00  0.00000000E+00  0.00000000E+00
  0.00000000E+00  0.00000000E+00  0.00000000E+00
  0.00000000E+00  0.00000000E+00  0.00000000E+00
  0.00000000E+00  0.00000000E+00  0.00000000E+00
  0.00000000E+00  0.00000000E+00  0.00000000E+00
