  28  28   0   0
  0.7917468E+01  0.8146225E-09  0.2810299E-09  0.9683567E-09  0.5000000E-15
  1.000000000000000E-004
  CAR 
 Al4C3 Pnma - H(P) scan @ 80 GPa (ISIF=8)
     22.08108382     -5.49761099  301     13.26164705      1.00000000
     -5.498  0.0000E+00  0.0000E+00
     -5.406  0.0000E+00  0.0000E+00
     -5.314  0.0000E+00  0.0000E+00
     -5.222  0.0000E+00  0.0000E+00
     -5.130  0.0000E+00  0.0000E+00
     -5.038  0.0000E+00  0.0000E+00
     -4.946  0.0000E+00  0.0000E+00
     -4.854  0.0000E+00  0.0000E+00
     -4.762  0.0000E+00  0.0000E+00
     -4.670  0.0000E+00  0.0000E+00
     -4.578  0.0000E+00  0.0000E+00
     -4.486  0.2021E-14  0.1858E-15
     -4.394  0.5928E-08  0.5449E-09
     -4.303  0.2778E-04  0.2554E-05
     -4.211  0.5326E-03  0.5152E-04
     -4.119  0.2321E-02  0.2649E-03
     -4.027  0.4544E-02  0.6826E-03
     -3.935  0.4957E-02  0.1138E-02
     -3.843  0.4147E-02  0.1520E-02
     -3.751  0.5301E-02  0.2007E-02
     -3.659  0.9293E-02  0.2861E-02
     -3.567  0.1025E-01  0.3803E-02
     -3.475  0.6097E-02  0.4364E-02
     -3.383  0.5283E-02  0.4849E-02
     -3.291  0.1117E-01  0.5876E-02
     -3.199  0.1140E-01  0.6924E-02
     -3.107  0.6258E-02  0.7499E-02
     -3.016  0.1101E-01  0.8512E-02
     -2.924  0.1270E-01  0.9679E-02
     -2.832  0.1416E-01  0.1098E-01
     -2.740  0.1082E-01  0.1198E-01
     -2.648  0.1312E-01  0.1318E-01
     -2.556  0.8300E-02  0.1394E-01
     -2.464  0.1048E-01  0.1491E-01
     -2.372  0.1567E-01  0.1635E-01
     -2.280  0.1914E-01  0.1811E-01
     -2.188  0.1033E-01  0.1906E-01
     -2.096  0.9054E-02  0.1989E-01
     -2.004  0.1852E-01  0.2159E-01
     -1.912  0.2294E-01  0.2370E-01
     -1.820  0.1614E-01  0.2518E-01
     -1.729  0.1123E-01  0.2622E-01
     -1.637  0.1669E-01  0.2775E-01
     -1.545  0.1667E-01  0.2928E-01
     -1.453  0.1193E-01  0.3038E-01
     -1.361  0.1458E-01  0.3172E-01
     -1.269  0.2083E-01  0.3363E-01
     -1.177  0.2145E-01  0.3561E-01
     -1.085  0.2724E-01  0.3811E-01
     -0.993  0.2093E-01  0.4003E-01
     -0.901  0.1471E-01  0.4139E-01
     -0.809  0.2540E-01  0.4372E-01
     -0.717  0.2599E-01  0.4611E-01
     -0.625  0.1334E-01  0.4734E-01
     -0.533  0.1133E-01  0.4838E-01
     -0.442  0.2211E-01  0.5041E-01
     -0.350  0.2555E-01  0.5276E-01
     -0.258  0.3053E-01  0.5557E-01
     -0.166  0.3774E-01  0.5904E-01
     -0.074  0.2091E-01  0.6096E-01
      0.018  0.2215E-01  0.6299E-01
      0.110  0.2764E-01  0.6553E-01
      0.202  0.2730E-01  0.6804E-01
      0.294  0.3561E-01  0.7132E-01
      0.386  0.3537E-01  0.7457E-01
      0.478  0.3858E-01  0.7812E-01
      0.570  0.3976E-01  0.8177E-01
      0.662  0.3590E-01  0.8507E-01
      0.754  0.4197E-01  0.8893E-01
      0.845  0.3220E-01  0.9189E-01
      0.937  0.3848E-01  0.9543E-01
      1.029  0.3480E-01  0.9863E-01
      1.121  0.2278E-01  0.1007E+00
      1.213  0.1717E-01  0.1023E+00
      1.305  0.1713E-01  0.1039E+00
      1.397  0.1994E-01  0.1057E+00
      1.489  0.2361E-01  0.1079E+00
      1.581  0.1031E-01  0.1088E+00
      1.673  0.1464E-01  0.1102E+00
      1.765  0.1410E-01  0.1115E+00
      1.857  0.1812E-01  0.1131E+00
      1.949  0.8501E-02  0.1139E+00
      2.041  0.8863E-02  0.1147E+00
      2.132  0.1202E-01  0.1158E+00
      2.224  0.9817E-02  0.1167E+00
      2.316  0.9097E-02  0.1176E+00
      2.408  0.6858E-02  0.1182E+00
      2.500  0.9095E-02  0.1190E+00
      2.592  0.6628E-02  0.1196E+00
      2.684  0.2927E-02  0.1199E+00
      2.776  0.9076E-03  0.1200E+00
      2.868  0.3225E-05  0.1200E+00
      2.960  0.4813E-05  0.1200E+00
      3.052  0.6269E-03  0.1201E+00
      3.144  0.2573E-02  0.1203E+00
      3.236  0.4298E-02  0.1207E+00
      3.328  0.2821E-02  0.1209E+00
      3.420  0.4533E-02  0.1214E+00
      3.511  0.7462E-02  0.1221E+00
      3.603  0.1430E-01  0.1234E+00
      3.695  0.1462E-01  0.1247E+00
      3.787  0.1888E-01  0.1264E+00
      3.879  0.3137E-01  0.1293E+00
      3.971  0.3030E-01  0.1321E+00
      4.063  0.2876E-01  0.1348E+00
      4.155  0.3088E-01  0.1376E+00
      4.247  0.2397E-01  0.1398E+00
      4.339  0.2281E-01  0.1419E+00
      4.431  0.3713E-01  0.1453E+00
      4.523  0.4693E-01  0.1496E+00
      4.615  0.3418E-01  0.1528E+00
      4.707  0.2770E-01  0.1553E+00
      4.798  0.4238E-01  0.1592E+00
      4.890  0.4402E-01  0.1633E+00
      4.982  0.3264E-01  0.1663E+00
      5.074  0.3755E-01  0.1697E+00
      5.166  0.3141E-01  0.1726E+00
      5.258  0.3262E-01  0.1756E+00
      5.350  0.3393E-01  0.1787E+00
      5.442  0.2927E-01  0.1814E+00
      5.534  0.3646E-01  0.1848E+00
      5.626  0.3370E-01  0.1879E+00
      5.718  0.2758E-01  0.1904E+00
      5.810  0.2303E-01  0.1925E+00
      5.902  0.3185E-01  0.1954E+00
      5.994  0.3817E-01  0.1989E+00
      6.085  0.3790E-01  0.2024E+00
      6.177  0.3219E-01  0.2054E+00
      6.269  0.3328E-01  0.2084E+00
      6.361  0.2953E-01  0.2112E+00
      6.453  0.3431E-01  0.2143E+00
      6.545  0.4774E-01  0.2187E+00
      6.637  0.4121E-01  0.2225E+00
      6.729  0.3614E-01  0.2258E+00
      6.821  0.3045E-01  0.2286E+00
      6.913  0.3628E-01  0.2320E+00
      7.005  0.2964E-01  0.2347E+00
      7.097  0.2674E-01  0.2371E+00
      7.189  0.3315E-01  0.2402E+00
      7.281  0.3002E-01  0.2429E+00
      7.372  0.4826E-01  0.2474E+00
      7.464  0.4652E-01  0.2517E+00
      7.556  0.3900E-01  0.2552E+00
      7.648  0.4468E-01  0.2593E+00
      7.740  0.4722E-01  0.2637E+00
      7.832  0.3611E-01  0.2670E+00
      7.924  0.3585E-01  0.2703E+00
      8.016  0.5110E-01  0.2750E+00
      8.108  0.4069E-01  0.2787E+00
      8.200  0.3715E-01  0.2822E+00
      8.292  0.5479E-01  0.2872E+00
      8.384  0.3206E-01  0.2901E+00
      8.476  0.3720E-01  0.2936E+00
      8.568  0.2844E-01  0.2962E+00
      8.659  0.3680E-01  0.2996E+00
      8.751  0.2930E-01  0.3023E+00
      8.843  0.4632E-01  0.3065E+00
      8.935  0.3717E-01  0.3099E+00
      9.027  0.2939E-01  0.3126E+00
      9.119  0.5430E-01  0.3176E+00
      9.211  0.4047E-01  0.3213E+00
      9.303  0.4242E-01  0.3252E+00
      9.395  0.5170E-01  0.3300E+00
      9.487  0.3787E-01  0.3335E+00
      9.579  0.4493E-01  0.3376E+00
      9.671  0.4452E-01  0.3417E+00
      9.763  0.3995E-01  0.3454E+00
      9.855  0.5116E-01  0.3501E+00
      9.946  0.4635E-01  0.3543E+00
     10.038  0.4582E-01  0.3585E+00
     10.130  0.3527E-01  0.3618E+00
     10.222  0.2616E-01  0.3642E+00
     10.314  0.4031E-01  0.3679E+00
     10.406  0.4387E-01  0.3719E+00
     10.498  0.5477E-01  0.3770E+00
     10.590  0.6173E-01  0.3826E+00
     10.682  0.5821E-01  0.3880E+00
     10.774  0.5550E-01  0.3931E+00
     10.866  0.6977E-01  0.3995E+00
     10.958  0.5925E-01  0.4050E+00
     11.050  0.4955E-01  0.4095E+00
     11.142  0.4943E-01  0.4141E+00
     11.233  0.5927E-01  0.4195E+00
     11.325  0.6685E-01  0.4257E+00
     11.417  0.7094E-01  0.4322E+00
     11.509  0.7529E-01  0.4391E+00
     11.601  0.5359E-01  0.4440E+00
     11.693  0.5216E-01  0.4488E+00
     11.785  0.4188E-01  0.4527E+00
     11.877  0.4930E-01  0.4572E+00
     11.969  0.2708E-01  0.4597E+00
     12.061  0.4231E-01  0.4636E+00
     12.153  0.3686E-01  0.4670E+00
     12.245  0.2875E-01  0.4696E+00
     12.337  0.2396E-01  0.4718E+00
     12.429  0.2289E-01  0.4739E+00
     12.520  0.1799E-01  0.4756E+00
     12.612  0.1103E-01  0.4766E+00
     12.704  0.1360E-01  0.4778E+00
     12.796  0.9377E-02  0.4787E+00
     12.888  0.7323E-02  0.4794E+00
     12.980  0.4482E-02  0.4798E+00
     13.072  0.2299E-02  0.4800E+00
     13.164  0.7869E-04  0.4800E+00
     13.256  0.3276E-07  0.4800E+00
     13.348  0.2955E-13  0.4800E+00
     13.440  0.0000E+00  0.4800E+00
     13.532  0.0000E+00  0.4800E+00
     13.624  0.0000E+00  0.4800E+00
     13.716  0.0000E+00  0.4800E+00
     13.807  0.2604E-16  0.4800E+00
     13.899  0.7343E-09  0.4800E+00
     13.991  0.3039E-04  0.4800E+00
     14.083  0.2969E-02  0.4803E+00
     14.175  0.5939E-02  0.4808E+00
     14.267  0.1518E-01  0.4822E+00
     14.359  0.1000E-01  0.4831E+00
     14.451  0.1402E-01  0.4844E+00
     14.543  0.1719E-01  0.4860E+00
     14.635  0.2124E-01  0.4880E+00
     14.727  0.1801E-01  0.4896E+00
     14.819  0.2003E-01  0.4915E+00
     14.911  0.1697E-01  0.4930E+00
     15.003  0.8354E-02  0.4938E+00
     15.094  0.1414E-01  0.4951E+00
     15.186  0.1753E-01  0.4967E+00
     15.278  0.2466E-01  0.4990E+00
     15.370  0.2650E-01  0.5014E+00
     15.462  0.2980E-01  0.5041E+00
     15.554  0.4163E-01  0.5080E+00
     15.646  0.2425E-01  0.5102E+00
     15.738  0.2761E-01  0.5127E+00
     15.830  0.2272E-01  0.5148E+00
     15.922  0.2055E-01  0.5167E+00
     16.014  0.2972E-01  0.5194E+00
     16.106  0.2828E-01  0.5220E+00
     16.198  0.1657E-01  0.5236E+00
     16.290  0.1479E-01  0.5249E+00
     16.381  0.1483E-01  0.5263E+00
     16.473  0.9805E-02  0.5272E+00
     16.565  0.2075E-01  0.5291E+00
     16.657  0.2572E-01  0.5315E+00
     16.749  0.3080E-01  0.5343E+00
     16.841  0.2246E-01  0.5364E+00
     16.933  0.2490E-01  0.5386E+00
     17.025  0.2621E-01  0.5411E+00
     17.117  0.2199E-01  0.5431E+00
     17.209  0.2500E-01  0.5454E+00
     17.301  0.4963E-01  0.5499E+00
     17.393  0.5070E-01  0.5546E+00
     17.485  0.4633E-01  0.5589E+00
     17.577  0.2892E-01  0.5615E+00
     17.668  0.3058E-01  0.5643E+00
     17.760  0.3603E-01  0.5676E+00
     17.852  0.4746E-01  0.5720E+00
     17.944  0.4783E-01  0.5764E+00
     18.036  0.3041E-01  0.5792E+00
     18.128  0.3759E-01  0.5826E+00
     18.220  0.3834E-01  0.5862E+00
     18.312  0.2918E-01  0.5889E+00
     18.404  0.4525E-01  0.5930E+00
     18.496  0.3404E-01  0.5961E+00
     18.588  0.3084E-01  0.5990E+00
     18.680  0.2771E-01  0.6015E+00
     18.772  0.3614E-01  0.6049E+00
     18.864  0.3620E-01  0.6082E+00
     18.955  0.3841E-01  0.6117E+00
     19.047  0.3332E-01  0.6148E+00
     19.139  0.2552E-01  0.6171E+00
     19.231  0.2741E-01  0.6196E+00
     19.323  0.2199E-01  0.6217E+00
     19.415  0.3007E-01  0.6244E+00
     19.507  0.3687E-01  0.6278E+00
     19.599  0.3669E-01  0.6312E+00
     19.691  0.3497E-01  0.6344E+00
     19.783  0.3497E-01  0.6376E+00
     19.875  0.3434E-01  0.6408E+00
     19.967  0.3087E-01  0.6436E+00
     20.059  0.2439E-01  0.6459E+00
     20.151  0.2194E-01  0.6479E+00
     20.243  0.2167E-01  0.6499E+00
     20.334  0.1909E-01  0.6516E+00
     20.426  0.2562E-01  0.6540E+00
     20.518  0.3216E-01  0.6569E+00
     20.610  0.2050E-01  0.6588E+00
     20.702  0.8270E-02  0.6596E+00
     20.794  0.3433E-02  0.6599E+00
     20.886  0.1140E-02  0.6600E+00
     20.978  0.5582E-04  0.6600E+00
     21.070  0.1186E-07  0.6600E+00
     21.162  0.4042E-14  0.6600E+00
     21.254  0.0000E+00  0.6600E+00
     21.346  0.0000E+00  0.6600E+00
     21.438  0.0000E+00  0.6600E+00
     21.530  0.0000E+00  0.6600E+00
     21.621  0.0000E+00  0.6600E+00
     21.713  0.0000E+00  0.6600E+00
     21.805  0.0000E+00  0.6600E+00
     21.897  0.0000E+00  0.6600E+00
     21.989  0.0000E+00  0.6600E+00
     22.081  0.0000E+00  0.6600E+00
