Al4C3 I-43d polymorph (findsym-output, f
   1.00000000000000     
     6.3546867249863990    0.0000000000000000    0.0000000000000000
     0.0000000000000000    6.3546867249863990    0.0000000000000000
     0.0000000000000000    0.0000000000000000    6.3546867249863990
   Al   C 
    16    12
Direct
  0.3062432344362253  0.3062432344362253  0.3062432344362253
  0.1937567655637747  0.6937567655637747  0.8062432344362253
  0.6937567655637747  0.8062432344362253  0.1937567655637747
  0.8062432344362253  0.1937567655637747  0.6937567655637747
  0.5562432344362253  0.5562432344362253  0.5562432344362253
  0.9437567655637747  0.4437567655637747  0.0562432344362253
  0.0562432344362253  0.9437567655637747  0.4437567655637747
  0.4437567655637747  0.0562432344362253  0.9437567655637747
  0.8062432344362253  0.8062432344362253  0.8062432344362253
  0.6937567655637747  0.1937567655637747  0.3062432344362253
  0.1937567655637747  0.3062432344362253  0.6937567655637747
  0.3062432344362253  0.6937567655637747  0.1937567655637747
  0.0562432344362253  0.0562432344362253  0.0562432344362253
  0.4437567655637747  0.9437567655637747  0.5562432344362253
  0.5562432344362253  0.4437567655637747  0.9437567655637747
  0.9437567655637747  0.5562432344362253  0.4437567655637747
  0.3750000000000000  0.0000000000000000  0.2500000000000000
  0.1250000000000000  0.0000000000000000  0.7500000000000000
  0.6250000000000000  0.5000000000000000  0.2500000000000000
  0.8750000000000000  0.5000000000000000  0.7500000000000000
  0.2500000000000000  0.3750000000000000  0.0000000000000000
  0.7500000000000000  0.1250000000000000  0.0000000000000000
  0.2500000000000000  0.6250000000000000  0.5000000000000000
  0.7500000000000000  0.8750000000000000  0.5000000000000000
  0.0000000000000000  0.2500000000000000  0.3750000000000000
  0.0000000000000000  0.7500000000000000  0.1250000000000000
  0.5000000000000000  0.2500000000000000  0.6250000000000000
  0.5000000000000000  0.7500000000000000  0.8750000000000000
 
  0.00000000E+00  0.00000000E+00  0.00000000E+00
  0.00000000E+00  0.00000000E+00  0.00000000E+00
  0.00000000E+00  0.00000000E+00  0.00000000E+00
  0.00000000E+00  0.00000000E+00  0.00000000E+00
  0.00000000E+00  0.00000000E+00  0.00000000E+00
  0.00000000E+00  0.00000000E+00  0.00000000E+00
  0.00000000E+00  0.00000000E+00  0.00000000E+00
  0.00000000E+00  0.00000000E+00  0.00000000E+00
  0.00000000E+00  0.00000000E+00  0.00000000E+00
  0.00000000E+00  0.00000000E+00  0.00000000E+00
  0.00000000E+00  0.00000000E+00  0.00000000E+00
  0.00000000E+00  0.00000000E+00  0.00000000E+00
  0.00000000E+00  0.00000000E+00  0.00000000E+00
  0.00000000E+00  0.00000000E+00  0.00000000E+00
  0.00000000E+00  0.00000000E+00  0.00000000E+00
  0.00000000E+00  0.00000000E+00  0.00000000E+00
  0.00000000E+00  0.00000000E+00  0.00000000E+00
  0.00000000E+00  0.00000000E+00  0.00000000E+00
  0.00000000E+00  0.00000000E+00  0.00000000E+00
  0.00000000E+00  0.00000000E+00  0.00000000E+00
  0.00000000E+00  0.00000000E+00  0.00000000E+00
  0.00000000E+00  0.00000000E+00  0.00000000E+00
  0.00000000E+00  0.00000000E+00  0.00000000E+00
  0.00000000E+00  0.00000000E+00  0.00000000E+00
  0.00000000E+00  0.00000000E+00  0.00000000E+00
  0.00000000E+00  0.00000000E+00  0.00000000E+00
  0.00000000E+00  0.00000000E+00  0.00000000E+00
  0.00000000E+00  0.00000000E+00  0.00000000E+00
