Al4C3 I-43d - r2SCAN H(P) scan @ 10 GPa 
           1
     6.395704    0.000000    0.000000
     0.000000    6.395704    0.000000
     0.000000    0.000000    6.395704
   Al   C 
    16    12
Direct configuration=     1
   0.30622471  0.30622471  0.30622471
   0.19377529  0.69377529  0.80622471
   0.69377529  0.80622471  0.19377529
   0.80622471  0.19377529  0.69377529
   0.55622471  0.55622471  0.55622471
   0.94377529  0.44377529  0.05622471
   0.05622471  0.94377529  0.44377529
   0.44377529  0.05622471  0.94377529
   0.80622471  0.80622471  0.80622471
   0.69377529  0.19377529  0.30622471
   0.19377529  0.30622471  0.69377529
   0.30622471  0.69377529  0.19377529
   0.05622471  0.05622471  0.05622471
   0.44377529  0.94377529  0.55622471
   0.55622471  0.44377529  0.94377529
   0.94377529  0.55622471  0.44377529
   0.37500000  0.00000000  0.25000000
   0.12500000  0.00000000  0.75000000
   0.62500000  0.50000000  0.25000000
   0.87500000  0.50000000  0.75000000
   0.25000000  0.37500000  0.00000000
   0.75000000  0.12500000  0.00000000
   0.25000000  0.62500000  0.50000000
   0.75000000  0.87500000  0.50000000
   0.00000000  0.25000000  0.37500000
   0.00000000  0.75000000  0.12500000
   0.50000000  0.25000000  0.62500000
   0.50000000  0.75000000  0.87500000
Al4C3 I-43d - r2SCAN H(P) scan @ 10 GPa 
           1
     6.315633    0.000000    0.000000
     0.000000    6.315633    0.000000
     0.000000    0.000000    6.315633
   Al   C 
    16    12
Direct configuration=     2
   0.30585412  0.30585412  0.30585412
   0.19414588  0.69414588  0.80585412
   0.69414588  0.80585412  0.19414588
   0.80585412  0.19414588  0.69414588
   0.55585412  0.55585412  0.55585412
   0.94414588  0.44414588  0.05585412
   0.05585412  0.94414588  0.44414588
   0.44414588  0.05585412  0.94414588
   0.80585412  0.80585412  0.80585412
   0.69414588  0.19414588  0.30585412
   0.19414588  0.30585412  0.69414588
   0.30585412  0.69414588  0.19414588
   0.05585412  0.05585412  0.05585412
   0.44414588  0.94414588  0.55585412
   0.55585412  0.44414588  0.94414588
   0.94414588  0.55585412  0.44414588
   0.37500000  0.00000000  0.25000000
   0.12500000  0.00000000  0.75000000
   0.62500000  0.50000000  0.25000000
   0.87500000  0.50000000  0.75000000
   0.25000000  0.37500000  0.00000000
   0.75000000  0.12500000  0.00000000
   0.25000000  0.62500000  0.50000000
   0.75000000  0.87500000  0.50000000
   0.00000000  0.25000000  0.37500000
   0.00000000  0.75000000  0.12500000
   0.50000000  0.25000000  0.62500000
   0.50000000  0.75000000  0.87500000
Al4C3 I-43d - r2SCAN H(P) scan @ 10 GPa 
           1
     6.355754    0.000000    0.000000
     0.000000    6.355754    0.000000
     0.000000    0.000000    6.355754
   Al   C 
    16    12
Direct configuration=     3
   0.30604217  0.30604217  0.30604217
   0.19395783  0.69395783  0.80604217
   0.69395783  0.80604217  0.19395783
   0.80604217  0.19395783  0.69395783
   0.55604217  0.55604217  0.55604217
   0.94395783  0.44395783  0.05604217
   0.05604217  0.94395783  0.44395783
   0.44395783  0.05604217  0.94395783
   0.80604217  0.80604217  0.80604217
   0.69395783  0.19395783  0.30604217
   0.19395783  0.30604217  0.69395783
   0.30604217  0.69395783  0.19395783
   0.05604217  0.05604217  0.05604217
   0.44395783  0.94395783  0.55604217
   0.55604217  0.44395783  0.94395783
   0.94395783  0.55604217  0.44395783
   0.37500000  0.00000000  0.25000000
   0.12500000  0.00000000  0.75000000
   0.62500000  0.50000000  0.25000000
   0.87500000  0.50000000  0.75000000
   0.25000000  0.37500000  0.00000000
   0.75000000  0.12500000  0.00000000
   0.25000000  0.62500000  0.50000000
   0.75000000  0.87500000  0.50000000
   0.00000000  0.25000000  0.37500000
   0.00000000  0.75000000  0.12500000
   0.50000000  0.25000000  0.62500000
   0.50000000  0.75000000  0.87500000
Al4C3 I-43d - r2SCAN H(P) scan @ 10 GPa 
           1
     6.355604    0.000000    0.000000
     0.000000    6.355604    0.000000
     0.000000    0.000000    6.355604
   Al   C 
    16    12
Direct configuration=     4
   0.30604147  0.30604147  0.30604147
   0.19395853  0.69395853  0.80604147
   0.69395853  0.80604147  0.19395853
   0.80604147  0.19395853  0.69395853
   0.55604147  0.55604147  0.55604147
   0.94395853  0.44395853  0.05604147
   0.05604147  0.94395853  0.44395853
   0.44395853  0.05604147  0.94395853
   0.80604147  0.80604147  0.80604147
   0.69395853  0.19395853  0.30604147
   0.19395853  0.30604147  0.69395853
   0.30604147  0.69395853  0.19395853
   0.05604147  0.05604147  0.05604147
   0.44395853  0.94395853  0.55604147
   0.55604147  0.44395853  0.94395853
   0.94395853  0.55604147  0.44395853
   0.37500000  0.00000000  0.25000000
   0.12500000  0.00000000  0.75000000
   0.62500000  0.50000000  0.25000000
   0.87500000  0.50000000  0.75000000
   0.25000000  0.37500000  0.00000000
   0.75000000  0.12500000  0.00000000
   0.25000000  0.62500000  0.50000000
   0.75000000  0.87500000  0.50000000
   0.00000000  0.25000000  0.37500000
   0.00000000  0.75000000  0.12500000
   0.50000000  0.25000000  0.62500000
   0.50000000  0.75000000  0.87500000
Al4C3 I-43d - r2SCAN H(P) scan @ 10 GPa 
           1
     6.355650    0.000000    0.000000
     0.000000    6.355650    0.000000
     0.000000    0.000000    6.355650
   Al   C 
    16    12
Direct configuration=     5
   0.30604168  0.30604168  0.30604168
   0.19395832  0.69395832  0.80604168
   0.69395832  0.80604168  0.19395832
   0.80604168  0.19395832  0.69395832
   0.55604168  0.55604168  0.55604168
   0.94395832  0.44395832  0.05604168
   0.05604168  0.94395832  0.44395832
   0.44395832  0.05604168  0.94395832
   0.80604168  0.80604168  0.80604168
   0.69395832  0.19395832  0.30604168
   0.19395832  0.30604168  0.69395832
   0.30604168  0.69395832  0.19395832
   0.05604168  0.05604168  0.05604168
   0.44395832  0.94395832  0.55604168
   0.55604168  0.44395832  0.94395832
   0.94395832  0.55604168  0.44395832
   0.37500000  0.00000000  0.25000000
   0.12500000  0.00000000  0.75000000
   0.62500000  0.50000000  0.25000000
   0.87500000  0.50000000  0.75000000
   0.25000000  0.37500000  0.00000000
   0.75000000  0.12500000  0.00000000
   0.25000000  0.62500000  0.50000000
   0.75000000  0.87500000  0.50000000
   0.00000000  0.25000000  0.37500000
   0.00000000  0.75000000  0.12500000
   0.50000000  0.25000000  0.62500000
   0.50000000  0.75000000  0.87500000
Al4C3 I-43d - r2SCAN H(P) scan @ 10 GPa 
           1
     6.355702    0.000000    0.000000
     0.000000    6.355702    0.000000
     0.000000    0.000000    6.355702
   Al   C 
    16    12
Direct configuration=     6
   0.30604192  0.30604192  0.30604192
   0.19395808  0.69395808  0.80604192
   0.69395808  0.80604192  0.19395808
   0.80604192  0.19395808  0.69395808
   0.55604192  0.55604192  0.55604192
   0.94395808  0.44395808  0.05604192
   0.05604192  0.94395808  0.44395808
   0.44395808  0.05604192  0.94395808
   0.80604192  0.80604192  0.80604192
   0.69395808  0.19395808  0.30604192
   0.19395808  0.30604192  0.69395808
   0.30604192  0.69395808  0.19395808
   0.05604192  0.05604192  0.05604192
   0.44395808  0.94395808  0.55604192
   0.55604192  0.44395808  0.94395808
   0.94395808  0.55604192  0.44395808
   0.37500000  0.00000000  0.25000000
   0.12500000  0.00000000  0.75000000
   0.62500000  0.50000000  0.25000000
   0.87500000  0.50000000  0.75000000
   0.25000000  0.37500000  0.00000000
   0.75000000  0.12500000  0.00000000
   0.25000000  0.62500000  0.50000000
   0.75000000  0.87500000  0.50000000
   0.00000000  0.25000000  0.37500000
   0.00000000  0.75000000  0.12500000
   0.50000000  0.25000000  0.62500000
   0.50000000  0.75000000  0.87500000
Al4C3 I-43d - r2SCAN H(P) scan @ 10 GPa 
           1
     6.355448    0.000000    0.000000
     0.000000    6.355448    0.000000
     0.000000    0.000000    6.355448
   Al   C 
    16    12
Direct configuration=     7
   0.30609225  0.30609225  0.30609225
   0.19390775  0.69390775  0.80609225
   0.69390775  0.80609225  0.19390775
   0.80609225  0.19390775  0.69390775
   0.55609225  0.55609225  0.55609225
   0.94390775  0.44390775  0.05609225
   0.05609225  0.94390775  0.44390775
   0.44390775  0.05609225  0.94390775
   0.80609225  0.80609225  0.80609225
   0.69390775  0.19390775  0.30609225
   0.19390775  0.30609225  0.69390775
   0.30609225  0.69390775  0.19390775
   0.05609225  0.05609225  0.05609225
   0.44390775  0.94390775  0.55609225
   0.55609225  0.44390775  0.94390775
   0.94390775  0.55609225  0.44390775
   0.37500000  0.00000000  0.25000000
   0.12500000  0.00000000  0.75000000
   0.62500000  0.50000000  0.25000000
   0.87500000  0.50000000  0.75000000
   0.25000000  0.37500000  0.00000000
   0.75000000  0.12500000  0.00000000
   0.25000000  0.62500000  0.50000000
   0.75000000  0.87500000  0.50000000
   0.00000000  0.25000000  0.37500000
   0.00000000  0.75000000  0.12500000
   0.50000000  0.25000000  0.62500000
   0.50000000  0.75000000  0.87500000
Al4C3 I-43d - r2SCAN H(P) scan @ 10 GPa 
           1
     6.354687    0.000000    0.000000
     0.000000    6.354687    0.000000
     0.000000    0.000000    6.354687
   Al   C 
    16    12
Direct configuration=     8
   0.30624323  0.30624323  0.30624323
   0.19375677  0.69375677  0.80624323
   0.69375677  0.80624323  0.19375677
   0.80624323  0.19375677  0.69375677
   0.55624323  0.55624323  0.55624323
   0.94375677  0.44375677  0.05624323
   0.05624323  0.94375677  0.44375677
   0.44375677  0.05624323  0.94375677
   0.80624323  0.80624323  0.80624323
   0.69375677  0.19375677  0.30624323
   0.19375677  0.30624323  0.69375677
   0.30624323  0.69375677  0.19375677
   0.05624323  0.05624323  0.05624323
   0.44375677  0.94375677  0.55624323
   0.55624323  0.44375677  0.94375677
   0.94375677  0.55624323  0.44375677
   0.37500000  0.00000000  0.25000000
   0.12500000  0.00000000  0.75000000
   0.62500000  0.50000000  0.25000000
   0.87500000  0.50000000  0.75000000
   0.25000000  0.37500000  0.00000000
   0.75000000  0.12500000  0.00000000
   0.25000000  0.62500000  0.50000000
   0.75000000  0.87500000  0.50000000
   0.00000000  0.25000000  0.37500000
   0.00000000  0.75000000  0.12500000
   0.50000000  0.25000000  0.62500000
   0.50000000  0.75000000  0.87500000
