  28  28   0   0
  0.9744482E+01  0.2931856E-09  0.8956844E-09  0.1039009E-08  0.5000000E-15
  1.000000000000000E-004
  CAR 
 Al4C3 anti-CaFe2O4 - H(P) scan @ 0 GPa (
     16.65369660     -6.61928351  301      9.82256032      1.00000000
     -6.619  0.0000E+00  0.0000E+00
     -6.542  0.0000E+00  0.0000E+00
     -6.464  0.0000E+00  0.0000E+00
     -6.387  0.0000E+00  0.0000E+00
     -6.309  0.0000E+00  0.0000E+00
     -6.231  0.0000E+00  0.0000E+00
     -6.154  0.0000E+00  0.0000E+00
     -6.076  0.0000E+00  0.0000E+00
     -5.999  0.0000E+00  0.0000E+00
     -5.921  0.0000E+00  0.0000E+00
     -5.844  0.5285E-18  0.4100E-19
     -5.766  0.2660E-11  0.2064E-12
     -5.688  0.1209E-06  0.9379E-08
     -5.611  0.6037E-04  0.4693E-05
     -5.533  0.8188E-03  0.6821E-04
     -5.456  0.3127E-02  0.3108E-03
     -5.378  0.5967E-02  0.7737E-03
     -5.300  0.7347E-02  0.1344E-02
     -5.223  0.7595E-02  0.1933E-02
     -5.145  0.8560E-02  0.2597E-02
     -5.068  0.1295E-01  0.3602E-02
     -4.990  0.1299E-01  0.4610E-02
     -4.913  0.1118E-01  0.5477E-02
     -4.835  0.1006E-01  0.6257E-02
     -4.757  0.1121E-01  0.7126E-02
     -4.680  0.9673E-02  0.7877E-02
     -4.602  0.5014E-02  0.8266E-02
     -4.525  0.1170E-01  0.9174E-02
     -4.447  0.1446E-01  0.1030E-01
     -4.370  0.1811E-01  0.1170E-01
     -4.292  0.1490E-01  0.1286E-01
     -4.214  0.1426E-01  0.1396E-01
     -4.137  0.1701E-01  0.1528E-01
     -4.059  0.1721E-01  0.1662E-01
     -3.982  0.2575E-01  0.1861E-01
     -3.904  0.1527E-01  0.1980E-01
     -3.827  0.6971E-02  0.2034E-01
     -3.749  0.8961E-02  0.2103E-01
     -3.671  0.2364E-01  0.2287E-01
     -3.594  0.2457E-01  0.2477E-01
     -3.516  0.1950E-01  0.2629E-01
     -3.439  0.2699E-01  0.2838E-01
     -3.361  0.2338E-01  0.3019E-01
     -3.283  0.1968E-01  0.3172E-01
     -3.206  0.2213E-01  0.3344E-01
     -3.128  0.2488E-01  0.3537E-01
     -3.051  0.2440E-01  0.3726E-01
     -2.973  0.1595E-01  0.3850E-01
     -2.896  0.1492E-01  0.3966E-01
     -2.818  0.2778E-01  0.4181E-01
     -2.740  0.4194E-01  0.4506E-01
     -2.663  0.2950E-01  0.4735E-01
     -2.585  0.3811E-01  0.5031E-01
     -2.508  0.3761E-01  0.5323E-01
     -2.430  0.3149E-01  0.5567E-01
     -2.353  0.3236E-01  0.5818E-01
     -2.275  0.3483E-01  0.6088E-01
     -2.197  0.3558E-01  0.6364E-01
     -2.120  0.3816E-01  0.6660E-01
     -2.042  0.4221E-01  0.6988E-01
     -1.965  0.4305E-01  0.7322E-01
     -1.887  0.5063E-01  0.7714E-01
     -1.810  0.6719E-01  0.8236E-01
     -1.732  0.4652E-01  0.8597E-01
     -1.654  0.3728E-01  0.8886E-01
     -1.577  0.5309E-01  0.9298E-01
     -1.499  0.5713E-01  0.9741E-01
     -1.422  0.2243E-01  0.9915E-01
     -1.344  0.1566E-01  0.1004E+00
     -1.266  0.1610E-01  0.1016E+00
     -1.189  0.1959E-01  0.1031E+00
     -1.111  0.2261E-01  0.1049E+00
     -1.034  0.1078E-01  0.1057E+00
     -0.956  0.1291E-01  0.1067E+00
     -0.879  0.1050E-01  0.1075E+00
     -0.801  0.1578E-01  0.1088E+00
     -0.723  0.1541E-01  0.1100E+00
     -0.646  0.2679E-01  0.1120E+00
     -0.568  0.2076E-01  0.1136E+00
     -0.491  0.1010E-01  0.1144E+00
     -0.413  0.1066E-01  0.1153E+00
     -0.336  0.1431E-01  0.1164E+00
     -0.258  0.1564E-01  0.1176E+00
     -0.180  0.1023E-01  0.1184E+00
     -0.103  0.1277E-01  0.1194E+00
     -0.025  0.6827E-02  0.1199E+00
      0.052  0.1343E-02  0.1200E+00
      0.130  0.1079E-04  0.1200E+00
      0.207  0.1268E-08  0.1200E+00
      0.285  0.1530E-14  0.1200E+00
      0.363  0.0000E+00  0.1200E+00
      0.440  0.0000E+00  0.1200E+00
      0.518  0.0000E+00  0.1200E+00
      0.595  0.0000E+00  0.1200E+00
      0.673  0.4066E-18  0.1200E+00
      0.750  0.2235E-11  0.1200E+00
      0.828  0.1081E-06  0.1200E+00
      0.906  0.5752E-04  0.1200E+00
      0.983  0.8629E-03  0.1201E+00
      1.061  0.2778E-02  0.1203E+00
      1.138  0.4194E-02  0.1206E+00
      1.216  0.5852E-02  0.1211E+00
      1.294  0.6227E-02  0.1215E+00
      1.371  0.1026E-01  0.1223E+00
      1.449  0.1854E-01  0.1238E+00
      1.526  0.2078E-01  0.1254E+00
      1.604  0.2326E-01  0.1272E+00
      1.681  0.2449E-01  0.1291E+00
      1.759  0.3033E-01  0.1315E+00
      1.837  0.3928E-01  0.1345E+00
      1.914  0.4183E-01  0.1377E+00
      1.992  0.3581E-01  0.1405E+00
      2.069  0.4687E-01  0.1442E+00
      2.147  0.3451E-01  0.1468E+00
      2.224  0.3939E-01  0.1499E+00
      2.302  0.4900E-01  0.1537E+00
      2.380  0.4330E-01  0.1571E+00
      2.457  0.3892E-01  0.1601E+00
      2.535  0.4222E-01  0.1633E+00
      2.612  0.5243E-01  0.1674E+00
      2.690  0.3995E-01  0.1705E+00
      2.767  0.3183E-01  0.1730E+00
      2.845  0.5006E-01  0.1769E+00
      2.923  0.4807E-01  0.1806E+00
      3.000  0.4462E-01  0.1841E+00
      3.078  0.3723E-01  0.1869E+00
      3.155  0.3306E-01  0.1895E+00
      3.233  0.3669E-01  0.1924E+00
      3.311  0.3289E-01  0.1949E+00
      3.388  0.3594E-01  0.1977E+00
      3.466  0.3483E-01  0.2004E+00
      3.543  0.3636E-01  0.2032E+00
      3.621  0.4546E-01  0.2067E+00
      3.698  0.5176E-01  0.2108E+00
      3.776  0.5509E-01  0.2150E+00
      3.854  0.4757E-01  0.2187E+00
      3.931  0.2948E-01  0.2210E+00
      4.009  0.2705E-01  0.2231E+00
      4.086  0.3881E-01  0.2261E+00
      4.164  0.4076E-01  0.2293E+00
      4.241  0.3700E-01  0.2322E+00
      4.319  0.3369E-01  0.2348E+00
      4.397  0.3454E-01  0.2374E+00
      4.474  0.3927E-01  0.2405E+00
      4.552  0.4399E-01  0.2439E+00
      4.629  0.3818E-01  0.2469E+00
      4.707  0.4415E-01  0.2503E+00
      4.784  0.5908E-01  0.2549E+00
      4.862  0.6211E-01  0.2597E+00
      4.940  0.4795E-01  0.2634E+00
      5.017  0.3298E-01  0.2660E+00
      5.095  0.4880E-01  0.2698E+00
      5.172  0.6767E-01  0.2750E+00
      5.250  0.6639E-01  0.2802E+00
      5.328  0.5293E-01  0.2843E+00
      5.405  0.4933E-01  0.2881E+00
      5.483  0.4420E-01  0.2915E+00
      5.560  0.4161E-01  0.2947E+00
      5.638  0.4021E-01  0.2979E+00
      5.715  0.3378E-01  0.3005E+00
      5.793  0.4441E-01  0.3039E+00
      5.871  0.5180E-01  0.3080E+00
      5.948  0.5653E-01  0.3123E+00
      6.026  0.4957E-01  0.3162E+00
      6.103  0.4054E-01  0.3193E+00
      6.181  0.4504E-01  0.3228E+00
      6.258  0.5536E-01  0.3271E+00
      6.336  0.7175E-01  0.3327E+00
      6.414  0.5061E-01  0.3366E+00
      6.491  0.5330E-01  0.3407E+00
      6.569  0.5014E-01  0.3446E+00
      6.646  0.5845E-01  0.3492E+00
      6.724  0.5940E-01  0.3538E+00
      6.801  0.5132E-01  0.3578E+00
      6.879  0.5773E-01  0.3622E+00
      6.957  0.3968E-01  0.3653E+00
      7.034  0.2819E-01  0.3675E+00
      7.112  0.3183E-01  0.3700E+00
      7.189  0.4218E-01  0.3732E+00
      7.267  0.4012E-01  0.3764E+00
      7.345  0.5800E-01  0.3809E+00
      7.422  0.7819E-01  0.3869E+00
      7.500  0.7564E-01  0.3928E+00
      7.577  0.7312E-01  0.3985E+00
      7.655  0.7665E-01  0.4044E+00
      7.732  0.6043E-01  0.4091E+00
      7.810  0.5599E-01  0.4134E+00
      7.888  0.6163E-01  0.4182E+00
      7.965  0.7777E-01  0.4243E+00
      8.043  0.7644E-01  0.4302E+00
      8.120  0.6992E-01  0.4356E+00
      8.198  0.5933E-01  0.4402E+00
      8.275  0.4288E-01  0.4435E+00
      8.353  0.5553E-01  0.4478E+00
      8.431  0.7397E-01  0.4536E+00
      8.508  0.5607E-01  0.4579E+00
      8.586  0.4726E-01  0.4616E+00
      8.663  0.4263E-01  0.4649E+00
      8.741  0.3471E-01  0.4676E+00
      8.818  0.2552E-01  0.4696E+00
      8.896  0.1363E-01  0.4706E+00
      8.974  0.1052E-01  0.4715E+00
      9.051  0.2029E-01  0.4730E+00
      9.129  0.1923E-01  0.4745E+00
      9.206  0.1760E-01  0.4759E+00
      9.284  0.8437E-02  0.4765E+00
      9.361  0.5644E-02  0.4770E+00
      9.439  0.3376E-02  0.4772E+00
      9.517  0.6121E-02  0.4777E+00
      9.594  0.7017E-02  0.4783E+00
      9.672  0.9365E-02  0.4790E+00
      9.749  0.7415E-02  0.4796E+00
      9.827  0.5980E-02  0.4800E+00
      9.905  0.2857E-02  0.4802E+00
      9.982  0.2720E-02  0.4805E+00
     10.060  0.3904E-02  0.4808E+00
     10.137  0.9528E-02  0.4815E+00
     10.215  0.5280E-02  0.4819E+00
     10.292  0.8123E-02  0.4825E+00
     10.370  0.1465E-01  0.4837E+00
     10.448  0.2029E-01  0.4852E+00
     10.525  0.2555E-01  0.4872E+00
     10.603  0.2542E-01  0.4892E+00
     10.680  0.1347E-01  0.4902E+00
     10.758  0.8693E-02  0.4909E+00
     10.835  0.1230E-01  0.4919E+00
     10.913  0.1133E-01  0.4928E+00
     10.991  0.1695E-01  0.4941E+00
     11.068  0.2401E-01  0.4959E+00
     11.146  0.1908E-01  0.4974E+00
     11.223  0.2516E-01  0.4994E+00
     11.301  0.2857E-01  0.5016E+00
     11.378  0.3828E-01  0.5045E+00
     11.456  0.4146E-01  0.5078E+00
     11.534  0.2810E-01  0.5099E+00
     11.611  0.2684E-01  0.5120E+00
     11.689  0.2064E-01  0.5136E+00
     11.766  0.1952E-01  0.5151E+00
     11.844  0.2960E-01  0.5174E+00
     11.922  0.2862E-01  0.5197E+00
     11.999  0.2563E-01  0.5216E+00
     12.077  0.3166E-01  0.5241E+00
     12.154  0.3289E-01  0.5267E+00
     12.232  0.2367E-01  0.5285E+00
     12.309  0.4855E-01  0.5323E+00
     12.387  0.6153E-01  0.5370E+00
     12.465  0.4312E-01  0.5404E+00
     12.542  0.4834E-01  0.5441E+00
     12.620  0.4082E-01  0.5473E+00
     12.697  0.4030E-01  0.5504E+00
     12.775  0.5505E-01  0.5547E+00
     12.852  0.4674E-01  0.5583E+00
     12.930  0.6524E-01  0.5634E+00
     13.008  0.5066E-01  0.5673E+00
     13.085  0.4556E-01  0.5708E+00
     13.163  0.5289E-01  0.5749E+00
     13.240  0.4929E-01  0.5788E+00
     13.318  0.4874E-01  0.5825E+00
     13.395  0.3728E-01  0.5854E+00
     13.473  0.4106E-01  0.5886E+00
     13.551  0.3313E-01  0.5912E+00
     13.628  0.3545E-01  0.5939E+00
     13.706  0.6275E-01  0.5988E+00
     13.783  0.6578E-01  0.6039E+00
     13.861  0.5390E-01  0.6081E+00
     13.939  0.5814E-01  0.6126E+00
     14.016  0.6687E-01  0.6178E+00
     14.094  0.4568E-01  0.6213E+00
     14.171  0.3234E-01  0.6238E+00
     14.249  0.3389E-01  0.6265E+00
     14.326  0.4470E-01  0.6299E+00
     14.404  0.2623E-01  0.6320E+00
     14.482  0.2701E-01  0.6341E+00
     14.559  0.4073E-01  0.6372E+00
     14.637  0.4015E-01  0.6403E+00
     14.714  0.2876E-01  0.6426E+00
     14.792  0.2770E-01  0.6447E+00
     14.869  0.3120E-01  0.6471E+00
     14.947  0.3402E-01  0.6498E+00
     15.025  0.2552E-01  0.6518E+00
     15.102  0.2207E-01  0.6535E+00
     15.180  0.3206E-01  0.6560E+00
     15.257  0.2431E-01  0.6579E+00
     15.335  0.1524E-01  0.6590E+00
     15.412  0.5319E-02  0.6594E+00
     15.490  0.1895E-02  0.6596E+00
     15.568  0.3536E-02  0.6599E+00
     15.645  0.1560E-02  0.6600E+00
     15.723  0.1228E-03  0.6600E+00
     15.800  0.2423E-06  0.6600E+00
     15.878  0.5321E-11  0.6600E+00
     15.956  0.9758E-18  0.6600E+00
     16.033  0.0000E+00  0.6600E+00
     16.111  0.0000E+00  0.6600E+00
     16.188  0.0000E+00  0.6600E+00
     16.266  0.0000E+00  0.6600E+00
     16.343  0.0000E+00  0.6600E+00
     16.421  0.0000E+00  0.6600E+00
     16.499  0.0000E+00  0.6600E+00
     16.576  0.0000E+00  0.6600E+00
     16.654  0.0000E+00  0.6600E+00
