       N       E                     dE             d eps       ncg     rms          rms(c)
DAV:   1    -0.188873410418E+03   -0.18887E+03   -0.98047E+01  8388   0.264E+01    0.254E+01
DAV:   2    -0.166114086293E+03    0.22759E+02   -0.74945E+01  8082   0.231E+01    0.760E+00
DAV:   3    -0.165676555945E+03    0.43753E+00   -0.64262E+00  8352   0.782E+00    0.465E+00
DAV:   4    -0.165581805807E+03    0.94750E-01   -0.49074E-01  8334   0.240E+00    0.140E+00
DAV:   5    -0.165560001120E+03    0.21805E-01   -0.86112E-02  8478   0.104E+00    0.393E-01
DAV:   6    -0.165558868396E+03    0.11327E-02   -0.11233E-02  8490   0.391E-01    0.196E-01
DAV:   7    -0.165559040646E+03   -0.17225E-03   -0.22249E-03  8688   0.165E-01    0.896E-02
DAV:   8    -0.165559052498E+03   -0.11852E-04   -0.25581E-04  8592   0.525E-02    0.349E-02
DAV:   9    -0.165559029079E+03    0.23419E-04   -0.16490E-04  8370   0.382E-02    0.929E-03
DAV:  10    -0.165559028990E+03    0.88496E-07   -0.11131E-05  4338   0.120E-02
   1 F= -.16555903E+03 E0= -.16555893E+03  d E =-.165559E+03
       N       E                     dE             d eps       ncg     rms          rms(c)
DAV:   1    -0.166349434599E+03   -0.79041E+00   -0.20610E+01  8196   0.172E+01    0.473E+00
DAV:   2    -0.165802384345E+03    0.54705E+00   -0.17289E+00  8304   0.392E+00    0.184E+00
DAV:   3    -0.165775660142E+03    0.26724E-01   -0.14939E-01  8598   0.118E+00    0.655E-01
DAV:   4    -0.165768268910E+03    0.73912E-02   -0.14702E-02  8424   0.360E-01    0.247E-01
DAV:   5    -0.165766885948E+03    0.13830E-02   -0.31203E-03  8490   0.168E-01    0.119E-01
DAV:   6    -0.165766755157E+03    0.13079E-03   -0.33447E-04  8430   0.599E-02    0.813E-02
DAV:   7    -0.165766720529E+03    0.34628E-04   -0.14257E-04  8754   0.373E-02    0.160E-02
DAV:   8    -0.165766708635E+03    0.11894E-04   -0.28381E-05  6306   0.213E-02    0.450E-03
DAV:   9    -0.165766709770E+03   -0.11344E-05   -0.11839E-05  4230   0.111E-02
   2 F= -.16576671E+03 E0= -.16576585E+03  d E =-.207681E+00
       N       E                     dE             d eps       ncg     rms          rms(c)
DAV:   1    -0.166079645290E+03   -0.31294E+00   -0.38211E+00  8112   0.766E+00    0.201E+00
DAV:   2    -0.165983011405E+03    0.96634E-01   -0.30383E-01  8274   0.166E+00    0.790E-01
DAV:   3    -0.165977854266E+03    0.51571E-02   -0.24500E-02  8610   0.496E-01    0.285E-01
DAV:   4    -0.165976548910E+03    0.13054E-02   -0.20854E-03  8346   0.146E-01    0.103E-01
DAV:   5    -0.165976339964E+03    0.20895E-03   -0.32781E-04  8538   0.597E-02    0.530E-02
DAV:   6    -0.165976328059E+03    0.11906E-04   -0.43597E-05  7896   0.239E-02    0.285E-02
DAV:   7    -0.165976328495E+03   -0.43619E-06   -0.11771E-05  4338   0.119E-02
   3 F= -.16597633E+03 E0= -.16597576E+03  d E =-.417300E+00
       N       E                     dE             d eps       ncg     rms          rms(c)
DAV:   1    -0.165990051154E+03   -0.13723E-01   -0.10273E+00  7128   0.407E+00    0.170E-01
DAV:   2    -0.165990311271E+03   -0.26012E-03   -0.17128E-02  8832   0.466E-01    0.116E-01
DAV:   3    -0.165989927512E+03    0.38376E-03   -0.88297E-04  9036   0.124E-01    0.556E-02
DAV:   4    -0.165989904339E+03    0.23173E-04   -0.48155E-04  8556   0.724E-02    0.231E-02
DAV:   5    -0.165989904712E+03   -0.37329E-06   -0.40724E-05  6084   0.238E-02
   4 F= -.16598990E+03 E0= -.16598928E+03  d E =-.135762E-01
       N       E                     dE             d eps       ncg     rms          rms(c)
DAV:   1    -0.165994149654E+03   -0.42453E-02   -0.88406E-01  7128   0.377E+00    0.158E-01
DAV:   2    -0.165994381670E+03   -0.23202E-03   -0.14744E-02  8844   0.432E-01    0.109E-01
DAV:   3    -0.165994050999E+03    0.33067E-03   -0.76935E-04  9036   0.115E-01    0.524E-02
DAV:   4    -0.165994031710E+03    0.19290E-04   -0.41742E-04  8556   0.675E-02    0.219E-02
DAV:   5    -0.165994032201E+03   -0.49190E-06   -0.35614E-05  5796   0.223E-02
   5 F= -.16599403E+03 E0= -.16599336E+03  d E =-.177037E-01
       N       E                     dE             d eps       ncg     rms          rms(c)
DAV:   1    -0.166000664513E+03   -0.66328E-02   -0.10231E+00  7128   0.399E+00    0.151E-01
DAV:   2    -0.166000818667E+03   -0.15415E-03   -0.18036E-02  8802   0.487E-01    0.105E-01
DAV:   3    -0.166000474442E+03    0.34422E-03   -0.93288E-04  8616   0.126E-01    0.478E-02
DAV:   4    -0.166000472333E+03    0.21097E-05   -0.42538E-04  8676   0.620E-02    0.214E-02
DAV:   5    -0.166000474026E+03   -0.16930E-05   -0.21844E-05  5322   0.169E-02
   6 F= -.16600047E+03 E0= -.16599981E+03  d E =-.644182E-02
       N       E                     dE             d eps       ncg     rms          rms(c)
DAV:   1    -0.166001164860E+03   -0.69253E-03   -0.19349E-01  7128   0.174E+00    0.671E-02
DAV:   2    -0.166001194404E+03   -0.29544E-04   -0.33978E-03  8802   0.212E-01    0.457E-02
DAV:   3    -0.166001129505E+03    0.64899E-04   -0.17843E-04  8622   0.547E-02    0.210E-02
DAV:   4    -0.166001129470E+03    0.35293E-07   -0.78697E-05  6912   0.270E-02
   7 F= -.16600113E+03 E0= -.16600047E+03  d E =-.709727E-02
       N       E                     dE             d eps       ncg     rms          rms(c)
DAV:   1    -0.166003970130E+03   -0.28406E-02   -0.68805E-01  7128   0.336E+00    0.130E-01
DAV:   2    -0.166004480347E+03   -0.51022E-03   -0.14130E-02  9000   0.423E-01    0.966E-02
DAV:   3    -0.166004286791E+03    0.19356E-03   -0.55111E-04  8586   0.980E-02    0.586E-02
DAV:   4    -0.166004236339E+03    0.50452E-04   -0.62505E-04  8562   0.797E-02    0.221E-02
DAV:   5    -0.166004231405E+03    0.49345E-05   -0.61997E-05  7518   0.303E-02
   8 F= -.16600423E+03 E0= -.16600359E+03  d E =-.310193E-02
       N       E                     dE             d eps       ncg     rms          rms(c)
DAV:   1    -0.166004233284E+03    0.30555E-05   -0.42348E-04  7368   0.815E-02    0.618E-03
DAV:   2    -0.166004232851E+03    0.43211E-06   -0.69323E-06  4284   0.103E-02
   9 F= -.16600423E+03 E0= -.16600359E+03  d E =-.310338E-02
       N       E                     dE             d eps       ncg     rms          rms(c)
DAV:   1    -0.166006332176E+03   -0.20989E-02   -0.16126E-01  7128   0.164E+00    0.619E-02
DAV:   2    -0.166006495725E+03   -0.16355E-03   -0.26038E-03  8964   0.179E-01    0.420E-02
DAV:   3    -0.166006459057E+03    0.36669E-04   -0.95409E-05  8832   0.397E-02    0.244E-02
DAV:   4    -0.166006454596E+03    0.44609E-05   -0.59961E-05  7950   0.264E-02
  10 F= -.16600645E+03 E0= -.16600581E+03  d E =-.222174E-02
       N       E                     dE             d eps       ncg     rms          rms(c)
DAV:   1    -0.166007151558E+03   -0.69250E-03   -0.17788E-01  7128   0.173E+00    0.661E-02
DAV:   2    -0.166007334269E+03   -0.18271E-03   -0.28610E-03  9012   0.188E-01    0.449E-02
DAV:   3    -0.166007294483E+03    0.39787E-04   -0.10675E-04  8868   0.420E-02    0.263E-02
DAV:   4    -0.166007290300E+03    0.41830E-05   -0.67740E-05  8082   0.282E-02
  11 F= -.16600729E+03 E0= -.16600665E+03  d E =-.305745E-02
       N       E                     dE             d eps       ncg     rms          rms(c)
DAV:   1    -0.166008007781E+03   -0.71330E-03   -0.52276E-02  7128   0.932E-01    0.457E-02
DAV:   2    -0.166008094153E+03   -0.86372E-04   -0.15714E-03  8898   0.139E-01    0.368E-02
DAV:   3    -0.166008070265E+03    0.23888E-04   -0.63561E-05  8652   0.335E-02    0.211E-02
DAV:   4    -0.166008067081E+03    0.31844E-05   -0.49387E-05  7002   0.229E-02
  12 F= -.16600807E+03 E0= -.16600743E+03  d E =-.776781E-03
       N       E                     dE             d eps       ncg     rms          rms(c)
DAV:   1    -0.166008116322E+03   -0.46057E-04   -0.58846E-03  7128   0.314E-01    0.167E-02
DAV:   2    -0.166008127640E+03   -0.11318E-04   -0.18581E-04  8922   0.476E-02    0.130E-02
DAV:   3    -0.166008124756E+03    0.28839E-05   -0.54337E-06  4440   0.113E-02
  13 F= -.16600812E+03 E0= -.16600749E+03  d E =-.834456E-03
       N       E                     dE             d eps       ncg     rms          rms(c)
DAV:   1    -0.166008661636E+03   -0.53400E-03   -0.47447E-02  7128   0.891E-01    0.373E-02
DAV:   2    -0.166008687660E+03   -0.26024E-04   -0.78525E-04  8802   0.102E-01    0.245E-02
DAV:   3    -0.166008677560E+03    0.10100E-04   -0.49955E-05  8520   0.285E-02    0.126E-02
DAV:   4    -0.166008678058E+03   -0.49731E-06   -0.16467E-05  4992   0.132E-02
  14 F= -.16600868E+03 E0= -.16600805E+03  d E =-.553302E-03
       N       E                     dE             d eps       ncg     rms          rms(c)
DAV:   1    -0.166008836511E+03   -0.15895E-03   -0.42656E-02  7128   0.845E-01    0.356E-02
DAV:   2    -0.166008859769E+03   -0.23258E-04   -0.70385E-04  8826   0.972E-02    0.233E-02
DAV:   3    -0.166008851042E+03    0.87269E-05   -0.51525E-05  8436   0.288E-02
  15 F= -.16600885E+03 E0= -.16600823E+03  d E =-.726286E-03
       N       E                     dE             d eps       ncg     rms          rms(c)
DAV:   1    -0.166009188524E+03   -0.32875E-03   -0.52819E-02  7128   0.936E-01    0.438E-02
DAV:   2    -0.166009186489E+03    0.20349E-05   -0.79157E-04  8868   0.100E-01    0.276E-02
DAV:   3    -0.166009169305E+03    0.17184E-04   -0.57495E-05  8436   0.295E-02    0.113E-02
DAV:   4    -0.166009169734E+03   -0.42836E-06   -0.18646E-05  4992   0.135E-02
  16 F= -.16600917E+03 E0= -.16600854E+03  d E =-.318692E-03
       N       E                     dE             d eps       ncg     rms          rms(c)
DAV:   1    -0.166009184503E+03   -0.15198E-04   -0.28551E-03  7140   0.217E-01    0.107E-02
DAV:   2    -0.166009183952E+03    0.55180E-06   -0.40435E-05  7776   0.231E-02
  17 F= -.16600918E+03 E0= -.16600855E+03  d E =-.332909E-03
       N       E                     dE             d eps       ncg     rms          rms(c)
DAV:   1    -0.166009305763E+03   -0.12126E-03   -0.14351E-02  7128   0.483E-01    0.227E-02
DAV:   2    -0.166009323879E+03   -0.18116E-04   -0.38043E-04  8928   0.686E-02    0.170E-02
DAV:   3    -0.166009317524E+03    0.63553E-05   -0.13078E-05  5106   0.163E-02
  18 F= -.16600932E+03 E0= -.16600869E+03  d E =-.133572E-03
