Al4C3 anti-CaFe2O4 - H(P) scan @ 0 GPa (
           1
     2.931856    0.000000    0.000000
     0.000000    8.956844    0.000000
     0.000000    0.000000   10.390087
   Al   C 
    16    12
Direct configuration=     1
   0.25000000  0.41653413  0.58244150
   0.75000000  0.58346587  0.41755850
   0.25000000  0.91653413  0.91755850
   0.75000000  0.08346587  0.08244150
   0.25000000  0.48766833  0.20599407
   0.75000000  0.51233167  0.79400593
   0.25000000  0.98766833  0.29400593
   0.75000000  0.01233167  0.70599407
   0.25000000  0.13807829  0.51967327
   0.75000000  0.86192171  0.48032673
   0.25000000  0.63807829  0.98032673
   0.75000000  0.36192171  0.01967327
   0.75000000  0.27472313  0.30486913
   0.25000000  0.72527687  0.69513087
   0.25000000  0.22527687  0.80486913
   0.75000000  0.77472313  0.19513087
   0.75000000  0.74427605  0.86050878
   0.25000000  0.25572395  0.13949122
   0.75000000  0.24427605  0.63949122
   0.25000000  0.75572395  0.36050878
   0.25000000  0.92357733  0.61152696
   0.75000000  0.57642267  0.11152696
   0.25000000  0.42357733  0.88847304
   0.75000000  0.07642267  0.38847304
   0.75000000  0.08416170  0.88529897
   0.25000000  0.91583830  0.11470103
   0.75000000  0.58416170  0.61470103
   0.25000000  0.41583830  0.38529897
Al4C3 anti-CaFe2O4 - H(P) scan @ 0 GPa (
           1
     3.017653    0.000000    0.000000
     0.000000    9.218956    0.000000
     0.000000    0.000000   10.694141
   Al   C 
    16    12
Direct configuration=     2
   0.25000000  0.41651138  0.58240614
   0.75000000  0.58348862  0.41759386
   0.25000000  0.91651138  0.91759386
   0.75000000  0.08348862  0.08240614
   0.25000000  0.48770877  0.20596676
   0.75000000  0.51229123  0.79403324
   0.25000000  0.98770877  0.29403324
   0.75000000  0.01229123  0.70596676
   0.25000000  0.13808408  0.51965324
   0.75000000  0.86191592  0.48034676
   0.25000000  0.63808408  0.98034676
   0.75000000  0.36191592  0.01965324
   0.75000000  0.27472530  0.30483628
   0.25000000  0.72527470  0.69516372
   0.25000000  0.22527470  0.80483628
   0.75000000  0.77472530  0.19516372
   0.75000000  0.74429892  0.86050982
   0.25000000  0.25570108  0.13949018
   0.75000000  0.24429892  0.63949018
   0.25000000  0.75570108  0.36050982
   0.25000000  0.92357122  0.61151201
   0.75000000  0.57642878  0.11151201
   0.25000000  0.42357122  0.88848799
   0.75000000  0.07642878  0.38848799
   0.75000000  0.08416163  0.88529281
   0.25000000  0.91583837  0.11470719
   0.75000000  0.58416163  0.61470719
   0.25000000  0.41583837  0.38529281
Al4C3 anti-CaFe2O4 - H(P) scan @ 0 GPa (
           1
     2.981269    0.000000    0.000000
     0.000000    9.107800    0.000000
     0.000000    0.000000   10.565199
   Al   C 
    16    12
Direct configuration=     3
   0.25000000  0.41652075  0.58242071
   0.75000000  0.58347925  0.41757929
   0.25000000  0.91652075  0.91757929
   0.75000000  0.08347925  0.08242071
   0.25000000  0.48769211  0.20597801
   0.75000000  0.51230789  0.79402199
   0.25000000  0.98769211  0.29402199
   0.75000000  0.01230789  0.70597801
   0.25000000  0.13808170  0.51966149
   0.75000000  0.86191830  0.48033851
   0.25000000  0.63808170  0.98033851
   0.75000000  0.36191830  0.01966149
   0.75000000  0.27472441  0.30484981
   0.25000000  0.72527559  0.69515019
   0.25000000  0.22527559  0.80484981
   0.75000000  0.77472441  0.19515019
   0.75000000  0.74428950  0.86050939
   0.25000000  0.25571050  0.13949061
   0.75000000  0.24428950  0.63949061
   0.25000000  0.75571050  0.36050939
   0.25000000  0.92357374  0.61151817
   0.75000000  0.57642626  0.11151817
   0.25000000  0.42357374  0.88848183
   0.75000000  0.07642626  0.38848183
   0.75000000  0.08416166  0.88529535
   0.25000000  0.91583834  0.11470465
   0.75000000  0.58416166  0.61470465
   0.25000000  0.41583834  0.38529535
Al4C3 anti-CaFe2O4 - H(P) scan @ 0 GPa (
           1
     2.982343    0.000000    0.000000
     0.000000    9.111084    0.000000
     0.000000    0.000000   10.569009
   Al   C 
    16    12
Direct configuration=     4
   0.25000000  0.41667536  0.58190544
   0.75000000  0.58332464  0.41809456
   0.25000000  0.91667536  0.91809456
   0.75000000  0.08332464  0.08190544
   0.25000000  0.48758381  0.20559451
   0.75000000  0.51241619  0.79440549
   0.25000000  0.98758381  0.29440549
   0.75000000  0.01241619  0.70559451
   0.25000000  0.13751239  0.51980660
   0.75000000  0.86248761  0.48019340
   0.25000000  0.63751239  0.98019340
   0.75000000  0.36248761  0.01980660
   0.75000000  0.27463703  0.30516875
   0.25000000  0.72536297  0.69483125
   0.25000000  0.22536297  0.80516875
   0.75000000  0.77463703  0.19483125
   0.75000000  0.74380077  0.86075465
   0.25000000  0.25619923  0.13924535
   0.75000000  0.24380077  0.63924535
   0.25000000  0.75619923  0.36075465
   0.25000000  0.92358378  0.61191390
   0.75000000  0.57641622  0.11191390
   0.25000000  0.42358378  0.88808610
   0.75000000  0.07641622  0.38808610
   0.75000000  0.08360897  0.88467606
   0.25000000  0.91639103  0.11532394
   0.75000000  0.58360897  0.61532394
   0.25000000  0.41639103  0.38467606
Al4C3 anti-CaFe2O4 - H(P) scan @ 0 GPa (
           1
     2.983340    0.000000    0.000000
     0.000000    9.114130    0.000000
     0.000000    0.000000   10.572542
   Al   C 
    16    12
Direct configuration=     5
   0.25000000  0.41681871  0.58142768
   0.75000000  0.58318129  0.41857232
   0.25000000  0.91681871  0.91857232
   0.75000000  0.08318129  0.08142768
   0.25000000  0.48748340  0.20523892
   0.75000000  0.51251660  0.79476108
   0.25000000  0.98748340  0.29476108
   0.75000000  0.01251660  0.70523892
   0.25000000  0.13698453  0.51994115
   0.75000000  0.86301547  0.48005885
   0.25000000  0.63698453  0.98005885
   0.75000000  0.36301547  0.01994115
   0.75000000  0.27455601  0.30546446
   0.25000000  0.72544399  0.69453554
   0.25000000  0.22544399  0.80546446
   0.75000000  0.77455601  0.19453554
   0.75000000  0.74334763  0.86098204
   0.25000000  0.25665237  0.13901796
   0.75000000  0.24334763  0.63901796
   0.25000000  0.75665237  0.36098204
   0.25000000  0.92359308  0.61228082
   0.75000000  0.57640692  0.11228082
   0.25000000  0.42359308  0.88771918
   0.75000000  0.07640692  0.38771918
   0.75000000  0.08309652  0.88410186
   0.25000000  0.91690348  0.11589814
   0.75000000  0.58309652  0.61589814
   0.25000000  0.41690348  0.38410186
Al4C3 anti-CaFe2O4 - H(P) scan @ 0 GPa (
           1
     2.983872    0.000000    0.000000
     0.000000    9.115755    0.000000
     0.000000    0.000000   10.574427
   Al   C 
    16    12
Direct configuration=     6
   0.25000000  0.41639143  0.58114712
   0.75000000  0.58360857  0.41885288
   0.25000000  0.91639143  0.91885288
   0.75000000  0.08360857  0.08114712
   0.25000000  0.48700976  0.20522914
   0.75000000  0.51299024  0.79477086
   0.25000000  0.98700976  0.29477086
   0.75000000  0.01299024  0.70522914
   0.25000000  0.13664606  0.52027965
   0.75000000  0.86335394  0.47972035
   0.25000000  0.63664606  0.97972035
   0.75000000  0.36335394  0.02027965
   0.75000000  0.27495291  0.30554207
   0.25000000  0.72504709  0.69445793
   0.25000000  0.22504709  0.80554207
   0.75000000  0.77495291  0.19445793
   0.75000000  0.74274592  0.86147561
   0.25000000  0.25725408  0.13852439
   0.75000000  0.24274592  0.63852439
   0.25000000  0.75725408  0.36147561
   0.25000000  0.92341120  0.61206816
   0.75000000  0.57658880  0.11206816
   0.25000000  0.42341120  0.88793184
   0.75000000  0.07658880  0.38793184
   0.75000000  0.08240112  0.88393376
   0.25000000  0.91759888  0.11606624
   0.75000000  0.58240112  0.61606624
   0.25000000  0.41759888  0.38393376
Al4C3 anti-CaFe2O4 - H(P) scan @ 0 GPa (
           1
     2.984104    0.000000    0.000000
     0.000000    9.116461    0.000000
     0.000000    0.000000   10.575246
   Al   C 
    16    12
Direct configuration=     7
   0.25000000  0.41620574  0.58102520
   0.75000000  0.58379426  0.41897480
   0.25000000  0.91620574  0.91897480
   0.75000000  0.08379426  0.08102520
   0.25000000  0.48680393  0.20522488
   0.75000000  0.51319607  0.79477512
   0.25000000  0.98680393  0.29477512
   0.75000000  0.01319607  0.70522488
   0.25000000  0.13649897  0.52042676
   0.75000000  0.86350103  0.47957324
   0.25000000  0.63649897  0.97957324
   0.75000000  0.36350103  0.02042676
   0.75000000  0.27512540  0.30557580
   0.25000000  0.72487460  0.69442420
   0.25000000  0.22487460  0.80557580
   0.75000000  0.77512540  0.19442420
   0.75000000  0.74248443  0.86169010
   0.25000000  0.25751557  0.13830990
   0.75000000  0.24248443  0.63830990
   0.25000000  0.75751557  0.36169010
   0.25000000  0.92333215  0.61197574
   0.75000000  0.57666785  0.11197574
   0.25000000  0.42333215  0.88802426
   0.75000000  0.07666785  0.38802426
   0.75000000  0.08209891  0.88386071
   0.25000000  0.91790109  0.11613929
   0.75000000  0.58209891  0.61613929
   0.25000000  0.41790109  0.38386071
Al4C3 anti-CaFe2O4 - H(P) scan @ 0 GPa (
           1
     2.984656    0.000000    0.000000
     0.000000    9.118148    0.000000
     0.000000    0.000000   10.577203
   Al   C 
    16    12
Direct configuration=     8
   0.25000000  0.41545002  0.58105560
   0.75000000  0.58454998  0.41894440
   0.25000000  0.91545002  0.91894440
   0.75000000  0.08454998  0.08105560
   0.25000000  0.48694434  0.20490203
   0.75000000  0.51305566  0.79509797
   0.25000000  0.98694434  0.29509797
   0.75000000  0.01305566  0.70490203
   0.25000000  0.13603125  0.52046779
   0.75000000  0.86396875  0.47953221
   0.25000000  0.63603125  0.97953221
   0.75000000  0.36396875  0.02046779
   0.75000000  0.27531988  0.30582180
   0.25000000  0.72468012  0.69417820
   0.25000000  0.22468012  0.80582180
   0.75000000  0.77531988  0.19417820
   0.75000000  0.74198785  0.86203487
   0.25000000  0.25801215  0.13796513
   0.75000000  0.24198785  0.63796513
   0.25000000  0.75801215  0.36203487
   0.25000000  0.92301053  0.61199708
   0.75000000  0.57698947  0.11199708
   0.25000000  0.42301053  0.88800292
   0.75000000  0.07698947  0.38800292
   0.75000000  0.08154020  0.88413294
   0.25000000  0.91845980  0.11586706
   0.75000000  0.58154020  0.61586706
   0.25000000  0.41845980  0.38413294
Al4C3 anti-CaFe2O4 - H(P) scan @ 0 GPa (
           1
     2.984643    0.000000    0.000000
     0.000000    9.118108    0.000000
     0.000000    0.000000   10.577156
   Al   C 
    16    12
Direct configuration=     9
   0.25000000  0.41546799  0.58105488
   0.75000000  0.58453201  0.41894512
   0.25000000  0.91546799  0.91894512
   0.75000000  0.08453201  0.08105488
   0.25000000  0.48694100  0.20490970
   0.75000000  0.51305900  0.79509030
   0.25000000  0.98694100  0.29509030
   0.75000000  0.01305900  0.70490970
   0.25000000  0.13604237  0.52046682
   0.75000000  0.86395763  0.47953318
   0.25000000  0.63604237  0.97953318
   0.75000000  0.36395763  0.02046682
   0.75000000  0.27531525  0.30581595
   0.25000000  0.72468475  0.69418405
   0.25000000  0.22468475  0.80581595
   0.75000000  0.77531525  0.19418405
   0.75000000  0.74199966  0.86202667
   0.25000000  0.25800034  0.13797333
   0.75000000  0.24199966  0.63797333
   0.25000000  0.75800034  0.36202667
   0.25000000  0.92301818  0.61199657
   0.75000000  0.57698182  0.11199657
   0.25000000  0.42301818  0.88800343
   0.75000000  0.07698182  0.38800343
   0.75000000  0.08155349  0.88412647
   0.25000000  0.91844651  0.11587353
   0.75000000  0.58155349  0.61587353
   0.25000000  0.41844651  0.38412647
Al4C3 anti-CaFe2O4 - H(P) scan @ 0 GPa (
           1
     2.984734    0.000000    0.000000
     0.000000    9.118387    0.000000
     0.000000    0.000000   10.577480
   Al   C 
    16    12
Direct configuration=    10
   0.25000000  0.41506150  0.58111444
   0.75000000  0.58493850  0.41888556
   0.25000000  0.91506150  0.91888556
   0.75000000  0.08493850  0.08111444
   0.25000000  0.48718128  0.20503347
   0.75000000  0.51281872  0.79496653
   0.25000000  0.98718128  0.29496653
   0.75000000  0.01281872  0.70503347
   0.25000000  0.13584925  0.52033218
   0.75000000  0.86415075  0.47966782
   0.25000000  0.63584925  0.97966782
   0.75000000  0.36415075  0.02033218
   0.75000000  0.27577936  0.30617745
   0.25000000  0.72422064  0.69382255
   0.25000000  0.22422064  0.80617745
   0.75000000  0.77577936  0.19382255
   0.75000000  0.74167527  0.86203481
   0.25000000  0.25832473  0.13796519
   0.75000000  0.24167527  0.63796519
   0.25000000  0.75832473  0.36203481
   0.25000000  0.92281503  0.61207464
   0.75000000  0.57718497  0.11207464
   0.25000000  0.42281503  0.88792536
   0.75000000  0.07718497  0.38792536
   0.75000000  0.08133867  0.88405469
   0.25000000  0.91866133  0.11594531
   0.75000000  0.58133867  0.61594531
   0.25000000  0.41866133  0.38405469
Al4C3 anti-CaFe2O4 - H(P) scan @ 0 GPa (
           1
     2.984830    0.000000    0.000000
     0.000000    9.118681    0.000000
     0.000000    0.000000   10.577821
   Al   C 
    16    12
Direct configuration=    11
   0.25000000  0.41463457  0.58117699
   0.75000000  0.58536543  0.41882301
   0.25000000  0.91463457  0.91882301
   0.75000000  0.08536543  0.08117699
   0.25000000  0.48743363  0.20516346
   0.75000000  0.51256637  0.79483654
   0.25000000  0.98743363  0.29483654
   0.75000000  0.01256637  0.70516346
   0.25000000  0.13564642  0.52019078
   0.75000000  0.86435358  0.47980922
   0.25000000  0.63564642  0.97980922
   0.75000000  0.36435358  0.02019078
   0.75000000  0.27626680  0.30655712
   0.25000000  0.72373320  0.69344288
   0.25000000  0.22373320  0.80655712
   0.75000000  0.77626680  0.19344288
   0.75000000  0.74133458  0.86204336
   0.25000000  0.25866542  0.13795664
   0.75000000  0.24133458  0.63795664
   0.25000000  0.75866542  0.36204336
   0.25000000  0.92260167  0.61215663
   0.75000000  0.57739833  0.11215663
   0.25000000  0.42260167  0.88784337
   0.75000000  0.07739833  0.38784337
   0.75000000  0.08111305  0.88397930
   0.25000000  0.91888695  0.11602070
   0.75000000  0.58111305  0.61602070
   0.25000000  0.41888695  0.38397930
Al4C3 anti-CaFe2O4 - H(P) scan @ 0 GPa (
           1
     2.985066    0.000000    0.000000
     0.000000    9.119402    0.000000
     0.000000    0.000000   10.578657
   Al   C 
    16    12
Direct configuration=    12
   0.25000000  0.41457133  0.58104190
   0.75000000  0.58542867  0.41895810
   0.25000000  0.91457133  0.91895810
   0.75000000  0.08542867  0.08104190
   0.25000000  0.48767242  0.20520777
   0.75000000  0.51232758  0.79479223
   0.25000000  0.98767242  0.29479223
   0.75000000  0.01232758  0.70520777
   0.25000000  0.13558779  0.52036918
   0.75000000  0.86441221  0.47963082
   0.25000000  0.63558779  0.97963082
   0.75000000  0.36441221  0.02036918
   0.75000000  0.27667277  0.30675455
   0.25000000  0.72332723  0.69324545
   0.25000000  0.22332723  0.80675455
   0.75000000  0.77667277  0.19324545
   0.75000000  0.74130927  0.86200216
   0.25000000  0.25869073  0.13799784
   0.75000000  0.24130927  0.63799784
   0.25000000  0.75869073  0.36200216
   0.25000000  0.92253544  0.61221211
   0.75000000  0.57746456  0.11221211
   0.25000000  0.42253544  0.88778789
   0.75000000  0.07746456  0.38778789
   0.75000000  0.08099458  0.88413487
   0.25000000  0.91900542  0.11586513
   0.75000000  0.58099458  0.61586513
   0.25000000  0.41900542  0.38413487
Al4C3 anti-CaFe2O4 - H(P) scan @ 0 GPa (
           1
     2.985145    0.000000    0.000000
     0.000000    9.119644    0.000000
     0.000000    0.000000   10.578938
   Al   C 
    16    12
Direct configuration=    13
   0.25000000  0.41455009  0.58099653
   0.75000000  0.58544991  0.41900347
   0.25000000  0.91455009  0.91900347
   0.75000000  0.08544991  0.08099653
   0.25000000  0.48775262  0.20522265
   0.75000000  0.51224738  0.79477735
   0.25000000  0.98775262  0.29477735
   0.75000000  0.01224738  0.70522265
   0.25000000  0.13556810  0.52042909
   0.75000000  0.86443190  0.47957091
   0.25000000  0.63556810  0.97957091
   0.75000000  0.36443190  0.02042909
   0.75000000  0.27680912  0.30682086
   0.25000000  0.72319088  0.69317914
   0.25000000  0.22319088  0.80682086
   0.75000000  0.77680912  0.19317914
   0.75000000  0.74130076  0.86198832
   0.25000000  0.25869924  0.13801168
   0.75000000  0.24130076  0.63801168
   0.25000000  0.75869924  0.36198832
   0.25000000  0.92251320  0.61223074
   0.75000000  0.57748680  0.11223074
   0.25000000  0.42251320  0.88776926
   0.75000000  0.07748680  0.38776926
   0.75000000  0.08095478  0.88418712
   0.25000000  0.91904522  0.11581288
   0.75000000  0.58095478  0.61581288
   0.25000000  0.41904522  0.38418712
Al4C3 anti-CaFe2O4 - H(P) scan @ 0 GPa (
           1
     2.984939    0.000000    0.000000
     0.000000    9.119013    0.000000
     0.000000    0.000000   10.578206
   Al   C 
    16    12
Direct configuration=    14
   0.25000000  0.41452159  0.58096727
   0.75000000  0.58547841  0.41903273
   0.25000000  0.91452159  0.91903273
   0.75000000  0.08547841  0.08096727
   0.25000000  0.48807614  0.20531102
   0.75000000  0.51192386  0.79468898
   0.25000000  0.98807614  0.29468898
   0.75000000  0.01192386  0.70531102
   0.25000000  0.13547280  0.52069452
   0.75000000  0.86452720  0.47930548
   0.25000000  0.63547280  0.97930548
   0.75000000  0.36452720  0.02069452
   0.75000000  0.27686254  0.30697830
   0.25000000  0.72313746  0.69302170
   0.25000000  0.22313746  0.80697830
   0.75000000  0.77686254  0.19302170
   0.75000000  0.74127710  0.86193219
   0.25000000  0.25872290  0.13806781
   0.75000000  0.24127710  0.63806781
   0.25000000  0.75872290  0.36193219
   0.25000000  0.92233284  0.61220604
   0.75000000  0.57766716  0.11220604
   0.25000000  0.42233284  0.88779396
   0.75000000  0.07766716  0.38779396
   0.75000000  0.08082165  0.88419205
   0.25000000  0.91917835  0.11580795
   0.75000000  0.58082165  0.61580795
   0.25000000  0.41917835  0.38419205
Al4C3 anti-CaFe2O4 - H(P) scan @ 0 GPa (
           1
     2.984743    0.000000    0.000000
     0.000000    9.118413    0.000000
     0.000000    0.000000   10.577511
   Al   C 
    16    12
Direct configuration=    15
   0.25000000  0.41449453  0.58093949
   0.75000000  0.58550547  0.41906051
   0.25000000  0.91449453  0.91906051
   0.75000000  0.08550547  0.08093949
   0.25000000  0.48838339  0.20539494
   0.75000000  0.51161661  0.79460506
   0.25000000  0.98838339  0.29460506
   0.75000000  0.01161661  0.70539494
   0.25000000  0.13538230  0.52094659
   0.75000000  0.86461770  0.47905341
   0.25000000  0.63538230  0.97905341
   0.75000000  0.36461770  0.02094659
   0.75000000  0.27691328  0.30712782
   0.25000000  0.72308672  0.69287218
   0.25000000  0.22308672  0.80712782
   0.75000000  0.77691328  0.19287218
   0.75000000  0.74125462  0.86187888
   0.25000000  0.25874538  0.13812112
   0.75000000  0.24125462  0.63812112
   0.25000000  0.75874538  0.36187888
   0.25000000  0.92216155  0.61218258
   0.75000000  0.57783845  0.11218258
   0.25000000  0.42216155  0.88781742
   0.75000000  0.07783845  0.38781742
   0.75000000  0.08069520  0.88419673
   0.25000000  0.91930480  0.11580327
   0.75000000  0.58069520  0.61580327
   0.25000000  0.41930480  0.38419673
Al4C3 anti-CaFe2O4 - H(P) scan @ 0 GPa (
           1
     2.985256    0.000000    0.000000
     0.000000    9.119981    0.000000
     0.000000    0.000000   10.579329
   Al   C 
    16    12
Direct configuration=    16
   0.25000000  0.41445528  0.58093489
   0.75000000  0.58554472  0.41906511
   0.25000000  0.91445528  0.91906511
   0.75000000  0.08554472  0.08093489
   0.25000000  0.48866744  0.20550152
   0.75000000  0.51133256  0.79449848
   0.25000000  0.98866744  0.29449848
   0.75000000  0.01133256  0.70550152
   0.25000000  0.13529050  0.52115403
   0.75000000  0.86470950  0.47884597
   0.25000000  0.63529050  0.97884597
   0.75000000  0.36470950  0.02115403
   0.75000000  0.27702408  0.30716544
   0.25000000  0.72297592  0.69283456
   0.25000000  0.22297592  0.80716544
   0.75000000  0.77702408  0.19283456
   0.75000000  0.74119143  0.86180004
   0.25000000  0.25880857  0.13819996
   0.75000000  0.24119143  0.63819996
   0.25000000  0.75880857  0.36180004
   0.25000000  0.92212827  0.61202368
   0.75000000  0.57787173  0.11202368
   0.25000000  0.42212827  0.88797632
   0.75000000  0.07787173  0.38797632
   0.75000000  0.08058935  0.88412830
   0.25000000  0.91941065  0.11587170
   0.75000000  0.58058935  0.61587170
   0.25000000  0.41941065  0.38412830
Al4C3 anti-CaFe2O4 - H(P) scan @ 0 GPa (
           1
     2.985375    0.000000    0.000000
     0.000000    9.120345    0.000000
     0.000000    0.000000   10.579752
   Al   C 
    16    12
Direct configuration=    17
   0.25000000  0.41444617  0.58093382
   0.75000000  0.58555383  0.41906618
   0.25000000  0.91444617  0.91906618
   0.75000000  0.08555383  0.08093382
   0.25000000  0.48873340  0.20552627
   0.75000000  0.51126660  0.79447373
   0.25000000  0.98873340  0.29447373
   0.75000000  0.01126660  0.70552627
   0.25000000  0.13526919  0.52120221
   0.75000000  0.86473081  0.47879779
   0.25000000  0.63526919  0.97879779
   0.75000000  0.36473081  0.02120221
   0.75000000  0.27704982  0.30717418
   0.25000000  0.72295018  0.69282582
   0.25000000  0.22295018  0.80717418
   0.75000000  0.77704982  0.19282582
   0.75000000  0.74117676  0.86178173
   0.25000000  0.25882324  0.13821827
   0.75000000  0.24117676  0.63821827
   0.25000000  0.75882324  0.36178173
   0.25000000  0.92212055  0.61198678
   0.75000000  0.57787945  0.11198678
   0.25000000  0.42212055  0.88801322
   0.75000000  0.07787945  0.38801322
   0.75000000  0.08056477  0.88411241
   0.25000000  0.91943523  0.11588759
   0.75000000  0.58056477  0.61588759
   0.25000000  0.41943523  0.38411241
Al4C3 anti-CaFe2O4 - H(P) scan @ 0 GPa (
           1
     2.985219    0.000000    0.000000
     0.000000    9.119871    0.000000
     0.000000    0.000000   10.579201
   Al   C 
    16    12
Direct configuration=    18
   0.25000000  0.41440729  0.58090088
   0.75000000  0.58559271  0.41909912
   0.25000000  0.91440729  0.91909912
   0.75000000  0.08559271  0.08090088
   0.25000000  0.48891379  0.20548129
   0.75000000  0.51108621  0.79451871
   0.25000000  0.98891379  0.29451871
   0.75000000  0.01108621  0.70548129
   0.25000000  0.13518430  0.52123780
   0.75000000  0.86481570  0.47876220
   0.25000000  0.63518430  0.97876220
   0.75000000  0.36481570  0.02123780
   0.75000000  0.27709668  0.30712449
   0.25000000  0.72290332  0.69287551
   0.25000000  0.22290332  0.80712449
   0.75000000  0.77709668  0.19287551
   0.75000000  0.74115357  0.86171770
   0.25000000  0.25884643  0.13828230
   0.75000000  0.24115357  0.63828230
   0.25000000  0.75884643  0.36171770
   0.25000000  0.92214205  0.61191782
   0.75000000  0.57785795  0.11191782
   0.25000000  0.42214205  0.88808218
   0.75000000  0.07785795  0.38808218
   0.75000000  0.08050522  0.88411289
   0.25000000  0.91949478  0.11588711
   0.75000000  0.58050522  0.61588711
   0.25000000  0.41949478  0.38411289
