Al4C3 R-3m polymorph (findsym-output, fr
   1.00000000000000     
     2.9983021465129278    0.0000000000000000    0.0000000000000000
    -1.4991510732564639    2.5966058271349510    0.0000000000000000
     0.0000000000000000    0.0000000000000000   22.4153187963932936
   Al   C 
    12     9
Direct
 -0.0000000000000000  0.0000000000000000  0.6293546608191954
 -0.0000000000000000 -0.0000000000000000  0.3706453391808048
  0.6666666870000029  0.3333333429999996  0.9626879738191926
  0.6666666870000029  0.3333333429999996  0.7039786531808053
  0.3333333429999996  0.6666666870000029  0.2960213168191920
  0.3333333429999996  0.6666666870000029  0.0373120071808095
 -0.0000000000000000  0.0000000000000000  0.2058942547188224
 -0.0000000000000000 -0.0000000000000000  0.7941057452811776
  0.6666666870000029  0.3333333429999996  0.5392275687188232
  0.6666666870000029  0.3333333429999996  0.1274390732811795
  0.3333333429999996  0.6666666870000029  0.8725609417188253
  0.3333333429999996  0.6666666870000029  0.4607724012811743
 -0.0000000000000000  0.0000000000000000  0.7166930366019977
  0.0000000000000000 -0.0000000000000000  0.2833069633980023
  0.6666666870000029  0.3333333429999996  0.0500263686019999
  0.6666666870000029  0.3333333429999996  0.6166402763979995
  0.3333333429999996  0.6666666870000029  0.3833596936019981
  0.3333333429999996  0.6666666870000029  0.9499736503979981
  0.0000000000000000 -0.0000000000000000  0.5000000000000000
  0.6666666870000029  0.3333333429999996  0.8333333129999971
  0.3333333429999996  0.6666666870000029  0.1666666719999981
 
  0.00000000E+00  0.00000000E+00  0.00000000E+00
  0.00000000E+00  0.00000000E+00  0.00000000E+00
  0.00000000E+00  0.00000000E+00  0.00000000E+00
  0.00000000E+00  0.00000000E+00  0.00000000E+00
  0.00000000E+00  0.00000000E+00  0.00000000E+00
  0.00000000E+00  0.00000000E+00  0.00000000E+00
  0.00000000E+00  0.00000000E+00  0.00000000E+00
  0.00000000E+00  0.00000000E+00  0.00000000E+00
  0.00000000E+00  0.00000000E+00  0.00000000E+00
  0.00000000E+00  0.00000000E+00  0.00000000E+00
  0.00000000E+00  0.00000000E+00  0.00000000E+00
  0.00000000E+00  0.00000000E+00  0.00000000E+00
  0.00000000E+00  0.00000000E+00  0.00000000E+00
  0.00000000E+00  0.00000000E+00  0.00000000E+00
  0.00000000E+00  0.00000000E+00  0.00000000E+00
  0.00000000E+00  0.00000000E+00  0.00000000E+00
  0.00000000E+00  0.00000000E+00  0.00000000E+00
  0.00000000E+00  0.00000000E+00  0.00000000E+00
  0.00000000E+00  0.00000000E+00  0.00000000E+00
  0.00000000E+00  0.00000000E+00  0.00000000E+00
  0.00000000E+00  0.00000000E+00  0.00000000E+00
