       N       E                     dE             d eps       ncg     rms          rms(c)
DAV:   1    -0.193828282420E+03   -0.19383E+03   -0.38635E+02  4704   0.608E+01    0.318E+01
DAV:   2    -0.160643249411E+03    0.33185E+02   -0.64766E+01  4764   0.303E+01    0.147E+01
DAV:   3    -0.159684897130E+03    0.95835E+00   -0.10564E+01  4896   0.132E+01    0.102E+01
DAV:   4    -0.159895637883E+03   -0.21074E+00   -0.25027E+00  5136   0.655E+00    0.506E+00
DAV:   5    -0.159986817317E+03   -0.91179E-01   -0.24982E-01  4656   0.252E+00    0.940E-01
DAV:   6    -0.159993606984E+03   -0.67897E-02   -0.22028E-02  4992   0.700E-01    0.428E-01
DAV:   7    -0.159994307459E+03   -0.70048E-03   -0.25152E-03  5472   0.265E-01    0.281E-01
DAV:   8    -0.159994937620E+03   -0.63016E-03   -0.15922E-03  5172   0.213E-01    0.702E-02
DAV:   9    -0.159994940642E+03   -0.30228E-05   -0.11314E-04  4956   0.577E-02    0.261E-02
DAV:  10    -0.159994943850E+03   -0.32076E-05   -0.66733E-05  4812   0.399E-02
   1 F= -.50461254E+02 E0= -.50461254E+02  d E =-.504613E+02
       N       E                     dE             d eps       ncg     rms          rms(c)
DAV:   1    -0.157623150852E+03    0.23718E+01   -0.97547E-01  4872   0.508E+00    0.103E+00
DAV:   2    -0.157610461153E+03    0.12690E-01   -0.58789E-02  4872   0.100E+00    0.551E-01
DAV:   3    -0.157609959401E+03    0.50175E-03   -0.94514E-03  4860   0.356E-01    0.212E-01
DAV:   4    -0.157610269031E+03   -0.30963E-03   -0.30061E-04  4872   0.852E-02    0.896E-02
DAV:   5    -0.157610260803E+03    0.82281E-05   -0.11645E-04  4776   0.453E-02    0.670E-02
DAV:   6    -0.157610291110E+03   -0.30307E-04   -0.14443E-05  2820   0.242E-02    0.225E-02
DAV:   7    -0.157610303154E+03   -0.12044E-04   -0.52697E-06  2508   0.134E-02    0.661E-03
DAV:   8    -0.157610301191E+03    0.19635E-05   -0.64233E-07  2244   0.411E-03
   2 F= -.50400095E+02 E0= -.50400095E+02  d E =0.611592E-01
       N       E                     dE             d eps       ncg     rms          rms(c)
DAV:   1    -0.159369763936E+03   -0.17595E+01   -0.50750E-01  4824   0.362E+00    0.745E-01
DAV:   2    -0.159363007151E+03    0.67568E-02   -0.30746E-02  4872   0.722E-01    0.399E-01
DAV:   3    -0.159362600268E+03    0.40688E-03   -0.50207E-03  4824   0.258E-01    0.154E-01
DAV:   4    -0.159362566405E+03    0.33862E-04   -0.15699E-04  4824   0.615E-02    0.646E-02
DAV:   5    -0.159362544448E+03    0.21958E-04   -0.63755E-05  4680   0.334E-02    0.483E-02
DAV:   6    -0.159362518189E+03    0.26259E-04   -0.76139E-06  2688   0.173E-02    0.168E-02
DAV:   7    -0.159362507891E+03    0.10298E-04   -0.28924E-06  2424   0.999E-03    0.479E-03
DAV:   8    -0.159362509290E+03   -0.13992E-05   -0.38373E-07  2232   0.312E-03
   3 F= -.50471476E+02 E0= -.50471476E+02  d E =-.102222E-01
       N       E                     dE             d eps       ncg     rms          rms(c)
DAV:   1    -0.159366233252E+03   -0.37254E-02   -0.24062E-06  2184   0.819E-03    0.194E-03
DAV:   2    -0.159366232459E+03    0.79329E-06   -0.20353E-07  2148   0.238E-03
   4 F= -.50471477E+02 E0= -.50471477E+02  d E =-.102226E-01
       N       E                     dE             d eps       ncg     rms          rms(c)
DAV:   1    -0.159385061748E+03   -0.18828E-01   -0.18367E-02  4092   0.598E-01    0.462E-02
DAV:   2    -0.159385062100E+03   -0.35177E-06   -0.12339E-03  4920   0.156E-01    0.297E-02
DAV:   3    -0.159385071109E+03   -0.90097E-05   -0.74627E-05  4644   0.380E-02
   5 F= -.50471906E+02 E0= -.50471906E+02  d E =-.429170E-03
       N       E                     dE             d eps       ncg     rms          rms(c)
DAV:   1    -0.159379084245E+03    0.59779E-02   -0.21409E-03  4092   0.205E-01    0.142E-02
DAV:   2    -0.159379091444E+03   -0.71990E-05   -0.17435E-04  4872   0.567E-02    0.818E-03
DAV:   3    -0.159379083557E+03    0.78874E-05   -0.64286E-06  2376   0.117E-02
   6 F= -.50472048E+02 E0= -.50472048E+02  d E =-.570931E-03
       N       E                     dE             d eps       ncg     rms          rms(c)
DAV:   1    -0.159423377174E+03   -0.44286E-01   -0.22035E-02  4068   0.709E-01    0.415E-02
DAV:   2    -0.159423316138E+03    0.61036E-04   -0.28402E-04  5088   0.889E-02    0.276E-02
DAV:   3    -0.159423303780E+03    0.12358E-04   -0.50362E-05  4848   0.313E-02    0.175E-02
DAV:   4    -0.159423300129E+03    0.36510E-05   -0.14316E-05  3504   0.184E-02
   7 F= -.50471819E+02 E0= -.50471819E+02  d E =0.228632E-03
       N       E                     dE             d eps       ncg     rms          rms(c)
DAV:   1    -0.159394191643E+03    0.29112E-01   -0.97908E-03  4044   0.471E-01    0.274E-02
DAV:   2    -0.159394163310E+03    0.28334E-04   -0.12960E-04  5052   0.598E-02    0.182E-02
DAV:   3    -0.159394164224E+03   -0.91403E-06   -0.20911E-05  3672   0.207E-02
   8 F= -.50472126E+02 E0= -.50472126E+02  d E =-.779290E-04
