  28  28   0   0
  0.8495105E+01  0.8692099E-09  0.2986491E-09  0.9163068E-09  0.5000000E-15
  1.000000000000000E-004
  CAR 
 Al4C3 Pnma-VII - H(P) scan @ 100 GPa (IS
     20.61646025     -6.19496729  301     11.21009730      1.00000000
     -6.195  0.0000E+00  0.0000E+00
     -6.106  0.0000E+00  0.0000E+00
     -6.016  0.0000E+00  0.0000E+00
     -5.927  0.0000E+00  0.0000E+00
     -5.837  0.0000E+00  0.0000E+00
     -5.748  0.0000E+00  0.0000E+00
     -5.659  0.0000E+00  0.0000E+00
     -5.569  0.0000E+00  0.0000E+00
     -5.480  0.0000E+00  0.0000E+00
     -5.391  0.0000E+00  0.0000E+00
     -5.301  0.0000E+00  0.0000E+00
     -5.212  0.8458E-14  0.7559E-15
     -5.123  0.1121E-07  0.1002E-08
     -5.033  0.3428E-04  0.3065E-05
     -4.944  0.6409E-03  0.6034E-04
     -4.854  0.2945E-02  0.3236E-03
     -4.765  0.5823E-02  0.8440E-03
     -4.676  0.5995E-02  0.1380E-02
     -4.586  0.5526E-02  0.1874E-02
     -4.497  0.9083E-02  0.2685E-02
     -4.408  0.1445E-01  0.3977E-02
     -4.318  0.1062E-01  0.4926E-02
     -4.229  0.6921E-02  0.5545E-02
     -4.139  0.1227E-01  0.6642E-02
     -4.050  0.1147E-01  0.7667E-02
     -3.961  0.4339E-02  0.8054E-02
     -3.871  0.6843E-02  0.8666E-02
     -3.782  0.1382E-01  0.9901E-02
     -3.693  0.9460E-02  0.1075E-01
     -3.603  0.1328E-01  0.1193E-01
     -3.514  0.1900E-01  0.1363E-01
     -3.424  0.1132E-01  0.1464E-01
     -3.335  0.8266E-02  0.1538E-01
     -3.246  0.2360E-01  0.1749E-01
     -3.156  0.1930E-01  0.1922E-01
     -3.067  0.1268E-01  0.2035E-01
     -2.978  0.1009E-01  0.2125E-01
     -2.888  0.1179E-01  0.2231E-01
     -2.799  0.1830E-01  0.2394E-01
     -2.709  0.2481E-01  0.2616E-01
     -2.620  0.1496E-01  0.2750E-01
     -2.531  0.1584E-01  0.2891E-01
     -2.441  0.1593E-01  0.3034E-01
     -2.352  0.1819E-01  0.3196E-01
     -2.263  0.2046E-01  0.3379E-01
     -2.173  0.2157E-01  0.3572E-01
     -2.084  0.1965E-01  0.3747E-01
     -1.995  0.1943E-01  0.3921E-01
     -1.905  0.2831E-01  0.4174E-01
     -1.816  0.2750E-01  0.4420E-01
     -1.726  0.1825E-01  0.4583E-01
     -1.637  0.2892E-01  0.4841E-01
     -1.548  0.1966E-01  0.5017E-01
     -1.458  0.2133E-01  0.5208E-01
     -1.369  0.2399E-01  0.5422E-01
     -1.280  0.1783E-01  0.5581E-01
     -1.190  0.2711E-01  0.5824E-01
     -1.101  0.5036E-01  0.6274E-01
     -1.011  0.3226E-01  0.6562E-01
     -0.922  0.4107E-01  0.6929E-01
     -0.833  0.3332E-01  0.7227E-01
     -0.743  0.3107E-01  0.7505E-01
     -0.654  0.3548E-01  0.7822E-01
     -0.565  0.4878E-01  0.8258E-01
     -0.475  0.3520E-01  0.8572E-01
     -0.386  0.1858E-01  0.8738E-01
     -0.296  0.2994E-01  0.9006E-01
     -0.207  0.2797E-01  0.9256E-01
     -0.118  0.2761E-01  0.9503E-01
     -0.028  0.3539E-01  0.9819E-01
      0.061  0.4247E-01  0.1020E+00
      0.150  0.3926E-01  0.1055E+00
      0.240  0.3537E-01  0.1087E+00
      0.329  0.4192E-01  0.1124E+00
      0.419  0.4926E-01  0.1168E+00
      0.508  0.3261E-01  0.1197E+00
      0.597  0.3152E-02  0.1200E+00
      0.687  0.6326E-05  0.1200E+00
      0.776  0.4635E-10  0.1200E+00
      0.865  0.5647E-18  0.1200E+00
      0.955  0.0000E+00  0.1200E+00
      1.044  0.0000E+00  0.1200E+00
      1.133  0.0000E+00  0.1200E+00
      1.223  0.0000E+00  0.1200E+00
      1.312  0.0000E+00  0.1200E+00
      1.402  0.0000E+00  0.1200E+00
      1.491  0.0000E+00  0.1200E+00
      1.580  0.0000E+00  0.1200E+00
      1.670  0.0000E+00  0.1200E+00
      1.759  0.0000E+00  0.1200E+00
      1.848  0.8544E-12  0.1200E+00
      1.938  0.2601E-06  0.1200E+00
      2.027  0.2069E-03  0.1200E+00
      2.117  0.2564E-02  0.1202E+00
      2.206  0.6964E-02  0.1209E+00
      2.295  0.8234E-02  0.1216E+00
      2.385  0.7497E-02  0.1223E+00
      2.474  0.8300E-02  0.1230E+00
      2.563  0.2087E-01  0.1249E+00
      2.653  0.1675E-01  0.1264E+00
      2.742  0.2052E-01  0.1282E+00
      2.832  0.2193E-01  0.1302E+00
      2.921  0.2765E-01  0.1326E+00
      3.010  0.2280E-01  0.1347E+00
      3.100  0.1727E-01  0.1362E+00
      3.189  0.1907E-01  0.1379E+00
      3.278  0.1332E-01  0.1391E+00
      3.368  0.1627E-01  0.1406E+00
      3.457  0.3074E-01  0.1433E+00
      3.547  0.3182E-01  0.1462E+00
      3.636  0.2543E-01  0.1484E+00
      3.725  0.2375E-01  0.1506E+00
      3.815  0.2395E-01  0.1527E+00
      3.904  0.2038E-01  0.1545E+00
      3.993  0.2211E-01  0.1565E+00
      4.083  0.3546E-01  0.1597E+00
      4.172  0.4353E-01  0.1636E+00
      4.261  0.5584E-01  0.1686E+00
      4.351  0.5418E-01  0.1734E+00
      4.440  0.5388E-01  0.1782E+00
      4.530  0.4123E-01  0.1819E+00
      4.619  0.3605E-01  0.1851E+00
      4.708  0.4143E-01  0.1888E+00
      4.798  0.4787E-01  0.1931E+00
      4.887  0.3539E-01  0.1963E+00
      4.976  0.4104E-01  0.1999E+00
      5.066  0.3164E-01  0.2028E+00
      5.155  0.4252E-01  0.2066E+00
      5.245  0.3555E-01  0.2097E+00
      5.334  0.3028E-01  0.2124E+00
      5.423  0.3250E-01  0.2153E+00
      5.513  0.3966E-01  0.2189E+00
      5.602  0.2703E-01  0.2213E+00
      5.691  0.3413E-01  0.2244E+00
      5.781  0.3402E-01  0.2274E+00
      5.870  0.4575E-01  0.2315E+00
      5.960  0.3982E-01  0.2350E+00
      6.049  0.3286E-01  0.2380E+00
      6.138  0.3292E-01  0.2409E+00
      6.228  0.3431E-01  0.2440E+00
      6.317  0.3918E-01  0.2475E+00
      6.406  0.4948E-01  0.2519E+00
      6.496  0.4373E-01  0.2558E+00
      6.585  0.3526E-01  0.2590E+00
      6.675  0.4255E-01  0.2628E+00
      6.764  0.4836E-01  0.2671E+00
      6.853  0.5277E-01  0.2718E+00
      6.943  0.4806E-01  0.2761E+00
      7.032  0.4102E-01  0.2798E+00
      7.121  0.3707E-01  0.2831E+00
      7.211  0.4173E-01  0.2868E+00
      7.300  0.5340E-01  0.2916E+00
      7.389  0.3395E-01  0.2946E+00
      7.479  0.4155E-01  0.2983E+00
      7.568  0.5651E-01  0.3034E+00
      7.658  0.5024E-01  0.3079E+00
      7.747  0.5636E-01  0.3129E+00
      7.836  0.4845E-01  0.3172E+00
      7.926  0.5505E-01  0.3222E+00
      8.015  0.5590E-01  0.3272E+00
      8.104  0.5171E-01  0.3318E+00
      8.194  0.6668E-01  0.3377E+00
      8.283  0.6936E-01  0.3439E+00
      8.373  0.4926E-01  0.3483E+00
      8.462  0.4913E-01  0.3527E+00
      8.551  0.5529E-01  0.3577E+00
      8.641  0.5822E-01  0.3629E+00
      8.730  0.7128E-01  0.3692E+00
      8.819  0.7758E-01  0.3762E+00
      8.909  0.6589E-01  0.3821E+00
      8.998  0.5559E-01  0.3870E+00
      9.088  0.7738E-01  0.3939E+00
      9.177  0.6690E-01  0.3999E+00
      9.266  0.5184E-01  0.4046E+00
      9.356  0.4632E-01  0.4087E+00
      9.445  0.5354E-01  0.4135E+00
      9.534  0.6765E-01  0.4195E+00
      9.624  0.8467E-01  0.4271E+00
      9.713  0.5585E-01  0.4321E+00
      9.803  0.6470E-01  0.4379E+00
      9.892  0.4748E-01  0.4421E+00
      9.981  0.3971E-01  0.4457E+00
     10.071  0.5058E-01  0.4502E+00
     10.160  0.5964E-01  0.4555E+00
     10.249  0.5804E-01  0.4607E+00
     10.339  0.4423E-01  0.4647E+00
     10.428  0.2911E-01  0.4673E+00
     10.517  0.2630E-01  0.4696E+00
     10.607  0.3513E-01  0.4727E+00
     10.696  0.3966E-01  0.4763E+00
     10.786  0.1968E-01  0.4781E+00
     10.875  0.1165E-02  0.4782E+00
     10.964  0.4461E-02  0.4786E+00
     11.054  0.1319E-01  0.4797E+00
     11.143  0.2972E-02  0.4800E+00
     11.232  0.1714E-04  0.4800E+00
     11.322  0.2698E-03  0.4800E+00
     11.411  0.2457E-02  0.4802E+00
     11.501  0.9395E-03  0.4803E+00
     11.590  0.3010E-02  0.4806E+00
     11.679  0.3164E-03  0.4806E+00
     11.769  0.5046E-03  0.4807E+00
     11.858  0.5901E-02  0.4812E+00
     11.947  0.4605E-02  0.4816E+00
     12.037  0.8867E-02  0.4824E+00
     12.126  0.7202E-02  0.4830E+00
     12.216  0.4532E-02  0.4835E+00
     12.305  0.1123E-02  0.4836E+00
     12.394  0.4091E-02  0.4839E+00
     12.484  0.1429E-01  0.4852E+00
     12.573  0.8657E-02  0.4860E+00
     12.662  0.4566E-02  0.4864E+00
     12.752  0.6285E-02  0.4869E+00
     12.841  0.1305E-01  0.4881E+00
     12.931  0.2066E-01  0.4899E+00
     13.020  0.1260E-01  0.4911E+00
     13.109  0.7522E-02  0.4917E+00
     13.199  0.9084E-02  0.4926E+00
     13.288  0.1338E-01  0.4938E+00
     13.377  0.1280E-01  0.4949E+00
     13.467  0.2138E-01  0.4968E+00
     13.556  0.1920E-01  0.4985E+00
     13.645  0.1350E-01  0.4997E+00
     13.735  0.1649E-01  0.5012E+00
     13.824  0.1547E-01  0.5026E+00
     13.914  0.1510E-01  0.5039E+00
     14.003  0.1263E-01  0.5051E+00
     14.092  0.1914E-01  0.5068E+00
     14.182  0.2192E-01  0.5087E+00
     14.271  0.1557E-01  0.5101E+00
     14.360  0.1987E-01  0.5119E+00
     14.450  0.3387E-01  0.5149E+00
     14.539  0.3243E-01  0.5178E+00
     14.629  0.2479E-01  0.5200E+00
     14.718  0.3202E-01  0.5229E+00
     14.807  0.2906E-01  0.5255E+00
     14.897  0.2461E-01  0.5277E+00
     14.986  0.2847E-01  0.5302E+00
     15.075  0.2664E-01  0.5326E+00
     15.165  0.2571E-01  0.5349E+00
     15.254  0.1763E-01  0.5365E+00
     15.344  0.2512E-01  0.5387E+00
     15.433  0.2349E-01  0.5408E+00
     15.522  0.2111E-01  0.5427E+00
     15.612  0.1643E-01  0.5442E+00
     15.701  0.2194E-01  0.5462E+00
     15.790  0.3890E-01  0.5496E+00
     15.880  0.3266E-01  0.5526E+00
     15.969  0.2914E-01  0.5552E+00
     16.059  0.1881E-01  0.5568E+00
     16.148  0.3190E-01  0.5597E+00
     16.237  0.3376E-01  0.5627E+00
     16.327  0.2176E-01  0.5647E+00
     16.416  0.2017E-01  0.5665E+00
     16.505  0.1483E-01  0.5678E+00
     16.595  0.2605E-01  0.5701E+00
     16.684  0.4089E-01  0.5738E+00
     16.773  0.2637E-01  0.5761E+00
     16.863  0.1922E-01  0.5778E+00
     16.952  0.2438E-01  0.5800E+00
     17.042  0.3943E-01  0.5835E+00
     17.131  0.4778E-01  0.5878E+00
     17.220  0.2893E-01  0.5904E+00
     17.310  0.2677E-01  0.5928E+00
     17.399  0.2773E-01  0.5953E+00
     17.488  0.2169E-01  0.5972E+00
     17.578  0.1943E-01  0.5989E+00
     17.667  0.2845E-01  0.6015E+00
     17.757  0.1925E-01  0.6032E+00
     17.846  0.3831E-01  0.6066E+00
     17.935  0.4606E-01  0.6107E+00
     18.025  0.3079E-01  0.6135E+00
     18.114  0.3446E-01  0.6166E+00
     18.203  0.3132E-01  0.6194E+00
     18.293  0.4564E-01  0.6235E+00
     18.382  0.4627E-01  0.6276E+00
     18.472  0.3445E-01  0.6307E+00
     18.561  0.3100E-01  0.6334E+00
     18.650  0.3326E-01  0.6364E+00
     18.740  0.4136E-01  0.6401E+00
     18.829  0.4090E-01  0.6438E+00
     18.918  0.3156E-01  0.6466E+00
     19.008  0.2766E-01  0.6491E+00
     19.097  0.3063E-01  0.6518E+00
     19.187  0.2417E-01  0.6540E+00
     19.276  0.2504E-01  0.6562E+00
     19.365  0.2994E-01  0.6589E+00
     19.455  0.1230E-01  0.6600E+00
     19.544  0.3241E-03  0.6600E+00
     19.633  0.6306E-07  0.6600E+00
     19.723  0.3845E-13  0.6600E+00
     19.812  0.0000E+00  0.6600E+00
     19.901  0.0000E+00  0.6600E+00
     19.991  0.0000E+00  0.6600E+00
     20.080  0.0000E+00  0.6600E+00
     20.170  0.0000E+00  0.6600E+00
     20.259  0.0000E+00  0.6600E+00
     20.348  0.0000E+00  0.6600E+00
     20.438  0.0000E+00  0.6600E+00
     20.527  0.0000E+00  0.6600E+00
     20.616  0.0000E+00  0.6600E+00
