Al4C3 Pnma (CIF findsym, P21/n21/m21/a) 
   1.00000000000000     
     8.6920985909963893    0.0000000000000000    0.0000000000000000
     0.0000000000000000    2.9864909673459490    0.0000000000000000
     0.0000000000000000    0.0000000000000000    9.1630681883983485
   Al   C 
    16    12
Direct
  0.2699865884522513  0.2500000000000000  0.2662906943512596
  0.7699865884522518  0.2500000000000000  0.2337093056487403
  0.7300134115477482  0.7500000000000000  0.7337093056487404
  0.2300134115477485  0.7500000000000000  0.7662906943512596
  0.4634902664375450  0.2500000000000000  0.8917672588379592
  0.9634902664375453  0.2500000000000000  0.6082327411620408
  0.5365097335624547  0.7500000000000000  0.1082327411620406
  0.0365097335624549  0.7500000000000000  0.3917672588379594
  0.5054450798700892  0.2500000000000000  0.6062096050222235
  0.0054450798700895  0.2500000000000000  0.8937903949777765
  0.4945549201299105  0.7500000000000000  0.3937903949777766
  0.9945549201299108  0.7500000000000000  0.1062096050222235
  0.2343865802516370  0.2500000000000000  0.5566706841789393
  0.7343865802516369  0.2500000000000000  0.9433293158210607
  0.7656134197483631  0.7500000000000000  0.4433293158210608
  0.2656134197483629  0.7500000000000000  0.0566706841789392
  0.3848307936506287  0.2500000000000000  0.4262911181904749
  0.8848307936506287  0.2500000000000000  0.0737088818095250
  0.6151692063493713  0.7500000000000000  0.5737088818095251
  0.1151692063493712  0.7500000000000000  0.9262911181904749
  0.3968043819040202  0.2500000000000000  0.0899656572598746
  0.8968043819040201  0.2500000000000000  0.4100343427401253
  0.6031956180959799  0.7500000000000000  0.9100343427401253
  0.1031956180959798  0.7500000000000000  0.5899656572598747
  0.3454666087146567  0.2500000000000000  0.7339340164631832
  0.8454666087146567  0.2500000000000000  0.7660659835368168
  0.6545333912853433  0.7500000000000000  0.2660659835368167
  0.1545333912853432  0.7500000000000000  0.2339340164631833
 
  0.00000000E+00  0.00000000E+00  0.00000000E+00
  0.00000000E+00  0.00000000E+00  0.00000000E+00
  0.00000000E+00  0.00000000E+00  0.00000000E+00
  0.00000000E+00  0.00000000E+00  0.00000000E+00
  0.00000000E+00  0.00000000E+00  0.00000000E+00
  0.00000000E+00  0.00000000E+00  0.00000000E+00
  0.00000000E+00  0.00000000E+00  0.00000000E+00
  0.00000000E+00  0.00000000E+00  0.00000000E+00
  0.00000000E+00  0.00000000E+00  0.00000000E+00
  0.00000000E+00  0.00000000E+00  0.00000000E+00
  0.00000000E+00  0.00000000E+00  0.00000000E+00
  0.00000000E+00  0.00000000E+00  0.00000000E+00
  0.00000000E+00  0.00000000E+00  0.00000000E+00
  0.00000000E+00  0.00000000E+00  0.00000000E+00
  0.00000000E+00  0.00000000E+00  0.00000000E+00
  0.00000000E+00  0.00000000E+00  0.00000000E+00
  0.00000000E+00  0.00000000E+00  0.00000000E+00
  0.00000000E+00  0.00000000E+00  0.00000000E+00
  0.00000000E+00  0.00000000E+00  0.00000000E+00
  0.00000000E+00  0.00000000E+00  0.00000000E+00
  0.00000000E+00  0.00000000E+00  0.00000000E+00
  0.00000000E+00  0.00000000E+00  0.00000000E+00
  0.00000000E+00  0.00000000E+00  0.00000000E+00
  0.00000000E+00  0.00000000E+00  0.00000000E+00
  0.00000000E+00  0.00000000E+00  0.00000000E+00
  0.00000000E+00  0.00000000E+00  0.00000000E+00
  0.00000000E+00  0.00000000E+00  0.00000000E+00
  0.00000000E+00  0.00000000E+00  0.00000000E+00
