  28  28   0   0
  0.8397784E+01  0.2790045E-09  0.8523612E-09  0.9887531E-09  0.5000000E-15
  1.000000000000000E-004
  CAR 
 Al4C3 anti-CaFe2O4 - r2SCAN H(P) scan @ 
     21.46949532     -6.79838240  301     12.61811611      1.00000000
     -6.798  0.0000E+00  0.0000E+00
     -6.704  0.0000E+00  0.0000E+00
     -6.610  0.0000E+00  0.0000E+00
     -6.516  0.0000E+00  0.0000E+00
     -6.421  0.0000E+00  0.0000E+00
     -6.327  0.0000E+00  0.0000E+00
     -6.233  0.0000E+00  0.0000E+00
     -6.139  0.0000E+00  0.0000E+00
     -6.045  0.0000E+00  0.0000E+00
     -5.950  0.0000E+00  0.0000E+00
     -5.856  0.0000E+00  0.0000E+00
     -5.762  0.5864E-15  0.5526E-16
     -5.668  0.3576E-08  0.3370E-09
     -5.573  0.2487E-04  0.2343E-05
     -5.479  0.5470E-03  0.5389E-04
     -5.385  0.2473E-02  0.2869E-03
     -5.291  0.4974E-02  0.7556E-03
     -5.197  0.5116E-02  0.1238E-02
     -5.102  0.3869E-02  0.1602E-02
     -5.008  0.6592E-02  0.2223E-02
     -4.914  0.1118E-01  0.3277E-02
     -4.820  0.9712E-02  0.4192E-02
     -4.725  0.5488E-02  0.4709E-02
     -4.631  0.7331E-02  0.5400E-02
     -4.537  0.1268E-01  0.6594E-02
     -4.443  0.6978E-02  0.7252E-02
     -4.348  0.7680E-02  0.7975E-02
     -4.254  0.1273E-01  0.9175E-02
     -4.160  0.1392E-01  0.1049E-01
     -4.066  0.1278E-01  0.1169E-01
     -3.972  0.1255E-01  0.1287E-01
     -3.877  0.8932E-02  0.1371E-01
     -3.783  0.1284E-01  0.1492E-01
     -3.689  0.1474E-01  0.1631E-01
     -3.595  0.1503E-01  0.1773E-01
     -3.500  0.1233E-01  0.1889E-01
     -3.406  0.1145E-01  0.1997E-01
     -3.312  0.1467E-01  0.2135E-01
     -3.218  0.2253E-01  0.2348E-01
     -3.124  0.2296E-01  0.2564E-01
     -3.029  0.1275E-01  0.2684E-01
     -2.935  0.1033E-01  0.2781E-01
     -2.841  0.1810E-01  0.2952E-01
     -2.747  0.1441E-01  0.3088E-01
     -2.652  0.1677E-01  0.3246E-01
     -2.558  0.2273E-01  0.3460E-01
     -2.464  0.2313E-01  0.3678E-01
     -2.370  0.1964E-01  0.3863E-01
     -2.276  0.2346E-01  0.4084E-01
     -2.181  0.2969E-01  0.4364E-01
     -2.087  0.2110E-01  0.4562E-01
     -1.993  0.2016E-01  0.4752E-01
     -1.899  0.1501E-01  0.4894E-01
     -1.804  0.1463E-01  0.5032E-01
     -1.710  0.2916E-01  0.5306E-01
     -1.616  0.3616E-01  0.5647E-01
     -1.522  0.3237E-01  0.5952E-01
     -1.427  0.3246E-01  0.6258E-01
     -1.333  0.3391E-01  0.6577E-01
     -1.239  0.3326E-01  0.6891E-01
     -1.145  0.3316E-01  0.7203E-01
     -1.051  0.3370E-01  0.7521E-01
     -0.956  0.3764E-01  0.7876E-01
     -0.862  0.3975E-01  0.8250E-01
     -0.768  0.3908E-01  0.8618E-01
     -0.674  0.4139E-01  0.9008E-01
     -0.579  0.4747E-01  0.9456E-01
     -0.485  0.4199E-01  0.9851E-01
     -0.391  0.2397E-01  0.1008E+00
     -0.297  0.2007E-01  0.1027E+00
     -0.203  0.1141E-01  0.1037E+00
     -0.108  0.1841E-01  0.1055E+00
     -0.014  0.7920E-02  0.1062E+00
      0.080  0.1614E-01  0.1077E+00
      0.174  0.1478E-01  0.1091E+00
      0.269  0.1210E-01  0.1103E+00
      0.363  0.1138E-01  0.1113E+00
      0.457  0.1764E-01  0.1130E+00
      0.551  0.8314E-02  0.1138E+00
      0.645  0.8132E-02  0.1146E+00
      0.740  0.1485E-01  0.1160E+00
      0.834  0.1106E-01  0.1170E+00
      0.928  0.6232E-02  0.1176E+00
      1.022  0.6502E-02  0.1182E+00
      1.117  0.1157E-01  0.1193E+00
      1.211  0.5843E-02  0.1198E+00
      1.305  0.1729E-02  0.1200E+00
      1.399  0.1144E-04  0.1200E+00
      1.494  0.1915E-09  0.1200E+00
      1.588  0.3805E-17  0.1200E+00
      1.682  0.0000E+00  0.1200E+00
      1.776  0.1513E-14  0.1200E+00
      1.870  0.8424E-08  0.1200E+00
      1.965  0.5481E-04  0.1200E+00
      2.059  0.1150E-02  0.1201E+00
      2.153  0.2815E-02  0.1204E+00
      2.247  0.4624E-02  0.1208E+00
      2.342  0.5649E-02  0.1213E+00
      2.436  0.5092E-02  0.1218E+00
      2.530  0.8700E-02  0.1226E+00
      2.624  0.1181E-01  0.1238E+00
      2.718  0.1573E-01  0.1252E+00
      2.813  0.1731E-01  0.1269E+00
      2.907  0.1486E-01  0.1283E+00
      3.001  0.3654E-01  0.1317E+00
      3.095  0.3681E-01  0.1352E+00
      3.190  0.2984E-01  0.1380E+00
      3.284  0.3153E-01  0.1410E+00
      3.378  0.3034E-01  0.1438E+00
      3.472  0.3038E-01  0.1467E+00
      3.567  0.3489E-01  0.1500E+00
      3.661  0.3876E-01  0.1536E+00
      3.755  0.3575E-01  0.1570E+00
      3.849  0.4205E-01  0.1610E+00
      3.943  0.5262E-01  0.1659E+00
      4.038  0.3306E-01  0.1690E+00
      4.132  0.2423E-01  0.1713E+00
      4.226  0.4638E-01  0.1757E+00
      4.320  0.3312E-01  0.1788E+00
      4.415  0.2264E-01  0.1809E+00
      4.509  0.3239E-01  0.1840E+00
      4.603  0.2819E-01  0.1866E+00
      4.697  0.3664E-01  0.1901E+00
      4.791  0.4132E-01  0.1940E+00
      4.886  0.2891E-01  0.1967E+00
      4.980  0.2611E-01  0.1992E+00
      5.074  0.2980E-01  0.2020E+00
      5.168  0.3200E-01  0.2050E+00
      5.263  0.4707E-01  0.2094E+00
      5.357  0.4437E-01  0.2136E+00
      5.451  0.3241E-01  0.2167E+00
      5.545  0.3053E-01  0.2195E+00
      5.639  0.3174E-01  0.2225E+00
      5.734  0.3328E-01  0.2257E+00
      5.828  0.3117E-01  0.2286E+00
      5.922  0.3397E-01  0.2318E+00
      6.016  0.3431E-01  0.2350E+00
      6.111  0.4246E-01  0.2390E+00
      6.205  0.3479E-01  0.2423E+00
      6.299  0.3797E-01  0.2459E+00
      6.393  0.3478E-01  0.2492E+00
      6.488  0.4149E-01  0.2531E+00
      6.582  0.4425E-01  0.2573E+00
      6.676  0.4504E-01  0.2615E+00
      6.770  0.3695E-01  0.2650E+00
      6.864  0.4132E-01  0.2689E+00
      6.959  0.4659E-01  0.2733E+00
      7.053  0.4545E-01  0.2775E+00
      7.147  0.4541E-01  0.2818E+00
      7.241  0.4186E-01  0.2858E+00
      7.336  0.3139E-01  0.2887E+00
      7.430  0.4230E-01  0.2927E+00
      7.524  0.3360E-01  0.2959E+00
      7.618  0.3699E-01  0.2994E+00
      7.712  0.4792E-01  0.3039E+00
      7.807  0.3312E-01  0.3070E+00
      7.901  0.4108E-01  0.3109E+00
      7.995  0.2834E-01  0.3135E+00
      8.089  0.4452E-01  0.3177E+00
      8.184  0.4236E-01  0.3217E+00
      8.278  0.4362E-01  0.3258E+00
      8.372  0.6233E-01  0.3317E+00
      8.466  0.2905E-01  0.3345E+00
      8.560  0.3569E-01  0.3378E+00
      8.655  0.4859E-01  0.3424E+00
      8.749  0.5657E-01  0.3477E+00
      8.843  0.5286E-01  0.3527E+00
      8.937  0.4671E-01  0.3571E+00
      9.032  0.3614E-01  0.3605E+00
      9.126  0.3554E-01  0.3639E+00
      9.220  0.3149E-01  0.3668E+00
      9.314  0.2802E-01  0.3695E+00
      9.409  0.3945E-01  0.3732E+00
      9.503  0.6867E-01  0.3797E+00
      9.597  0.6409E-01  0.3857E+00
      9.691  0.5264E-01  0.3907E+00
      9.785  0.4513E-01  0.3949E+00
      9.880  0.6146E-01  0.4007E+00
      9.974  0.5613E-01  0.4060E+00
     10.068  0.6556E-01  0.4122E+00
     10.162  0.8600E-01  0.4203E+00
     10.257  0.5972E-01  0.4259E+00
     10.351  0.5818E-01  0.4314E+00
     10.445  0.4418E-01  0.4355E+00
     10.539  0.5944E-01  0.4411E+00
     10.633  0.4945E-01  0.4458E+00
     10.728  0.4685E-01  0.4502E+00
     10.822  0.4899E-01  0.4548E+00
     10.916  0.4243E-01  0.4588E+00
     11.010  0.3063E-01  0.4617E+00
     11.105  0.1918E-01  0.4635E+00
     11.199  0.1795E-01  0.4652E+00
     11.293  0.2041E-01  0.4671E+00
     11.387  0.2457E-01  0.4694E+00
     11.482  0.1412E-01  0.4708E+00
     11.576  0.1553E-01  0.4722E+00
     11.670  0.2157E-01  0.4743E+00
     11.764  0.1781E-01  0.4760E+00
     11.858  0.7814E-02  0.4767E+00
     11.953  0.4606E-02  0.4771E+00
     12.047  0.5114E-02  0.4776E+00
     12.141  0.4105E-02  0.4780E+00
     12.235  0.8198E-02  0.4788E+00
     12.330  0.8034E-02  0.4795E+00
     12.424  0.4778E-02  0.4800E+00
     12.518  0.2878E-03  0.4800E+00
     12.612  0.1401E-06  0.4800E+00
     12.706  0.1337E-12  0.4800E+00
     12.801  0.0000E+00  0.4800E+00
     12.895  0.9205E-18  0.4800E+00
     12.989  0.6310E-10  0.4800E+00
     13.083  0.4753E-05  0.4800E+00
     13.178  0.8291E-03  0.4801E+00
     13.272  0.2879E-02  0.4803E+00
     13.366  0.7878E-02  0.4811E+00
     13.460  0.1398E-01  0.4824E+00
     13.554  0.9091E-02  0.4833E+00
     13.649  0.1016E-01  0.4842E+00
     13.743  0.1778E-01  0.4859E+00
     13.837  0.1463E-01  0.4873E+00
     13.931  0.2018E-01  0.4892E+00
     14.026  0.1460E-01  0.4906E+00
     14.120  0.2158E-01  0.4926E+00
     14.214  0.6962E-02  0.4932E+00
     14.308  0.1552E-01  0.4947E+00
     14.403  0.1754E-01  0.4964E+00
     14.497  0.1859E-01  0.4981E+00
     14.591  0.2337E-01  0.5003E+00
     14.685  0.2548E-01  0.5027E+00
     14.779  0.3352E-01  0.5059E+00
     14.874  0.2648E-01  0.5084E+00
     14.968  0.2446E-01  0.5107E+00
     15.062  0.3973E-01  0.5144E+00
     15.156  0.2112E-01  0.5164E+00
     15.251  0.1899E-01  0.5182E+00
     15.345  0.3644E-01  0.5216E+00
     15.439  0.3462E-01  0.5249E+00
     15.533  0.1987E-01  0.5268E+00
     15.627  0.2220E-01  0.5289E+00
     15.722  0.1537E-01  0.5303E+00
     15.816  0.2696E-01  0.5328E+00
     15.910  0.3428E-01  0.5361E+00
     16.004  0.3548E-01  0.5394E+00
     16.099  0.3830E-01  0.5430E+00
     16.193  0.3154E-01  0.5460E+00
     16.287  0.3386E-01  0.5492E+00
     16.381  0.4246E-01  0.5532E+00
     16.476  0.3503E-01  0.5565E+00
     16.570  0.3105E-01  0.5594E+00
     16.664  0.4048E-01  0.5632E+00
     16.758  0.3315E-01  0.5664E+00
     16.852  0.3614E-01  0.5698E+00
     16.947  0.4161E-01  0.5737E+00
     17.041  0.3495E-01  0.5770E+00
     17.135  0.3316E-01  0.5801E+00
     17.229  0.3465E-01  0.5834E+00
     17.324  0.3136E-01  0.5863E+00
     17.418  0.3517E-01  0.5896E+00
     17.512  0.2787E-01  0.5923E+00
     17.606  0.3283E-01  0.5954E+00
     17.700  0.3464E-01  0.5986E+00
     17.795  0.3176E-01  0.6016E+00
     17.889  0.4703E-01  0.6060E+00
     17.983  0.2586E-01  0.6085E+00
     18.077  0.3575E-01  0.6118E+00
     18.172  0.2960E-01  0.6146E+00
     18.266  0.4353E-01  0.6187E+00
     18.360  0.3693E-01  0.6222E+00
     18.454  0.2397E-01  0.6245E+00
     18.548  0.2448E-01  0.6268E+00
     18.643  0.2183E-01  0.6288E+00
     18.737  0.1921E-01  0.6306E+00
     18.831  0.2718E-01  0.6332E+00
     18.925  0.2723E-01  0.6358E+00
     19.020  0.2197E-01  0.6378E+00
     19.114  0.2301E-01  0.6400E+00
     19.208  0.2803E-01  0.6427E+00
     19.302  0.3092E-01  0.6456E+00
     19.397  0.2488E-01  0.6479E+00
     19.491  0.1806E-01  0.6496E+00
     19.585  0.1802E-01  0.6513E+00
     19.679  0.2099E-01  0.6533E+00
     19.773  0.1977E-01  0.6552E+00
     19.868  0.1798E-01  0.6568E+00
     19.962  0.1619E-01  0.6584E+00
     20.056  0.1388E-01  0.6597E+00
     20.150  0.2440E-02  0.6599E+00
     20.245  0.8849E-03  0.6600E+00
     20.339  0.4968E-04  0.6600E+00
     20.433  0.7153E-08  0.6600E+00
     20.527  0.1173E-14  0.6600E+00
     20.621  0.0000E+00  0.6600E+00
     20.716  0.0000E+00  0.6600E+00
     20.810  0.0000E+00  0.6600E+00
     20.904  0.0000E+00  0.6600E+00
     20.998  0.0000E+00  0.6600E+00
     21.093  0.0000E+00  0.6600E+00
     21.187  0.0000E+00  0.6600E+00
     21.281  0.0000E+00  0.6600E+00
     21.375  0.0000E+00  0.6600E+00
     21.469  0.0000E+00  0.6600E+00
