Al4C3 anti-CaFe2O4 - r2SCAN H(P) scan @ 
           1
     2.790045    0.000000    0.000000
     0.000000    8.523611    0.000000
     0.000000    0.000000    9.887530
   Al   C 
    16    12
Direct configuration=     1
   0.25000000  0.42452673  0.58737169
   0.75000000  0.57547327  0.41262831
   0.25000000  0.92452673  0.91262831
   0.75000000  0.07547327  0.08737169
   0.25000000  0.48006014  0.20616567
   0.75000000  0.51993986  0.79383433
   0.25000000  0.98006014  0.29383433
   0.75000000  0.01993986  0.70616567
   0.25000000  0.14844413  0.51434757
   0.75000000  0.85155587  0.48565243
   0.25000000  0.64844413  0.98565243
   0.75000000  0.35155587  0.01434757
   0.75000000  0.26623367  0.30003900
   0.25000000  0.73376633  0.69996100
   0.25000000  0.23376633  0.80003900
   0.75000000  0.76623367  0.19996100
   0.75000000  0.75363005  0.85900018
   0.25000000  0.24636995  0.14099982
   0.75000000  0.25363005  0.64099982
   0.25000000  0.74636995  0.35900018
   0.25000000  0.93017970  0.61077023
   0.75000000  0.56982030  0.11077023
   0.25000000  0.43017970  0.88922977
   0.75000000  0.06982030  0.38922977
   0.75000000  0.09689492  0.88934541
   0.25000000  0.90310508  0.11065459
   0.75000000  0.59689492  0.61065459
   0.25000000  0.40310508  0.38934541
Al4C3 anti-CaFe2O4 - r2SCAN H(P) scan @ 
           1
     2.760709    0.000000    0.000000
     0.000000    8.433988    0.000000
     0.000000    0.000000    9.783566
   Al   C 
    16    12
Direct configuration=     2
   0.25000000  0.42460466  0.58734979
   0.75000000  0.57539534  0.41265021
   0.25000000  0.92460466  0.91265021
   0.75000000  0.07539534  0.08734979
   0.25000000  0.47999706  0.20585712
   0.75000000  0.52000294  0.79414288
   0.25000000  0.97999706  0.29414288
   0.75000000  0.02000294  0.70585712
   0.25000000  0.14821205  0.51438082
   0.75000000  0.85178795  0.48561918
   0.25000000  0.64821205  0.98561918
   0.75000000  0.35178795  0.01438082
   0.75000000  0.26639206  0.29995415
   0.25000000  0.73360794  0.70004585
   0.25000000  0.23360794  0.79995415
   0.75000000  0.76639206  0.20004585
   0.75000000  0.75319956  0.85888039
   0.25000000  0.24680044  0.14111961
   0.75000000  0.25319956  0.64111961
   0.25000000  0.74680044  0.35888039
   0.25000000  0.93017148  0.61145514
   0.75000000  0.56982852  0.11145514
   0.25000000  0.43017148  0.88854486
   0.75000000  0.06982852  0.38854486
   0.75000000  0.09634595  0.88900903
   0.25000000  0.90365405  0.11099097
   0.75000000  0.59634595  0.61099097
   0.25000000  0.40365405  0.38900903
Al4C3 anti-CaFe2O4 - r2SCAN H(P) scan @ 
           1
     2.779612    0.000000    0.000000
     0.000000    8.491738    0.000000
     0.000000    0.000000    9.850557
   Al   C 
    16    12
Direct configuration=     3
   0.25000000  0.42455392  0.58736405
   0.75000000  0.57544608  0.41263595
   0.25000000  0.92455392  0.91263595
   0.75000000  0.07544608  0.08736405
   0.25000000  0.48003814  0.20605805
   0.75000000  0.51996186  0.79394195
   0.25000000  0.98003814  0.29394195
   0.75000000  0.01996186  0.70605805
   0.25000000  0.14836318  0.51435917
   0.75000000  0.85163682  0.48564083
   0.25000000  0.64836318  0.98564083
   0.75000000  0.35163682  0.01435917
   0.75000000  0.26628891  0.30000941
   0.25000000  0.73371109  0.69999059
   0.25000000  0.23371109  0.80000941
   0.75000000  0.76628891  0.19999059
   0.75000000  0.75347990  0.85895840
   0.25000000  0.24652010  0.14104160
   0.75000000  0.25347990  0.64104160
   0.25000000  0.74652010  0.35895840
   0.25000000  0.93017683  0.61100912
   0.75000000  0.56982317  0.11100912
   0.25000000  0.43017683  0.88899088
   0.75000000  0.06982317  0.38899088
   0.75000000  0.09670344  0.88922808
   0.25000000  0.90329656  0.11077192
   0.75000000  0.59670344  0.61077192
   0.25000000  0.40329656  0.38922808
Al4C3 anti-CaFe2O4 - r2SCAN H(P) scan @ 
           1
     2.779469    0.000000    0.000000
     0.000000    8.491301    0.000000
     0.000000    0.000000    9.850050
   Al   C 
    16    12
Direct configuration=     4
   0.25000000  0.42455430  0.58736395
   0.75000000  0.57544570  0.41263605
   0.25000000  0.92455430  0.91263605
   0.75000000  0.07544570  0.08736395
   0.25000000  0.48003783  0.20605654
   0.75000000  0.51996217  0.79394346
   0.25000000  0.98003783  0.29394346
   0.75000000  0.01996217  0.70605654
   0.25000000  0.14836205  0.51435933
   0.75000000  0.85163795  0.48564067
   0.25000000  0.64836205  0.98564067
   0.75000000  0.35163795  0.01435933
   0.75000000  0.26628969  0.30000899
   0.25000000  0.73371031  0.69999101
   0.25000000  0.23371031  0.80000899
   0.75000000  0.76628969  0.19999101
   0.75000000  0.75347779  0.85895781
   0.25000000  0.24652221  0.14104219
   0.75000000  0.25347779  0.64104219
   0.25000000  0.74652221  0.35895781
   0.25000000  0.93017679  0.61101248
   0.75000000  0.56982321  0.11101248
   0.25000000  0.43017679  0.88898752
   0.75000000  0.06982321  0.38898752
   0.75000000  0.09670075  0.88922644
   0.25000000  0.90329925  0.11077356
   0.75000000  0.59670075  0.61077356
   0.25000000  0.40329925  0.38922644
Al4C3 anti-CaFe2O4 - r2SCAN H(P) scan @ 
           1
     2.779582    0.000000    0.000000
     0.000000    8.491645    0.000000
     0.000000    0.000000    9.850449
   Al   C 
    16    12
Direct configuration=     5
   0.25000000  0.42453915  0.58749034
   0.75000000  0.57546085  0.41250966
   0.25000000  0.92453915  0.91250966
   0.75000000  0.07546085  0.08749034
   0.25000000  0.47992140  0.20608575
   0.75000000  0.52007860  0.79391425
   0.25000000  0.97992140  0.29391425
   0.75000000  0.02007860  0.70608575
   0.25000000  0.14837946  0.51434627
   0.75000000  0.85162054  0.48565373
   0.25000000  0.64837946  0.98565373
   0.75000000  0.35162054  0.01434627
   0.75000000  0.26653948  0.29987290
   0.25000000  0.73346052  0.70012710
   0.25000000  0.23346052  0.79987290
   0.75000000  0.76653948  0.20012710
   0.75000000  0.75326830  0.85892500
   0.25000000  0.24673170  0.14107500
   0.75000000  0.25326830  0.64107500
   0.25000000  0.74673170  0.35892500
   0.25000000  0.93009793  0.61117438
   0.75000000  0.56990207  0.11117438
   0.25000000  0.43009793  0.88882562
   0.75000000  0.06990207  0.38882562
   0.75000000  0.09648562  0.88919940
   0.25000000  0.90351438  0.11080060
   0.75000000  0.59648562  0.61080060
   0.25000000  0.40351438  0.38919940
Al4C3 anti-CaFe2O4 - r2SCAN H(P) scan @ 
           1
     2.779611    0.000000    0.000000
     0.000000    8.491735    0.000000
     0.000000    0.000000    9.850553
   Al   C 
    16    12
Direct configuration=     6
   0.25000000  0.42453521  0.58752328
   0.75000000  0.57546479  0.41247672
   0.25000000  0.92453521  0.91247672
   0.75000000  0.07546479  0.08752328
   0.25000000  0.47989105  0.20609336
   0.75000000  0.52010895  0.79390664
   0.25000000  0.97989105  0.29390664
   0.75000000  0.02010895  0.70609336
   0.25000000  0.14838400  0.51434286
   0.75000000  0.85161600  0.48565714
   0.25000000  0.64838400  0.98565714
   0.75000000  0.35161600  0.01434286
   0.75000000  0.26660458  0.29983742
   0.25000000  0.73339542  0.70016258
   0.25000000  0.23339542  0.79983742
   0.75000000  0.76660458  0.20016258
   0.75000000  0.75321369  0.85891645
   0.25000000  0.24678631  0.14108355
   0.75000000  0.25321369  0.64108355
   0.25000000  0.74678631  0.35891645
   0.25000000  0.93007737  0.61121658
   0.75000000  0.56992263  0.11121658
   0.25000000  0.43007737  0.88878342
   0.75000000  0.06992263  0.38878342
   0.75000000  0.09642954  0.88919235
   0.25000000  0.90357046  0.11080765
   0.75000000  0.59642954  0.61080765
   0.25000000  0.40357046  0.38919235
Al4C3 anti-CaFe2O4 - r2SCAN H(P) scan @ 
           1
     2.779860    0.000000    0.000000
     0.000000    8.492496    0.000000
     0.000000    0.000000    9.851436
   Al   C 
    16    12
Direct configuration=     7
   0.25000000  0.42446320  0.58757702
   0.75000000  0.57553680  0.41242298
   0.25000000  0.92446320  0.91242298
   0.75000000  0.07553680  0.08757702
   0.25000000  0.47995598  0.20594270
   0.75000000  0.52004402  0.79405730
   0.25000000  0.97995598  0.29405730
   0.75000000  0.02004402  0.70594270
   0.25000000  0.14830467  0.51421172
   0.75000000  0.85169533  0.48578828
   0.25000000  0.64830467  0.98578828
   0.75000000  0.35169533  0.01421172
   0.75000000  0.26669809  0.29982793
   0.25000000  0.73330191  0.70017207
   0.25000000  0.23330191  0.79982793
   0.75000000  0.76669809  0.20017207
   0.75000000  0.75298165  0.85896481
   0.25000000  0.24701835  0.14103519
   0.75000000  0.25298165  0.64103519
   0.25000000  0.74701835  0.35896481
   0.25000000  0.92986760  0.61138314
   0.75000000  0.57013240  0.11138314
   0.25000000  0.42986760  0.88861686
   0.75000000  0.07013240  0.38861686
   0.75000000  0.09623746  0.88927512
   0.25000000  0.90376254  0.11072488
   0.75000000  0.59623746  0.61072488
   0.25000000  0.40376254  0.38927512
Al4C3 anti-CaFe2O4 - r2SCAN H(P) scan @ 
           1
     2.779818    0.000000    0.000000
     0.000000    8.492369    0.000000
     0.000000    0.000000    9.851288
   Al   C 
    16    12
Direct configuration=     8
   0.25000000  0.42447526  0.58756802
   0.75000000  0.57552474  0.41243198
   0.25000000  0.92447526  0.91243198
   0.75000000  0.07552474  0.08756802
   0.25000000  0.47994511  0.20596793
   0.75000000  0.52005489  0.79403207
   0.25000000  0.97994511  0.29403207
   0.75000000  0.02005489  0.70596793
   0.25000000  0.14831795  0.51423368
   0.75000000  0.85168205  0.48576632
   0.25000000  0.64831795  0.98576632
   0.75000000  0.35168205  0.01423368
   0.75000000  0.26668243  0.29982952
   0.25000000  0.73331757  0.70017048
   0.25000000  0.23331757  0.79982952
   0.75000000  0.76668243  0.20017048
   0.75000000  0.75302050  0.85895671
   0.25000000  0.24697950  0.14104329
   0.75000000  0.25302050  0.64104329
   0.25000000  0.74697950  0.35895671
   0.25000000  0.92990272  0.61135525
   0.75000000  0.57009728  0.11135525
   0.25000000  0.42990272  0.88864475
   0.75000000  0.07009728  0.38864475
   0.75000000  0.09626963  0.88926126
   0.25000000  0.90373037  0.11073874
   0.75000000  0.59626963  0.61073874
   0.25000000  0.40373037  0.38926126
Al4C3 anti-CaFe2O4 - r2SCAN H(P) scan @ 
           1
     2.779810    0.000000    0.000000
     0.000000    8.492343    0.000000
     0.000000    0.000000    9.851259
   Al   C 
    16    12
Direct configuration=     9
   0.25000000  0.42438694  0.58752977
   0.75000000  0.57561306  0.41247023
   0.25000000  0.92438694  0.91247023
   0.75000000  0.07561306  0.08752977
   0.25000000  0.47995652  0.20594704
   0.75000000  0.52004348  0.79405296
   0.25000000  0.97995652  0.29405296
   0.75000000  0.02004348  0.70594704
   0.25000000  0.14828805  0.51414142
   0.75000000  0.85171195  0.48585858
   0.25000000  0.64828805  0.98585858
   0.75000000  0.35171195  0.01414142
   0.75000000  0.26685997  0.29987223
   0.25000000  0.73314003  0.70012777
   0.25000000  0.23314003  0.79987223
   0.75000000  0.76685997  0.20012777
   0.75000000  0.75283344  0.85904200
   0.25000000  0.24716656  0.14095800
   0.75000000  0.25283344  0.64095800
   0.25000000  0.74716656  0.35904200
   0.25000000  0.92974664  0.61132937
   0.75000000  0.57025336  0.11132937
   0.25000000  0.42974664  0.88867063
   0.75000000  0.07025336  0.38867063
   0.75000000  0.09618464  0.88922282
   0.25000000  0.90381536  0.11077718
   0.75000000  0.59618464  0.61077718
   0.25000000  0.40381536  0.38922282
Al4C3 anti-CaFe2O4 - r2SCAN H(P) scan @ 
           1
     2.779809    0.000000    0.000000
     0.000000    8.492340    0.000000
     0.000000    0.000000    9.851255
   Al   C 
    16    12
Direct configuration=    10
   0.25000000  0.42437627  0.58752515
   0.75000000  0.57562373  0.41247485
   0.25000000  0.92437627  0.91247485
   0.75000000  0.07562373  0.08752515
   0.25000000  0.47995790  0.20594452
   0.75000000  0.52004210  0.79405548
   0.25000000  0.97995790  0.29405548
   0.75000000  0.02004210  0.70594452
   0.25000000  0.14828444  0.51413028
   0.75000000  0.85171556  0.48586972
   0.25000000  0.64828444  0.98586972
   0.75000000  0.35171556  0.01413028
   0.75000000  0.26688141  0.29987739
   0.25000000  0.73311859  0.70012261
   0.25000000  0.23311859  0.79987739
   0.75000000  0.76688141  0.20012261
   0.75000000  0.75281085  0.85905230
   0.25000000  0.24718915  0.14094770
   0.75000000  0.25281085  0.64094770
   0.25000000  0.74718915  0.35905230
   0.25000000  0.92972779  0.61132625
   0.75000000  0.57027221  0.11132625
   0.25000000  0.42972779  0.88867375
   0.75000000  0.07027221  0.38867375
   0.75000000  0.09617438  0.88921818
   0.25000000  0.90382562  0.11078182
   0.75000000  0.59617438  0.61078182
   0.25000000  0.40382562  0.38921818
Al4C3 anti-CaFe2O4 - r2SCAN H(P) scan @ 
           1
     2.779891    0.000000    0.000000
     0.000000    8.492591    0.000000
     0.000000    0.000000    9.851547
   Al   C 
    16    12
Direct configuration=    11
   0.25000000  0.42426927  0.58749843
   0.75000000  0.57573073  0.41250157
   0.25000000  0.92426927  0.91250157
   0.75000000  0.07573073  0.08749843
   0.25000000  0.48003355  0.20591482
   0.75000000  0.51996645  0.79408518
   0.25000000  0.98003355  0.29408518
   0.75000000  0.01996645  0.70591482
   0.25000000  0.14826933  0.51417010
   0.75000000  0.85173067  0.48582990
   0.25000000  0.64826933  0.98582990
   0.75000000  0.35173067  0.01417010
   0.75000000  0.26695740  0.29988671
   0.25000000  0.73304260  0.70011329
   0.25000000  0.23304260  0.79988671
   0.75000000  0.76695740  0.20011329
   0.75000000  0.75276976  0.85909508
   0.25000000  0.24723024  0.14090492
   0.75000000  0.25276976  0.64090492
   0.25000000  0.74723024  0.35909508
   0.25000000  0.92971856  0.61132650
   0.75000000  0.57028144  0.11132650
   0.25000000  0.42971856  0.88867350
   0.75000000  0.07028144  0.38867350
   0.75000000  0.09610938  0.88916826
   0.25000000  0.90389062  0.11083174
   0.75000000  0.59610938  0.61083174
   0.25000000  0.40389062  0.38916826
Al4C3 anti-CaFe2O4 - r2SCAN H(P) scan @ 
           1
     2.779932    0.000000    0.000000
     0.000000    8.492717    0.000000
     0.000000    0.000000    9.851692
   Al   C 
    16    12
Direct configuration=    12
   0.25000000  0.42421595  0.58748511
   0.75000000  0.57578405  0.41251489
   0.25000000  0.92421595  0.91251489
   0.75000000  0.07578405  0.08748511
   0.25000000  0.48007124  0.20590002
   0.75000000  0.51992876  0.79409998
   0.25000000  0.98007124  0.29409998
   0.75000000  0.01992876  0.70590002
   0.25000000  0.14826180  0.51418994
   0.75000000  0.85173820  0.48581006
   0.25000000  0.64826180  0.98581006
   0.75000000  0.35173820  0.01418994
   0.75000000  0.26699526  0.29989135
   0.25000000  0.73300474  0.70010865
   0.25000000  0.23300474  0.79989135
   0.75000000  0.76699526  0.20010865
   0.75000000  0.75274929  0.85911640
   0.25000000  0.24725071  0.14088360
   0.75000000  0.25274929  0.64088360
   0.25000000  0.74725071  0.35911640
   0.25000000  0.92971396  0.61132663
   0.75000000  0.57028604  0.11132663
   0.25000000  0.42971396  0.88867337
   0.75000000  0.07028604  0.38867337
   0.75000000  0.09607698  0.88914339
   0.25000000  0.90392302  0.11085661
   0.75000000  0.59607698  0.61085661
   0.25000000  0.40392302  0.38914339
Al4C3 anti-CaFe2O4 - r2SCAN H(P) scan @ 
           1
     2.779927    0.000000    0.000000
     0.000000    8.492700    0.000000
     0.000000    0.000000    9.851673
   Al   C 
    16    12
Direct configuration=    13
   0.25000000  0.42416789  0.58744796
   0.75000000  0.57583211  0.41255204
   0.25000000  0.92416789  0.91255204
   0.75000000  0.07583211  0.08744796
   0.25000000  0.48017068  0.20592417
   0.75000000  0.51982932  0.79407583
   0.25000000  0.98017068  0.29407583
   0.75000000  0.01982932  0.70592417
   0.25000000  0.14818730  0.51423755
   0.75000000  0.85181270  0.48576245
   0.25000000  0.64818730  0.98576245
   0.75000000  0.35181270  0.01423755
   0.75000000  0.26703303  0.29991414
   0.25000000  0.73296697  0.70008586
   0.25000000  0.23296697  0.79991414
   0.75000000  0.76703303  0.20008586
   0.75000000  0.75273682  0.85912563
   0.25000000  0.24726318  0.14087437
   0.75000000  0.25273682  0.64087437
   0.25000000  0.74726318  0.35912563
   0.25000000  0.92964725  0.61131016
   0.75000000  0.57035275  0.11131016
   0.25000000  0.42964725  0.88868984
   0.75000000  0.07035275  0.38868984
   0.75000000  0.09597040  0.88910109
   0.25000000  0.90402960  0.11089891
   0.75000000  0.59597040  0.61089891
   0.25000000  0.40402960  0.38910109
