  28  28   0   0
  0.7479131E+01  0.5938404E-09  0.5938404E-09  0.5938404E-09  0.5000000E-15
  1.000000000000000E-004
  CAR 
 Al4C3 I-43d - H(P) scan @ 90 GPa (ISIF=8
     22.50522654     -5.13320650  301     14.21945463      1.00000000
     -5.133  0.0000E+00  0.0000E+00
     -5.041  0.0000E+00  0.0000E+00
     -4.949  0.0000E+00  0.0000E+00
     -4.857  0.0000E+00  0.0000E+00
     -4.765  0.0000E+00  0.0000E+00
     -4.673  0.0000E+00  0.0000E+00
     -4.580  0.0000E+00  0.0000E+00
     -4.488  0.0000E+00  0.0000E+00
     -4.396  0.0000E+00  0.0000E+00
     -4.304  0.0000E+00  0.0000E+00
     -4.212  0.0000E+00  0.0000E+00
     -4.120  0.1616E-14  0.1489E-15
     -4.028  0.5045E-08  0.4648E-09
     -3.936  0.2444E-04  0.2252E-05
     -3.843  0.4581E-03  0.4446E-04
     -3.751  0.2254E-02  0.2521E-03
     -3.659  0.4385E-02  0.6561E-03
     -3.567  0.4267E-02  0.1049E-02
     -3.475  0.3160E-02  0.1340E-02
     -3.383  0.4682E-02  0.1772E-02
     -3.291  0.1071E-01  0.2758E-02
     -3.199  0.9998E-02  0.3679E-02
     -3.106  0.1038E-02  0.3775E-02
     -3.014  0.5017E-02  0.4237E-02
     -2.922  0.1189E-01  0.5333E-02
     -2.830  0.1154E-01  0.6396E-02
     -2.738  0.1069E-01  0.7380E-02
     -2.646  0.7453E-02  0.8067E-02
     -2.554  0.6153E-02  0.8634E-02
     -2.461  0.1369E-01  0.9895E-02
     -2.369  0.1800E-01  0.1155E-01
     -2.277  0.1060E-02  0.1165E-01
     -2.185  0.4239E-02  0.1204E-01
     -2.093  0.2050E-01  0.1393E-01
     -2.001  0.1743E-01  0.1554E-01
     -1.909  0.1236E-01  0.1667E-01
     -1.817  0.1126E-01  0.1771E-01
     -1.724  0.1890E-01  0.1945E-01
     -1.632  0.1569E-01  0.2090E-01
     -1.540  0.4851E-02  0.2134E-01
     -1.448  0.5745E-02  0.2187E-01
     -1.356  0.1232E-01  0.2301E-01
     -1.264  0.2182E-01  0.2502E-01
     -1.172  0.2792E-01  0.2759E-01
     -1.080  0.1128E-01  0.2863E-01
     -0.987  0.1066E-01  0.2961E-01
     -0.895  0.3064E-01  0.3244E-01
     -0.803  0.1844E-01  0.3414E-01
     -0.711  0.2287E-02  0.3435E-01
     -0.619  0.1042E-01  0.3531E-01
     -0.527  0.2447E-01  0.3756E-01
     -0.435  0.2381E-01  0.3975E-01
     -0.343  0.2229E-01  0.4181E-01
     -0.250  0.1263E-01  0.4297E-01
     -0.158  0.2216E-01  0.4501E-01
     -0.066  0.2382E-01  0.4721E-01
      0.026  0.5498E-02  0.4771E-01
      0.118  0.3207E-01  0.5067E-01
      0.210  0.4085E-01  0.5443E-01
      0.302  0.1880E-01  0.5616E-01
      0.394  0.2044E-01  0.5805E-01
      0.487  0.2839E-01  0.6066E-01
      0.579  0.2185E-01  0.6268E-01
      0.671  0.1919E-01  0.6444E-01
      0.763  0.3493E-01  0.6766E-01
      0.855  0.2175E-01  0.6967E-01
      0.947  0.5111E-01  0.7437E-01
      1.039  0.6124E-01  0.8002E-01
      1.132  0.1881E-01  0.8175E-01
      1.224  0.6661E-02  0.8236E-01
      1.316  0.1866E-01  0.8408E-01
      1.408  0.1957E-01  0.8588E-01
      1.500  0.6971E-02  0.8653E-01
      1.592  0.1126E-02  0.8663E-01
      1.684  0.9697E-02  0.8752E-01
      1.776  0.1409E-01  0.8882E-01
      1.869  0.1780E-01  0.9046E-01
      1.961  0.5003E-01  0.9507E-01
      2.053  0.2781E-01  0.9763E-01
      2.145  0.2929E-01  0.1003E+00
      2.237  0.2517E-01  0.1026E+00
      2.329  0.2211E-01  0.1047E+00
      2.421  0.4935E-01  0.1092E+00
      2.513  0.4447E-01  0.1133E+00
      2.606  0.2364E-01  0.1155E+00
      2.698  0.2551E-02  0.1157E+00
      2.790  0.2221E-02  0.1159E+00
      2.882  0.1582E-01  0.1174E+00
      2.974  0.1152E-01  0.1185E+00
      3.066  0.5032E-02  0.1189E+00
      3.158  0.9169E-02  0.1198E+00
      3.250  0.4648E-03  0.1198E+00
      3.343  0.6821E-03  0.1199E+00
      3.435  0.1297E-02  0.1200E+00
      3.527  0.2831E-04  0.1200E+00
      3.619  0.1589E-08  0.1200E+00
      3.711  0.1993E-15  0.1200E+00
      3.803  0.1879E-08  0.1200E+00
      3.895  0.7274E-04  0.1200E+00
      3.987  0.6793E-02  0.1206E+00
      4.080  0.1612E-01  0.1221E+00
      4.172  0.2689E-01  0.1246E+00
      4.264  0.1913E-01  0.1264E+00
      4.356  0.3085E-01  0.1292E+00
      4.448  0.3516E-01  0.1324E+00
      4.540  0.1667E-01  0.1340E+00
      4.632  0.2640E-01  0.1364E+00
      4.725  0.1771E-01  0.1380E+00
      4.817  0.3288E-01  0.1411E+00
      4.909  0.3140E-01  0.1440E+00
      5.001  0.3717E-01  0.1474E+00
      5.093  0.1759E-01  0.1490E+00
      5.185  0.3478E-01  0.1522E+00
      5.277  0.3846E-01  0.1558E+00
      5.369  0.1999E-01  0.1576E+00
      5.462  0.3023E-01  0.1604E+00
      5.554  0.2579E-01  0.1628E+00
      5.646  0.1847E-01  0.1645E+00
      5.738  0.1221E-01  0.1656E+00
      5.830  0.3776E-01  0.1691E+00
      5.922  0.7879E-01  0.1763E+00
      6.014  0.5169E-01  0.1811E+00
      6.106  0.3014E-01  0.1839E+00
      6.199  0.2389E-01  0.1861E+00
      6.291  0.4074E-02  0.1864E+00
      6.383  0.8589E-02  0.1872E+00
      6.475  0.5541E-01  0.1923E+00
      6.567  0.4650E-01  0.1966E+00
      6.659  0.4949E-01  0.2012E+00
      6.751  0.1999E-01  0.2030E+00
      6.843  0.3692E-01  0.2064E+00
      6.936  0.5183E-01  0.2112E+00
      7.028  0.3240E-01  0.2142E+00
      7.120  0.2698E-01  0.2167E+00
      7.212  0.1822E-01  0.2183E+00
      7.304  0.2805E-01  0.2209E+00
      7.396  0.2438E-01  0.2232E+00
      7.488  0.7724E-02  0.2239E+00
      7.580  0.4036E-01  0.2276E+00
      7.673  0.6174E-01  0.2333E+00
      7.765  0.4196E-01  0.2372E+00
      7.857  0.2482E-01  0.2394E+00
      7.949  0.3181E-01  0.2424E+00
      8.041  0.1367E-01  0.2436E+00
      8.133  0.3013E-01  0.2464E+00
      8.225  0.3205E-01  0.2494E+00
      8.317  0.6050E-01  0.2549E+00
      8.410  0.4787E-01  0.2593E+00
      8.502  0.3541E-01  0.2626E+00
      8.594  0.3086E-01  0.2655E+00
      8.686  0.6980E-01  0.2719E+00
      8.778  0.6861E-01  0.2782E+00
      8.870  0.3278E-01  0.2812E+00
      8.962  0.3972E-01  0.2849E+00
      9.055  0.3102E-01  0.2877E+00
      9.147  0.2461E-01  0.2900E+00
      9.239  0.2350E-01  0.2922E+00
      9.331  0.3840E-01  0.2957E+00
      9.423  0.1960E-01  0.2975E+00
      9.515  0.3745E-01  0.3010E+00
      9.607  0.5084E-01  0.3056E+00
      9.699  0.3365E-01  0.3087E+00
      9.792  0.3384E-01  0.3119E+00
      9.884  0.4772E-01  0.3163E+00
      9.976  0.3931E-01  0.3199E+00
     10.068  0.3265E-01  0.3229E+00
     10.160  0.2488E-01  0.3252E+00
     10.252  0.5204E-01  0.3300E+00
     10.344  0.2369E-01  0.3322E+00
     10.436  0.3248E-01  0.3352E+00
     10.529  0.2598E-01  0.3375E+00
     10.621  0.4291E-01  0.3415E+00
     10.713  0.7798E-01  0.3487E+00
     10.805  0.5251E-01  0.3535E+00
     10.897  0.3485E-01  0.3567E+00
     10.989  0.3620E-01  0.3601E+00
     11.081  0.3772E-01  0.3635E+00
     11.173  0.4547E-01  0.3677E+00
     11.266  0.5342E-01  0.3727E+00
     11.358  0.2579E-01  0.3750E+00
     11.450  0.9586E-02  0.3759E+00
     11.542  0.5786E-01  0.3812E+00
     11.634  0.7513E-01  0.3882E+00
     11.726  0.1011E+00  0.3975E+00
     11.818  0.4056E-01  0.4012E+00
     11.910  0.1931E-01  0.4030E+00
     12.003  0.2894E-01  0.4057E+00
     12.095  0.6616E-01  0.4118E+00
     12.187  0.3575E-01  0.4150E+00
     12.279  0.4155E-01  0.4189E+00
     12.371  0.2970E-01  0.4216E+00
     12.463  0.2990E-01  0.4244E+00
     12.555  0.5281E-01  0.4292E+00
     12.648  0.4003E-01  0.4329E+00
     12.740  0.4163E-01  0.4368E+00
     12.832  0.5169E-01  0.4415E+00
     12.924  0.3933E-01  0.4451E+00
     13.016  0.8508E-01  0.4530E+00
     13.108  0.1150E+00  0.4636E+00
     13.200  0.6286E-01  0.4694E+00
     13.292  0.5004E-01  0.4740E+00
     13.385  0.1821E-01  0.4756E+00
     13.477  0.1422E-01  0.4770E+00
     13.569  0.1454E-01  0.4783E+00
     13.661  0.8033E-02  0.4790E+00
     13.753  0.2947E-02  0.4793E+00
     13.845  0.3367E-02  0.4796E+00
     13.937  0.2950E-02  0.4799E+00
     14.029  0.1147E-02  0.4800E+00
     14.122  0.5160E-04  0.4800E+00
     14.214  0.7177E-08  0.4800E+00
     14.306  0.1518E-14  0.4800E+00
     14.398  0.0000E+00  0.4800E+00
     14.490  0.0000E+00  0.4800E+00
     14.582  0.0000E+00  0.4800E+00
     14.674  0.0000E+00  0.4800E+00
     14.766  0.0000E+00  0.4800E+00
     14.859  0.0000E+00  0.4800E+00
     14.951  0.0000E+00  0.4800E+00
     15.043  0.0000E+00  0.4800E+00
     15.135  0.0000E+00  0.4800E+00
     15.227  0.0000E+00  0.4800E+00
     15.319  0.0000E+00  0.4800E+00
     15.411  0.0000E+00  0.4800E+00
     15.503  0.0000E+00  0.4800E+00
     15.596  0.0000E+00  0.4800E+00
     15.688  0.0000E+00  0.4800E+00
     15.780  0.0000E+00  0.4800E+00
     15.872  0.0000E+00  0.4800E+00
     15.964  0.0000E+00  0.4800E+00
     16.056  0.0000E+00  0.4800E+00
     16.148  0.4834E-11  0.4800E+00
     16.241  0.1555E-05  0.4800E+00
     16.333  0.9020E-03  0.4801E+00
     16.425  0.3011E-02  0.4804E+00
     16.517  0.5718E-02  0.4809E+00
     16.609  0.1103E-01  0.4819E+00
     16.701  0.3627E-01  0.4852E+00
     16.793  0.6607E-01  0.4913E+00
     16.885  0.4634E-01  0.4956E+00
     16.978  0.3473E-01  0.4988E+00
     17.070  0.5436E-01  0.5038E+00
     17.162  0.4032E-01  0.5075E+00
     17.254  0.3471E-01  0.5107E+00
     17.346  0.1368E-01  0.5120E+00
     17.438  0.5245E-01  0.5168E+00
     17.530  0.4004E-01  0.5205E+00
     17.622  0.3914E-01  0.5241E+00
     17.715  0.2309E-01  0.5262E+00
     17.807  0.4903E-01  0.5308E+00
     17.899  0.5331E-01  0.5357E+00
     17.991  0.4488E-01  0.5398E+00
     18.083  0.5339E-01  0.5447E+00
     18.175  0.5610E-01  0.5499E+00
     18.267  0.5363E-01  0.5548E+00
     18.359  0.4222E-01  0.5587E+00
     18.452  0.1734E-01  0.5603E+00
     18.544  0.5995E-01  0.5658E+00
     18.636  0.6306E-01  0.5716E+00
     18.728  0.4728E-01  0.5760E+00
     18.820  0.5191E-01  0.5808E+00
     18.912  0.4821E-01  0.5852E+00
     19.004  0.8032E-01  0.5926E+00
     19.096  0.5661E-01  0.5978E+00
     19.189  0.2881E-01  0.6005E+00
     19.281  0.3599E-01  0.6038E+00
     19.373  0.2598E-01  0.6062E+00
     19.465  0.3529E-01  0.6095E+00
     19.557  0.5571E-01  0.6146E+00
     19.649  0.1367E-01  0.6158E+00
     19.741  0.2972E-01  0.6186E+00
     19.834  0.6286E-01  0.6244E+00
     19.926  0.2429E-01  0.6266E+00
     20.018  0.2513E-01  0.6289E+00
     20.110  0.1691E-01  0.6305E+00
     20.202  0.2205E-01  0.6325E+00
     20.294  0.2943E-01  0.6352E+00
     20.386  0.3528E-01  0.6385E+00
     20.478  0.3507E-01  0.6417E+00
     20.571  0.1572E-01  0.6432E+00
     20.663  0.2912E-01  0.6458E+00
     20.755  0.7060E-01  0.6523E+00
     20.847  0.3472E-01  0.6555E+00
     20.939  0.2001E-01  0.6574E+00
     21.031  0.4453E-02  0.6578E+00
     21.123  0.1172E-01  0.6589E+00
     21.215  0.9546E-02  0.6598E+00
     21.308  0.2500E-02  0.6600E+00
     21.400  0.1466E-03  0.6600E+00
     21.492  0.3027E-07  0.6600E+00
     21.584  0.9694E-14  0.6600E+00
     21.676  0.0000E+00  0.6600E+00
     21.768  0.0000E+00  0.6600E+00
     21.860  0.0000E+00  0.6600E+00
     21.952  0.0000E+00  0.6600E+00
     22.045  0.0000E+00  0.6600E+00
     22.137  0.0000E+00  0.6600E+00
     22.229  0.0000E+00  0.6600E+00
     22.321  0.0000E+00  0.6600E+00
     22.413  0.0000E+00  0.6600E+00
     22.505  0.0000E+00  0.6600E+00
