       N       E                     dE             d eps       ncg     rms          rms(c)
DAV:   1    -0.147695766795E+03   -0.14770E+03   -0.63394E-05  2598   0.681E-02    0.112E-02
DAV:   2    -0.147695769788E+03   -0.29925E-05   -0.54252E-07  1416   0.514E-03
   1 F= -.30059540E+02 E0= -.30059540E+02  d E =-.300595E+02
       N       E                     dE             d eps       ncg     rms          rms(c)
DAV:   1    -0.139627798811E+03    0.80680E+01   -0.11675E+01  2886   0.146E+01    0.366E+00
DAV:   2    -0.139380327932E+03    0.24747E+00   -0.62857E-01  3060   0.265E+00    0.175E+00
DAV:   3    -0.139358551346E+03    0.21777E-01   -0.83772E-02  3066   0.897E-01    0.514E-01
DAV:   4    -0.139355395439E+03    0.31559E-02   -0.49098E-03  3036   0.216E-01    0.166E-01
DAV:   5    -0.139354975228E+03    0.42021E-03   -0.67264E-04  3048   0.851E-02    0.112E-01
DAV:   6    -0.139354946066E+03    0.29162E-04   -0.78793E-05  2934   0.278E-02    0.103E-02
DAV:   7    -0.139354943074E+03    0.29919E-05   -0.11252E-05  1560   0.110E-02
   2 F= -.29467220E+02 E0= -.29467220E+02  d E =0.592320E+00
       N       E                     dE             d eps       ncg     rms          rms(c)
DAV:   1    -0.145592168665E+03   -0.62372E+01   -0.55113E+00  2904   0.976E+00    0.256E+00
DAV:   2    -0.145469281729E+03    0.12289E+00   -0.31593E-01  3084   0.184E+00    0.120E+00
DAV:   3    -0.145459013553E+03    0.10268E-01   -0.39622E-02  3072   0.607E-01    0.361E-01
DAV:   4    -0.145457258214E+03    0.17553E-02   -0.26153E-03  3060   0.154E-01    0.113E-01
DAV:   5    -0.145456957074E+03    0.30114E-03   -0.44620E-04  3030   0.667E-02    0.751E-02
DAV:   6    -0.145456923635E+03    0.33439E-04   -0.55993E-05  2814   0.229E-02    0.913E-03
DAV:   7    -0.145456924491E+03   -0.85612E-06   -0.71948E-06  1524   0.878E-03
   3 F= -.30195373E+02 E0= -.30195373E+02  d E =-.135833E+00
       N       E                     dE             d eps       ncg     rms          rms(c)
DAV:   1    -0.145420199301E+03    0.36724E-01   -0.24278E-04  2838   0.647E-02    0.157E-02
DAV:   2    -0.145420197092E+03    0.22089E-05   -0.10835E-05  1524   0.112E-02
   4 F= -.30195409E+02 E0= -.30195409E+02  d E =-.135869E+00
       N       E                     dE             d eps       ncg     rms          rms(c)
DAV:   1    -0.145415586812E+03    0.46125E-02   -0.17523E-06  1422   0.539E-03    0.425E-03
DAV:   2    -0.145415587393E+03   -0.58161E-06   -0.26823E-07  1410   0.160E-03
   5 F= -.30195411E+02 E0= -.30195411E+02  d E =-.135871E+00
       N       E                     dE             d eps       ncg     rms          rms(c)
DAV:   1    -0.145417465701E+03   -0.18789E-02   -0.75934E-07  1380   0.377E-03    0.791E-04
DAV:   2    -0.145417465700E+03    0.11441E-08   -0.38893E-08  1338   0.808E-04
   6 F= -.30195412E+02 E0= -.30195412E+02  d E =-.135872E+00
       N       E                     dE             d eps       ncg     rms          rms(c)
DAV:   1    -0.145395351379E+03    0.22114E-01   -0.17145E-02  2670   0.506E-01    0.541E-02
DAV:   2    -0.145395292171E+03    0.59208E-04   -0.39954E-04  3204   0.746E-02    0.248E-02
DAV:   3    -0.145395283771E+03    0.84000E-05   -0.33650E-05  2550   0.198E-02
   7 F= -.30197334E+02 E0= -.30197334E+02  d E =-.192163E-02
       N       E                     dE             d eps       ncg     rms          rms(c)
DAV:   1    -0.145379482255E+03    0.15810E-01   -0.77503E-03  2688   0.340E-01    0.381E-02
DAV:   2    -0.145379453230E+03    0.29025E-04   -0.18201E-04  3234   0.502E-02    0.183E-02
DAV:   3    -0.145379449035E+03    0.41953E-05   -0.15216E-05  1800   0.138E-02
   8 F= -.30197703E+02 E0= -.30197703E+02  d E =-.229109E-02
