Al4C3 I-43d - H(P) scan @ 90 GPa (ISIF=8
           1
     5.938404    0.000000    0.000000
     0.000000    5.938404    0.000000
     0.000000    0.000000    5.938404
   Al   C 
    16    12
Direct configuration=     1
   0.31541619  0.31541619  0.31541619
   0.18458381  0.68458381  0.81541619
   0.68458381  0.81541619  0.18458381
   0.81541619  0.18458381  0.68458381
   0.56541619  0.56541619  0.56541619
   0.93458381  0.43458381  0.06541619
   0.06541619  0.93458381  0.43458381
   0.43458381  0.06541619  0.93458381
   0.81541619  0.81541619  0.81541619
   0.68458381  0.18458381  0.31541619
   0.18458381  0.31541619  0.68458381
   0.31541619  0.68458381  0.18458381
   0.06541619  0.06541619  0.06541619
   0.43458381  0.93458381  0.56541619
   0.56541619  0.43458381  0.93458381
   0.93458381  0.56541619  0.43458381
   0.37500000  0.00000000  0.25000000
   0.12500000  0.00000000  0.75000000
   0.62500000  0.50000000  0.25000000
   0.87500000  0.50000000  0.75000000
   0.25000000  0.37500000  0.00000000
   0.75000000  0.12500000  0.00000000
   0.25000000  0.62500000  0.50000000
   0.75000000  0.87500000  0.50000000
   0.00000000  0.25000000  0.37500000
   0.00000000  0.75000000  0.12500000
   0.50000000  0.25000000  0.62500000
   0.50000000  0.75000000  0.87500000
Al4C3 I-43d - H(P) scan @ 90 GPa (ISIF=8
           1
     5.805047    0.000000    0.000000
     0.000000    5.805047    0.000000
     0.000000    0.000000    5.805047
   Al   C 
    16    12
Direct configuration=     2
   0.31541730  0.31541730  0.31541730
   0.18458270  0.68458270  0.81541730
   0.68458270  0.81541730  0.18458270
   0.81541730  0.18458270  0.68458270
   0.56541730  0.56541730  0.56541730
   0.93458270  0.43458270  0.06541730
   0.06541730  0.93458270  0.43458270
   0.43458270  0.06541730  0.93458270
   0.81541730  0.81541730  0.81541730
   0.68458270  0.18458270  0.31541730
   0.18458270  0.31541730  0.68458270
   0.31541730  0.68458270  0.18458270
   0.06541730  0.06541730  0.06541730
   0.43458270  0.93458270  0.56541730
   0.56541730  0.43458270  0.93458270
   0.93458270  0.56541730  0.43458270
   0.37500000 -0.00000000  0.25000000
   0.12500000 -0.00000000  0.75000000
   0.62500000  0.50000000  0.25000000
   0.87500000  0.50000000  0.75000000
   0.25000000  0.37500000 -0.00000000
   0.75000000  0.12500000 -0.00000000
   0.25000000  0.62500000  0.50000000
   0.75000000  0.87500000  0.50000000
   0.00000000  0.25000000  0.37500000
   0.00000000  0.75000000  0.12500000
   0.50000000  0.25000000  0.62500000
   0.50000000  0.75000000  0.87500000
Al4C3 I-43d - H(P) scan @ 90 GPa (ISIF=8
           1
     5.898173    0.000000    0.000000
     0.000000    5.898173    0.000000
     0.000000    0.000000    5.898173
   Al   C 
    16    12
Direct configuration=     3
   0.31541651  0.31541651  0.31541651
   0.18458349  0.68458349  0.81541651
   0.68458349  0.81541651  0.18458349
   0.81541651  0.18458349  0.68458349
   0.56541651  0.56541651  0.56541651
   0.93458349  0.43458349  0.06541651
   0.06541651  0.93458349  0.43458349
   0.43458349  0.06541651  0.93458349
   0.81541651  0.81541651  0.81541651
   0.68458349  0.18458349  0.31541651
   0.18458349  0.31541651  0.68458349
   0.31541651  0.68458349  0.18458349
   0.06541651  0.06541651  0.06541651
   0.43458349  0.93458349  0.56541651
   0.56541651  0.43458349  0.93458349
   0.93458349  0.56541651  0.43458349
   0.37500000 -0.00000000  0.25000000
   0.12500000 -0.00000000  0.75000000
   0.62500000  0.50000000  0.25000000
   0.87500000  0.50000000  0.75000000
   0.25000000  0.37500000 -0.00000000
   0.75000000  0.12500000 -0.00000000
   0.25000000  0.62500000  0.50000000
   0.75000000  0.87500000  0.50000000
   0.00000000  0.25000000  0.37500000
   0.00000000  0.75000000  0.12500000
   0.50000000  0.25000000  0.62500000
   0.50000000  0.75000000  0.87500000
Al4C3 I-43d - H(P) scan @ 90 GPa (ISIF=8
           1
     5.897546    0.000000    0.000000
     0.000000    5.897546    0.000000
     0.000000    0.000000    5.897546
   Al   C 
    16    12
Direct configuration=     4
   0.31541651  0.31541651  0.31541651
   0.18458349  0.68458349  0.81541651
   0.68458349  0.81541651  0.18458349
   0.81541651  0.18458349  0.68458349
   0.56541651  0.56541651  0.56541651
   0.93458349  0.43458349  0.06541651
   0.06541651  0.93458349  0.43458349
   0.43458349  0.06541651  0.93458349
   0.81541651  0.81541651  0.81541651
   0.68458349  0.18458349  0.31541651
   0.18458349  0.31541651  0.68458349
   0.31541651  0.68458349  0.18458349
   0.06541651  0.06541651  0.06541651
   0.43458349  0.93458349  0.56541651
   0.56541651  0.43458349  0.93458349
   0.93458349  0.56541651  0.43458349
   0.37500000 -0.00000000  0.25000000
   0.12500000 -0.00000000  0.75000000
   0.62500000  0.50000000  0.25000000
   0.87500000  0.50000000  0.75000000
   0.25000000  0.37500000 -0.00000000
   0.75000000  0.12500000 -0.00000000
   0.25000000  0.62500000  0.50000000
   0.75000000  0.87500000  0.50000000
   0.00000000  0.25000000  0.37500000
   0.00000000  0.75000000  0.12500000
   0.50000000  0.25000000  0.62500000
   0.50000000  0.75000000  0.87500000
Al4C3 I-43d - H(P) scan @ 90 GPa (ISIF=8
           1
     5.897467    0.000000    0.000000
     0.000000    5.897467    0.000000
     0.000000    0.000000    5.897467
   Al   C 
    16    12
Direct configuration=     5
   0.31541651  0.31541651  0.31541651
   0.18458349  0.68458349  0.81541651
   0.68458349  0.81541651  0.18458349
   0.81541651  0.18458349  0.68458349
   0.56541651  0.56541651  0.56541651
   0.93458349  0.43458349  0.06541651
   0.06541651  0.93458349  0.43458349
   0.43458349  0.06541651  0.93458349
   0.81541651  0.81541651  0.81541651
   0.68458349  0.18458349  0.31541651
   0.18458349  0.31541651  0.68458349
   0.31541651  0.68458349  0.18458349
   0.06541651  0.06541651  0.06541651
   0.43458349  0.93458349  0.56541651
   0.56541651  0.43458349  0.93458349
   0.93458349  0.56541651  0.43458349
   0.37500000 -0.00000000  0.25000000
   0.12500000 -0.00000000  0.75000000
   0.62500000  0.50000000  0.25000000
   0.87500000  0.50000000  0.75000000
   0.25000000  0.37500000 -0.00000000
   0.75000000  0.12500000 -0.00000000
   0.25000000  0.62500000  0.50000000
   0.75000000  0.87500000  0.50000000
   0.00000000  0.25000000  0.37500000
   0.00000000  0.75000000  0.12500000
   0.50000000  0.25000000  0.62500000
   0.50000000  0.75000000  0.87500000
Al4C3 I-43d - H(P) scan @ 90 GPa (ISIF=8
           1
     5.897499    0.000000    0.000000
     0.000000    5.897499    0.000000
     0.000000    0.000000    5.897499
   Al   C 
    16    12
Direct configuration=     6
   0.31541651  0.31541651  0.31541651
   0.18458349  0.68458349  0.81541651
   0.68458349  0.81541651  0.18458349
   0.81541651  0.18458349  0.68458349
   0.56541651  0.56541651  0.56541651
   0.93458349  0.43458349  0.06541651
   0.06541651  0.93458349  0.43458349
   0.43458349  0.06541651  0.93458349
   0.81541651  0.81541651  0.81541651
   0.68458349  0.18458349  0.31541651
   0.18458349  0.31541651  0.68458349
   0.31541651  0.68458349  0.18458349
   0.06541651  0.06541651  0.06541651
   0.43458349  0.93458349  0.56541651
   0.56541651  0.43458349  0.93458349
   0.93458349  0.56541651  0.43458349
   0.37500000 -0.00000000  0.25000000
   0.12500000 -0.00000000  0.75000000
   0.62500000  0.50000000  0.25000000
   0.87500000  0.50000000  0.75000000
   0.25000000  0.37500000 -0.00000000
   0.75000000  0.12500000 -0.00000000
   0.25000000  0.62500000  0.50000000
   0.75000000  0.87500000  0.50000000
   0.00000000  0.25000000  0.37500000
   0.00000000  0.75000000  0.12500000
   0.50000000  0.25000000  0.62500000
   0.50000000  0.75000000  0.87500000
Al4C3 I-43d - H(P) scan @ 90 GPa (ISIF=8
           1
     5.897088    0.000000    0.000000
     0.000000    5.897088    0.000000
     0.000000    0.000000    5.897088
   Al   C 
    16    12
Direct configuration=     7
   0.31567750  0.31567750  0.31567750
   0.18432250  0.68432250  0.81567750
   0.68432250  0.81567750  0.18432250
   0.81567750  0.18432250  0.68432250
   0.56567750  0.56567750  0.56567750
   0.93432250  0.43432250  0.06567750
   0.06567750  0.93432250  0.43432250
   0.43432250  0.06567750  0.93432250
   0.81567750  0.81567750  0.81567750
   0.68432250  0.18432250  0.31567750
   0.18432250  0.31567750  0.68432250
   0.31567750  0.68432250  0.18432250
   0.06567750  0.06567750  0.06567750
   0.43432250  0.93432250  0.56567750
   0.56567750  0.43432250  0.93432250
   0.93432250  0.56567750  0.43432250
   0.37500000  0.00000000  0.25000000
   0.12500000  0.00000000  0.75000000
   0.62500000  0.50000000  0.25000000
   0.87500000  0.50000000  0.75000000
   0.25000000  0.37500000  0.00000000
   0.75000000  0.12500000  0.00000000
   0.25000000  0.62500000  0.50000000
   0.75000000  0.87500000  0.50000000
   0.00000000  0.25000000  0.37500000
   0.00000000  0.75000000  0.12500000
   0.50000000  0.25000000  0.62500000
   0.50000000  0.75000000  0.87500000
Al4C3 I-43d - H(P) scan @ 90 GPa (ISIF=8
           1
     5.896811    0.000000    0.000000
     0.000000    5.896811    0.000000
     0.000000    0.000000    5.896811
   Al   C 
    16    12
Direct configuration=     8
   0.31585300  0.31585300  0.31585300
   0.18414700  0.68414700  0.81585300
   0.68414700  0.81585300  0.18414700
   0.81585300  0.18414700  0.68414700
   0.56585300  0.56585300  0.56585300
   0.93414700  0.43414700  0.06585300
   0.06585300  0.93414700  0.43414700
   0.43414700  0.06585300  0.93414700
   0.81585300  0.81585300  0.81585300
   0.68414700  0.18414700  0.31585300
   0.18414700  0.31585300  0.68414700
   0.31585300  0.68414700  0.18414700
   0.06585300  0.06585300  0.06585300
   0.43414700  0.93414700  0.56585300
   0.56585300  0.43414700  0.93414700
   0.93414700  0.56585300  0.43414700
   0.37500000  0.00000000  0.25000000
   0.12500000  0.00000000  0.75000000
   0.62500000  0.50000000  0.25000000
   0.87500000  0.50000000  0.75000000
   0.25000000  0.37500000  0.00000000
   0.75000000  0.12500000  0.00000000
   0.25000000  0.62500000  0.50000000
   0.75000000  0.87500000  0.50000000
   0.00000000  0.25000000  0.37500000
   0.00000000  0.75000000  0.12500000
   0.50000000  0.25000000  0.62500000
   0.50000000  0.75000000  0.87500000
