Al4C3 Fd-3m polymorph (findsym-output) -
   1.00000000000000     
     8.3966753361053446    0.0000000000000000    0.0000000000000000
     0.0000000000000000    8.3966753361053446    0.0000000000000000
     0.0000000000000000    0.0000000000000000    8.3966753361053446
   Al   C 
    32    24
Direct
  0.7612372528865633  0.7612372528865633  0.7612372528865633
  0.2387627471134367  0.2387627471134367  0.2387627471134367
  0.9887627471134367  0.4887627471134366  0.2612372528865634
  0.0112372528865633  0.5112372528865633  0.7387627471134367
  0.4887627471134366  0.2612372528865634  0.9887627471134367
  0.5112372528865633  0.7387627471134367  0.0112372528865633
  0.2612372528865634  0.9887627471134367  0.4887627471134366
  0.7387627471134367  0.0112372528865633  0.5112372528865633
  0.5112372528865633  0.0112372528865633  0.7387627471134367
  0.4887627471134366  0.9887627471134367  0.2612372528865634
  0.0112372528865633  0.7387627471134367  0.5112372528865633
  0.9887627471134367  0.2612372528865634  0.4887627471134366
  0.7387627471134367  0.5112372528865633  0.0112372528865633
  0.2612372528865634  0.4887627471134366  0.9887627471134367
  0.7612372528865633  0.2612372528865634  0.2612372528865634
  0.2387627471134367  0.7387627471134367  0.7387627471134367
  0.9887627471134367  0.9887627471134367  0.7612372528865633
  0.0112372528865633  0.0112372528865633  0.2387627471134367
  0.4887627471134366  0.7612372528865633  0.4887627471134366
  0.5112372528865633  0.2387627471134367  0.5112372528865633
  0.5112372528865633  0.5112372528865633  0.2387627471134367
  0.4887627471134366  0.4887627471134366  0.7612372528865633
  0.0112372528865633  0.2387627471134367  0.0112372528865633
  0.9887627471134367  0.7612372528865633  0.9887627471134367
  0.2612372528865634  0.7612372528865633  0.2612372528865634
  0.7387627471134367  0.2387627471134367  0.7387627471134367
  0.7612372528865633  0.9887627471134367  0.9887627471134367
  0.2387627471134367  0.0112372528865633  0.0112372528865633
  0.2387627471134367  0.5112372528865633  0.5112372528865633
  0.7612372528865633  0.4887627471134366  0.4887627471134366
  0.2612372528865634  0.2612372528865634  0.7612372528865633
  0.7387627471134367  0.7387627471134367  0.2387627471134367
 -0.0000000000000000 -0.0000000000000000 -0.0000000000000000
  0.7500000000000000  0.2500000000000000  0.5000000000000000
  0.2500000000000000  0.7500000000000000  0.5000000000000000
  0.2500000000000000  0.5000000000000000  0.7500000000000000
  0.7500000000000000  0.5000000000000000  0.2500000000000000
  0.5000000000000000  0.7500000000000000  0.2500000000000000
  0.5000000000000000  0.2500000000000000  0.7500000000000000
 -0.0000000000000000  0.5000000000000000  0.5000000000000000
  0.7500000000000000  0.7500000000000000 -0.0000000000000000
  0.2500000000000000  0.2500000000000000 -0.0000000000000000
  0.2500000000000000 -0.0000000000000000  0.2500000000000000
  0.7500000000000000 -0.0000000000000000  0.7500000000000000
  0.5000000000000000 -0.0000000000000000  0.5000000000000000
 -0.0000000000000000  0.7500000000000000  0.7500000000000000
 -0.0000000000000000  0.2500000000000000  0.2500000000000000
  0.5000000000000000  0.5000000000000000 -0.0000000000000000
  0.3750000000000000  0.3750000000000000  0.3750000000000000
  0.6250000000000000  0.6250000000000000  0.6250000000000000
  0.3750000000000000  0.8750000000000000  0.8750000000000000
  0.6250000000000000  0.1250000000000000  0.1250000000000000
  0.8750000000000000  0.8750000000000000  0.3750000000000000
  0.1250000000000000  0.1250000000000000  0.6250000000000000
  0.8750000000000000  0.3750000000000000  0.8750000000000000
  0.1250000000000000  0.6250000000000000  0.1250000000000000
 
  0.00000000E+00  0.00000000E+00  0.00000000E+00
  0.00000000E+00  0.00000000E+00  0.00000000E+00
  0.00000000E+00  0.00000000E+00  0.00000000E+00
  0.00000000E+00  0.00000000E+00  0.00000000E+00
  0.00000000E+00  0.00000000E+00  0.00000000E+00
  0.00000000E+00  0.00000000E+00  0.00000000E+00
  0.00000000E+00  0.00000000E+00  0.00000000E+00
  0.00000000E+00  0.00000000E+00  0.00000000E+00
  0.00000000E+00  0.00000000E+00  0.00000000E+00
  0.00000000E+00  0.00000000E+00  0.00000000E+00
  0.00000000E+00  0.00000000E+00  0.00000000E+00
  0.00000000E+00  0.00000000E+00  0.00000000E+00
  0.00000000E+00  0.00000000E+00  0.00000000E+00
  0.00000000E+00  0.00000000E+00  0.00000000E+00
  0.00000000E+00  0.00000000E+00  0.00000000E+00
  0.00000000E+00  0.00000000E+00  0.00000000E+00
  0.00000000E+00  0.00000000E+00  0.00000000E+00
  0.00000000E+00  0.00000000E+00  0.00000000E+00
  0.00000000E+00  0.00000000E+00  0.00000000E+00
  0.00000000E+00  0.00000000E+00  0.00000000E+00
  0.00000000E+00  0.00000000E+00  0.00000000E+00
  0.00000000E+00  0.00000000E+00  0.00000000E+00
  0.00000000E+00  0.00000000E+00  0.00000000E+00
  0.00000000E+00  0.00000000E+00  0.00000000E+00
  0.00000000E+00  0.00000000E+00  0.00000000E+00
  0.00000000E+00  0.00000000E+00  0.00000000E+00
  0.00000000E+00  0.00000000E+00  0.00000000E+00
  0.00000000E+00  0.00000000E+00  0.00000000E+00
  0.00000000E+00  0.00000000E+00  0.00000000E+00
  0.00000000E+00  0.00000000E+00  0.00000000E+00
  0.00000000E+00  0.00000000E+00  0.00000000E+00
  0.00000000E+00  0.00000000E+00  0.00000000E+00
  0.00000000E+00  0.00000000E+00  0.00000000E+00
  0.00000000E+00  0.00000000E+00  0.00000000E+00
  0.00000000E+00  0.00000000E+00  0.00000000E+00
  0.00000000E+00  0.00000000E+00  0.00000000E+00
  0.00000000E+00  0.00000000E+00  0.00000000E+00
  0.00000000E+00  0.00000000E+00  0.00000000E+00
  0.00000000E+00  0.00000000E+00  0.00000000E+00
  0.00000000E+00  0.00000000E+00  0.00000000E+00
  0.00000000E+00  0.00000000E+00  0.00000000E+00
  0.00000000E+00  0.00000000E+00  0.00000000E+00
  0.00000000E+00  0.00000000E+00  0.00000000E+00
  0.00000000E+00  0.00000000E+00  0.00000000E+00
  0.00000000E+00  0.00000000E+00  0.00000000E+00
  0.00000000E+00  0.00000000E+00  0.00000000E+00
  0.00000000E+00  0.00000000E+00  0.00000000E+00
  0.00000000E+00  0.00000000E+00  0.00000000E+00
  0.00000000E+00  0.00000000E+00  0.00000000E+00
  0.00000000E+00  0.00000000E+00  0.00000000E+00
  0.00000000E+00  0.00000000E+00  0.00000000E+00
  0.00000000E+00  0.00000000E+00  0.00000000E+00
  0.00000000E+00  0.00000000E+00  0.00000000E+00
  0.00000000E+00  0.00000000E+00  0.00000000E+00
  0.00000000E+00  0.00000000E+00  0.00000000E+00
  0.00000000E+00  0.00000000E+00  0.00000000E+00
