       N       E                     dE             d eps       ncg     rms          rms(c)
DAV:   1    -0.498875864711E+03   -0.49888E+03   -0.51821E+00  2532   0.725E+00    0.386E+00
DAV:   2    -0.466141568370E+03    0.32734E+02   -0.35633E+00  2520   0.642E+00    0.792E-01
DAV:   3    -0.466667997926E+03   -0.52643E+00   -0.52837E-01  2544   0.239E+00    0.113E+00
DAV:   4    -0.466712001379E+03   -0.44003E-01   -0.42558E-02  2814   0.592E-01    0.117E+00
DAV:   5    -0.466713848050E+03   -0.18467E-02   -0.60512E-03  2826   0.185E-01    0.831E-01
DAV:   6    -0.466712785402E+03    0.10626E-02   -0.10253E-02  2886   0.215E-01    0.220E-01
DAV:   7    -0.466712861716E+03   -0.76314E-04   -0.69375E-04  3054   0.649E-02    0.837E-02
DAV:   8    -0.466712860510E+03    0.12057E-05   -0.17017E-04  3162   0.315E-02    0.472E-02
DAV:   9    -0.466712860383E+03    0.12781E-06   -0.13643E-05  1512   0.112E-02
   1 F= -.42780948E+03 E0= -.42780948E+03  d E =-.427809E+03
       N       E                     dE             d eps       ncg     rms          rms(c)
DAV:   1    -0.463924867211E+03    0.27880E+01   -0.54341E+01  2718   0.226E+01    0.776E+00
DAV:   2    -0.462862968486E+03    0.10619E+01   -0.45443E+00  2820   0.492E+00    0.399E+00
DAV:   3    -0.462840746637E+03    0.22222E-01   -0.60338E-01  2820   0.174E+00    0.161E+00
DAV:   4    -0.462844595848E+03   -0.38492E-02   -0.43849E-02  2832   0.641E-01    0.616E-01
DAV:   5    -0.462849615883E+03   -0.50200E-02   -0.39266E-03  2808   0.257E-01    0.382E-01
DAV:   6    -0.462849474279E+03    0.14160E-03   -0.30459E-03  3018   0.152E-01    0.186E-01
DAV:   7    -0.462849554067E+03   -0.79788E-04   -0.79765E-04  2850   0.694E-02    0.785E-02
DAV:   8    -0.462849620116E+03   -0.66049E-04   -0.32144E-04  3246   0.443E-02    0.196E-02
DAV:   9    -0.462849599067E+03    0.21049E-04   -0.61552E-05  2724   0.202E-02    0.731E-03
DAV:  10    -0.462849605529E+03   -0.64621E-05   -0.18987E-05  1644   0.109E-02
   2 F= -.42772364E+03 E0= -.42772364E+03  d E =0.858456E-01
       N       E                     dE             d eps       ncg     rms          rms(c)
DAV:   1    -0.466013654573E+03   -0.31641E+01   -0.13233E+01  2736   0.107E+01    0.392E+00
DAV:   2    -0.465803074161E+03    0.21058E+00   -0.11865E+00  2850   0.244E+00    0.196E+00
DAV:   3    -0.465803447094E+03   -0.37293E-03   -0.14833E-01  2790   0.853E-01    0.778E-01
DAV:   4    -0.465804967584E+03   -0.15205E-02   -0.12112E-02  2874   0.342E-01    0.302E-01
DAV:   5    -0.465806893410E+03   -0.19258E-02   -0.13270E-03  2718   0.151E-01    0.184E-01
DAV:   6    -0.465806975605E+03   -0.82195E-04   -0.94377E-04  3114   0.842E-02    0.833E-02
DAV:   7    -0.465806900275E+03    0.75330E-04   -0.24045E-04  2958   0.387E-02    0.418E-02
DAV:   8    -0.465806888401E+03    0.11874E-04   -0.12015E-04  3090   0.258E-02    0.115E-02
DAV:   9    -0.465806889108E+03   -0.70690E-06   -0.22221E-05  1890   0.123E-02
   3 F= -.42880987E+03 E0= -.42880987E+03  d E =-.100039E+01
       N       E                     dE             d eps       ncg     rms          rms(c)
DAV:   1    -0.465786120114E+03    0.20768E-01   -0.16416E-03  2790   0.120E-01    0.455E-02
DAV:   2    -0.465786068585E+03    0.51529E-04   -0.14834E-04  2814   0.273E-02    0.243E-02
DAV:   3    -0.465786055335E+03    0.13251E-04   -0.16628E-05  1392   0.935E-03    0.114E-02
DAV:   4    -0.465786049816E+03    0.55189E-05   -0.20949E-06  1296   0.493E-03
   4 F= -.42880996E+03 E0= -.42880996E+03  d E =-.100048E+01
       N       E                     dE             d eps       ncg     rms          rms(c)
DAV:   1    -0.465742280365E+03    0.43775E-01   -0.38995E-01  2796   0.187E+00    0.202E-01
DAV:   2    -0.465750374616E+03   -0.80943E-02   -0.64022E-02  2958   0.635E-01    0.281E-01
DAV:   3    -0.465750340938E+03    0.33678E-04   -0.95498E-04  2982   0.923E-02    0.275E-01
DAV:   4    -0.465749864178E+03    0.47676E-03   -0.34607E-04  3174   0.559E-02    0.223E-01
DAV:   5    -0.465749429415E+03    0.43476E-03   -0.95430E-03  2904   0.262E-01    0.117E-01
DAV:   6    -0.465749476796E+03   -0.47381E-04   -0.15704E-03  2796   0.103E-01    0.102E-01
DAV:   7    -0.465749247165E+03    0.22963E-03   -0.61388E-04  3264   0.655E-02    0.384E-02
DAV:   8    -0.465749246375E+03    0.78971E-06   -0.25966E-04  2976   0.362E-02    0.158E-02
DAV:   9    -0.465749248573E+03   -0.21978E-05   -0.64554E-06  1344   0.733E-03
   5 F= -.42881745E+03 E0= -.42881745E+03  d E =-.748950E-02
       N       E                     dE             d eps       ncg     rms          rms(c)
DAV:   1    -0.465772507523E+03   -0.23261E-01   -0.63503E-02  2790   0.756E-01    0.817E-02
DAV:   2    -0.465773829697E+03   -0.13222E-02   -0.10390E-02  2970   0.256E-01    0.115E-01
DAV:   3    -0.465773831237E+03   -0.15405E-05   -0.15221E-04  2958   0.369E-02    0.114E-01
DAV:   4    -0.465773780492E+03    0.50745E-04   -0.20350E-05  2034   0.152E-02    0.101E-01
DAV:   5    -0.465773703358E+03    0.77134E-04   -0.21825E-03  2880   0.126E-01    0.644E-02
DAV:   6    -0.465773706758E+03   -0.34000E-05   -0.39923E-04  2766   0.516E-02    0.520E-02
DAV:   7    -0.465773643042E+03    0.63716E-04   -0.22153E-04  3138   0.392E-02    0.130E-02
DAV:   8    -0.465773647373E+03   -0.43315E-05   -0.47020E-05  2148   0.158E-02
   6 F= -.42882390E+03 E0= -.42882390E+03  d E =-.139352E-01
