Al4C3 Fd-3m - r2SCAN H(P) scan @ 10 GPa 
           1
     8.542126    0.000000    0.000000
     0.000000    8.542126    0.000000
     0.000000    0.000000    8.542126
   Al   C 
    32    24
Direct configuration=     1
   0.76156447  0.76156447  0.76156447
   0.23843553  0.23843553  0.23843553
   0.98843553  0.48843553  0.26156447
   0.01156447  0.51156447  0.73843553
   0.48843553  0.26156447  0.98843553
   0.51156447  0.73843553  0.01156447
   0.26156447  0.98843553  0.48843553
   0.73843553  0.01156447  0.51156447
   0.51156447  0.01156447  0.73843553
   0.48843553  0.98843553  0.26156447
   0.01156447  0.73843553  0.51156447
   0.98843553  0.26156447  0.48843553
   0.73843553  0.51156447  0.01156447
   0.26156447  0.48843553  0.98843553
   0.76156447  0.26156447  0.26156447
   0.23843553  0.73843553  0.73843553
   0.98843553  0.98843553  0.76156447
   0.01156447  0.01156447  0.23843553
   0.48843553  0.76156447  0.48843553
   0.51156447  0.23843553  0.51156447
   0.51156447  0.51156447  0.23843553
   0.48843553  0.48843553  0.76156447
   0.01156447  0.23843553  0.01156447
   0.98843553  0.76156447  0.98843553
   0.26156447  0.76156447  0.26156447
   0.73843553  0.23843553  0.73843553
   0.76156447  0.98843553  0.98843553
   0.23843553  0.01156447  0.01156447
   0.23843553  0.51156447  0.51156447
   0.76156447  0.48843553  0.48843553
   0.26156447  0.26156447  0.76156447
   0.73843553  0.73843553  0.23843553
   0.00000000  0.00000000  0.00000000
   0.75000000  0.25000000  0.50000000
   0.25000000  0.75000000  0.50000000
   0.25000000  0.50000000  0.75000000
   0.75000000  0.50000000  0.25000000
   0.50000000  0.75000000  0.25000000
   0.50000000  0.25000000  0.75000000
   0.00000000  0.50000000  0.50000000
   0.75000000  0.75000000  0.00000000
   0.25000000  0.25000000  0.00000000
   0.25000000  0.00000000  0.25000000
   0.75000000  0.00000000  0.75000000
   0.50000000  0.00000000  0.50000000
   0.00000000  0.75000000  0.75000000
   0.00000000  0.25000000  0.25000000
   0.50000000  0.50000000  0.00000000
   0.37500000  0.37500000  0.37500000
   0.62500000  0.62500000  0.62500000
   0.37500000  0.87500000  0.87500000
   0.62500000  0.12500000  0.12500000
   0.87500000  0.87500000  0.37500000
   0.12500000  0.12500000  0.62500000
   0.87500000  0.37500000  0.87500000
   0.12500000  0.62500000  0.12500000
Al4C3 Fd-3m - r2SCAN H(P) scan @ 10 GPa 
           1
     8.256189    0.000000    0.000000
     0.000000    8.256189    0.000000
     0.000000    0.000000    8.256189
   Al   C 
    32    24
Direct configuration=     2
   0.76156135  0.76156135  0.76156135
   0.23843865  0.23843865  0.23843865
   0.98843865  0.48843865  0.26156135
   0.01156135  0.51156135  0.73843865
   0.48843865  0.26156135  0.98843865
   0.51156135  0.73843865  0.01156135
   0.26156135  0.98843865  0.48843865
   0.73843865  0.01156135  0.51156135
   0.51156135  0.01156135  0.73843865
   0.48843865  0.98843865  0.26156135
   0.01156135  0.73843865  0.51156135
   0.98843865  0.26156135  0.48843865
   0.73843865  0.51156135  0.01156135
   0.26156135  0.48843865  0.98843865
   0.76156135  0.26156135  0.26156135
   0.23843865  0.73843865  0.73843865
   0.98843865  0.98843865  0.76156135
   0.01156135  0.01156135  0.23843865
   0.48843865  0.76156135  0.48843865
   0.51156135  0.23843865  0.51156135
   0.51156135  0.51156135  0.23843865
   0.48843865  0.48843865  0.76156135
   0.01156135  0.23843865  0.01156135
   0.98843865  0.76156135  0.98843865
   0.26156135  0.76156135  0.26156135
   0.73843865  0.23843865  0.73843865
   0.76156135  0.98843865  0.98843865
   0.23843865  0.01156135  0.01156135
   0.23843865  0.51156135  0.51156135
   0.76156135  0.48843865  0.48843865
   0.26156135  0.26156135  0.76156135
   0.73843865  0.73843865  0.23843865
  -0.00000000 -0.00000000 -0.00000000
   0.75000000  0.25000000  0.50000000
   0.25000000  0.75000000  0.50000000
   0.25000000  0.50000000  0.75000000
   0.75000000  0.50000000  0.25000000
   0.50000000  0.75000000  0.25000000
   0.50000000  0.25000000  0.75000000
  -0.00000000  0.50000000  0.50000000
   0.75000000  0.75000000 -0.00000000
   0.25000000  0.25000000 -0.00000000
   0.25000000 -0.00000000  0.25000000
   0.75000000 -0.00000000  0.75000000
   0.50000000 -0.00000000  0.50000000
  -0.00000000  0.75000000  0.75000000
  -0.00000000  0.25000000  0.25000000
   0.50000000  0.50000000 -0.00000000
   0.37500000  0.37500000  0.37500000
   0.62500000  0.62500000  0.62500000
   0.37500000  0.87500000  0.87500000
   0.62500000  0.12500000  0.12500000
   0.87500000  0.87500000  0.37500000
   0.12500000  0.12500000  0.62500000
   0.87500000  0.37500000  0.87500000
   0.12500000  0.62500000  0.12500000
Al4C3 Fd-3m - r2SCAN H(P) scan @ 10 GPa 
           1
     8.400254    0.000000    0.000000
     0.000000    8.400254    0.000000
     0.000000    0.000000    8.400254
   Al   C 
    32    24
Direct configuration=     3
   0.76156297  0.76156297  0.76156297
   0.23843703  0.23843703  0.23843703
   0.98843703  0.48843703  0.26156297
   0.01156297  0.51156297  0.73843703
   0.48843703  0.26156297  0.98843703
   0.51156297  0.73843703  0.01156297
   0.26156297  0.98843703  0.48843703
   0.73843703  0.01156297  0.51156297
   0.51156297  0.01156297  0.73843703
   0.48843703  0.98843703  0.26156297
   0.01156297  0.73843703  0.51156297
   0.98843703  0.26156297  0.48843703
   0.73843703  0.51156297  0.01156297
   0.26156297  0.48843703  0.98843703
   0.76156297  0.26156297  0.26156297
   0.23843703  0.73843703  0.73843703
   0.98843703  0.98843703  0.76156297
   0.01156297  0.01156297  0.23843703
   0.48843703  0.76156297  0.48843703
   0.51156297  0.23843703  0.51156297
   0.51156297  0.51156297  0.23843703
   0.48843703  0.48843703  0.76156297
   0.01156297  0.23843703  0.01156297
   0.98843703  0.76156297  0.98843703
   0.26156297  0.76156297  0.26156297
   0.73843703  0.23843703  0.73843703
   0.76156297  0.98843703  0.98843703
   0.23843703  0.01156297  0.01156297
   0.23843703  0.51156297  0.51156297
   0.76156297  0.48843703  0.48843703
   0.26156297  0.26156297  0.76156297
   0.73843703  0.73843703  0.23843703
  -0.00000000 -0.00000000 -0.00000000
   0.75000000  0.25000000  0.50000000
   0.25000000  0.75000000  0.50000000
   0.25000000  0.50000000  0.75000000
   0.75000000  0.50000000  0.25000000
   0.50000000  0.75000000  0.25000000
   0.50000000  0.25000000  0.75000000
  -0.00000000  0.50000000  0.50000000
   0.75000000  0.75000000 -0.00000000
   0.25000000  0.25000000 -0.00000000
   0.25000000 -0.00000000  0.25000000
   0.75000000 -0.00000000  0.75000000
   0.50000000 -0.00000000  0.50000000
  -0.00000000  0.75000000  0.75000000
  -0.00000000  0.25000000  0.25000000
   0.50000000  0.50000000 -0.00000000
   0.37500000  0.37500000  0.37500000
   0.62500000  0.62500000  0.62500000
   0.37500000  0.87500000  0.87500000
   0.62500000  0.12500000  0.12500000
   0.87500000  0.87500000  0.37500000
   0.12500000  0.12500000  0.62500000
   0.87500000  0.37500000  0.87500000
   0.12500000  0.62500000  0.12500000
Al4C3 Fd-3m - r2SCAN H(P) scan @ 10 GPa 
           1
     8.398670    0.000000    0.000000
     0.000000    8.398670    0.000000
     0.000000    0.000000    8.398670
   Al   C 
    32    24
Direct configuration=     4
   0.76156296  0.76156296  0.76156296
   0.23843704  0.23843704  0.23843704
   0.98843704  0.48843704  0.26156296
   0.01156296  0.51156296  0.73843704
   0.48843704  0.26156296  0.98843704
   0.51156296  0.73843704  0.01156296
   0.26156296  0.98843704  0.48843704
   0.73843704  0.01156296  0.51156296
   0.51156296  0.01156296  0.73843704
   0.48843704  0.98843704  0.26156296
   0.01156296  0.73843704  0.51156296
   0.98843704  0.26156296  0.48843704
   0.73843704  0.51156296  0.01156296
   0.26156296  0.48843704  0.98843704
   0.76156296  0.26156296  0.26156296
   0.23843704  0.73843704  0.73843704
   0.98843704  0.98843704  0.76156296
   0.01156296  0.01156296  0.23843704
   0.48843704  0.76156296  0.48843704
   0.51156296  0.23843704  0.51156296
   0.51156296  0.51156296  0.23843704
   0.48843704  0.48843704  0.76156296
   0.01156296  0.23843704  0.01156296
   0.98843704  0.76156296  0.98843704
   0.26156296  0.76156296  0.26156296
   0.73843704  0.23843704  0.73843704
   0.76156296  0.98843704  0.98843704
   0.23843704  0.01156296  0.01156296
   0.23843704  0.51156296  0.51156296
   0.76156296  0.48843704  0.48843704
   0.26156296  0.26156296  0.76156296
   0.73843704  0.73843704  0.23843704
  -0.00000000 -0.00000000 -0.00000000
   0.75000000  0.25000000  0.50000000
   0.25000000  0.75000000  0.50000000
   0.25000000  0.50000000  0.75000000
   0.75000000  0.50000000  0.25000000
   0.50000000  0.75000000  0.25000000
   0.50000000  0.25000000  0.75000000
  -0.00000000  0.50000000  0.50000000
   0.75000000  0.75000000 -0.00000000
   0.25000000  0.25000000 -0.00000000
   0.25000000 -0.00000000  0.25000000
   0.75000000 -0.00000000  0.75000000
   0.50000000 -0.00000000  0.50000000
  -0.00000000  0.75000000  0.75000000
  -0.00000000  0.25000000  0.25000000
   0.50000000  0.50000000 -0.00000000
   0.37500000  0.37500000  0.37500000
   0.62500000  0.62500000  0.62500000
   0.37500000  0.87500000  0.87500000
   0.62500000  0.12500000  0.12500000
   0.87500000  0.87500000  0.37500000
   0.12500000  0.12500000  0.62500000
   0.87500000  0.37500000  0.87500000
   0.12500000  0.62500000  0.12500000
Al4C3 Fd-3m - r2SCAN H(P) scan @ 10 GPa 
           1
     8.395315    0.000000    0.000000
     0.000000    8.395315    0.000000
     0.000000    0.000000    8.395315
   Al   C 
    32    24
Direct configuration=     5
   0.76101500  0.76101500  0.76101500
   0.23898500  0.23898500  0.23898500
   0.98898500  0.48898500  0.26101500
   0.01101500  0.51101500  0.73898500
   0.48898500  0.26101500  0.98898500
   0.51101500  0.73898500  0.01101500
   0.26101500  0.98898500  0.48898500
   0.73898500  0.01101500  0.51101500
   0.51101500  0.01101500  0.73898500
   0.48898500  0.98898500  0.26101500
   0.01101500  0.73898500  0.51101500
   0.98898500  0.26101500  0.48898500
   0.73898500  0.51101500  0.01101500
   0.26101500  0.48898500  0.98898500
   0.76101500  0.26101500  0.26101500
   0.23898500  0.73898500  0.73898500
   0.98898500  0.98898500  0.76101500
   0.01101500  0.01101500  0.23898500
   0.48898500  0.76101500  0.48898500
   0.51101500  0.23898500  0.51101500
   0.51101500  0.51101500  0.23898500
   0.48898500  0.48898500  0.76101500
   0.01101500  0.23898500  0.01101500
   0.98898500  0.76101500  0.98898500
   0.26101500  0.76101500  0.26101500
   0.73898500  0.23898500  0.73898500
   0.76101500  0.98898500  0.98898500
   0.23898500  0.01101500  0.01101500
   0.23898500  0.51101500  0.51101500
   0.76101500  0.48898500  0.48898500
   0.26101500  0.26101500  0.76101500
   0.73898500  0.73898500  0.23898500
  -0.00000000 -0.00000000 -0.00000000
   0.75000000  0.25000000  0.50000000
   0.25000000  0.75000000  0.50000000
   0.25000000  0.50000000  0.75000000
   0.75000000  0.50000000  0.25000000
   0.50000000  0.75000000  0.25000000
   0.50000000  0.25000000  0.75000000
  -0.00000000  0.50000000  0.50000000
   0.75000000  0.75000000 -0.00000000
   0.25000000  0.25000000 -0.00000000
   0.25000000 -0.00000000  0.25000000
   0.75000000 -0.00000000  0.75000000
   0.50000000 -0.00000000  0.50000000
  -0.00000000  0.75000000  0.75000000
  -0.00000000  0.25000000  0.25000000
   0.50000000  0.50000000 -0.00000000
   0.37500000  0.37500000  0.37500000
   0.62500000  0.62500000  0.62500000
   0.37500000  0.87500000  0.87500000
   0.62500000  0.12500000  0.12500000
   0.87500000  0.87500000  0.37500000
   0.12500000  0.12500000  0.62500000
   0.87500000  0.37500000  0.87500000
   0.12500000  0.62500000  0.12500000
Al4C3 Fd-3m - r2SCAN H(P) scan @ 10 GPa 
           1
     8.396675    0.000000    0.000000
     0.000000    8.396675    0.000000
     0.000000    0.000000    8.396675
   Al   C 
    32    24
Direct configuration=     6
   0.76123725  0.76123725  0.76123725
   0.23876275  0.23876275  0.23876275
   0.98876275  0.48876275  0.26123725
   0.01123725  0.51123725  0.73876275
   0.48876275  0.26123725  0.98876275
   0.51123725  0.73876275  0.01123725
   0.26123725  0.98876275  0.48876275
   0.73876275  0.01123725  0.51123725
   0.51123725  0.01123725  0.73876275
   0.48876275  0.98876275  0.26123725
   0.01123725  0.73876275  0.51123725
   0.98876275  0.26123725  0.48876275
   0.73876275  0.51123725  0.01123725
   0.26123725  0.48876275  0.98876275
   0.76123725  0.26123725  0.26123725
   0.23876275  0.73876275  0.73876275
   0.98876275  0.98876275  0.76123725
   0.01123725  0.01123725  0.23876275
   0.48876275  0.76123725  0.48876275
   0.51123725  0.23876275  0.51123725
   0.51123725  0.51123725  0.23876275
   0.48876275  0.48876275  0.76123725
   0.01123725  0.23876275  0.01123725
   0.98876275  0.76123725  0.98876275
   0.26123725  0.76123725  0.26123725
   0.73876275  0.23876275  0.73876275
   0.76123725  0.98876275  0.98876275
   0.23876275  0.01123725  0.01123725
   0.23876275  0.51123725  0.51123725
   0.76123725  0.48876275  0.48876275
   0.26123725  0.26123725  0.76123725
   0.73876275  0.73876275  0.23876275
  -0.00000000 -0.00000000 -0.00000000
   0.75000000  0.25000000  0.50000000
   0.25000000  0.75000000  0.50000000
   0.25000000  0.50000000  0.75000000
   0.75000000  0.50000000  0.25000000
   0.50000000  0.75000000  0.25000000
   0.50000000  0.25000000  0.75000000
  -0.00000000  0.50000000  0.50000000
   0.75000000  0.75000000 -0.00000000
   0.25000000  0.25000000 -0.00000000
   0.25000000 -0.00000000  0.25000000
   0.75000000 -0.00000000  0.75000000
   0.50000000 -0.00000000  0.50000000
  -0.00000000  0.75000000  0.75000000
  -0.00000000  0.25000000  0.25000000
   0.50000000  0.50000000 -0.00000000
   0.37500000  0.37500000  0.37500000
   0.62500000  0.62500000  0.62500000
   0.37500000  0.87500000  0.87500000
   0.62500000  0.12500000  0.12500000
   0.87500000  0.87500000  0.37500000
   0.12500000  0.12500000  0.62500000
   0.87500000  0.37500000  0.87500000
   0.12500000  0.62500000  0.12500000
