  28  28   0   0
  0.1005874E+02  0.9195659E-09  0.3159508E-09  0.9693914E-09  0.5000000E-15
  1.000000000000000E-004
  CAR 
 Al4C3 Pnma-VII - H(P) scan @ 20 GPa (ISI
     16.68557705     -7.01061183  301      8.55482224      1.00000000
     -7.011  0.0000E+00  0.0000E+00
     -6.932  0.0000E+00  0.0000E+00
     -6.853  0.0000E+00  0.0000E+00
     -6.774  0.0000E+00  0.0000E+00
     -6.695  0.0000E+00  0.0000E+00
     -6.616  0.0000E+00  0.0000E+00
     -6.537  0.0000E+00  0.0000E+00
     -6.458  0.0000E+00  0.0000E+00
     -6.379  0.0000E+00  0.0000E+00
     -6.300  0.0000E+00  0.0000E+00
     -6.221  0.1757E-18  0.1388E-19
     -6.142  0.1529E-11  0.1208E-12
     -6.063  0.1014E-06  0.8013E-08
     -5.984  0.6190E-04  0.4897E-05
     -5.905  0.8627E-03  0.7304E-04
     -5.826  0.3418E-02  0.3430E-03
     -5.747  0.6480E-02  0.8549E-03
     -5.668  0.7731E-02  0.1465E-02
     -5.589  0.7838E-02  0.2085E-02
     -5.510  0.9057E-02  0.2800E-02
     -5.431  0.1431E-01  0.3931E-02
     -5.352  0.1319E-01  0.4972E-02
     -5.273  0.1192E-01  0.5914E-02
     -5.194  0.1122E-01  0.6800E-02
     -5.115  0.1457E-01  0.7951E-02
     -5.036  0.1103E-01  0.8822E-02
     -4.957  0.9232E-02  0.9551E-02
     -4.878  0.1520E-01  0.1075E-01
     -4.799  0.2352E-01  0.1261E-01
     -4.720  0.1753E-01  0.1399E-01
     -4.641  0.1121E-01  0.1488E-01
     -4.562  0.1917E-01  0.1639E-01
     -4.483  0.2941E-01  0.1872E-01
     -4.404  0.2196E-01  0.2045E-01
     -4.325  0.1387E-01  0.2155E-01
     -4.246  0.1231E-01  0.2252E-01
     -4.167  0.1475E-01  0.2368E-01
     -4.088  0.2202E-01  0.2542E-01
     -4.009  0.2462E-01  0.2737E-01
     -3.930  0.2217E-01  0.2912E-01
     -3.851  0.2610E-01  0.3118E-01
     -3.772  0.2770E-01  0.3337E-01
     -3.693  0.2612E-01  0.3543E-01
     -3.614  0.3014E-01  0.3781E-01
     -3.535  0.2884E-01  0.4009E-01
     -3.456  0.1764E-01  0.4148E-01
     -3.377  0.2856E-01  0.4374E-01
     -3.298  0.2420E-01  0.4565E-01
     -3.219  0.2158E-01  0.4736E-01
     -3.140  0.3471E-01  0.5010E-01
     -3.061  0.5309E-01  0.5429E-01
     -2.982  0.3827E-01  0.5731E-01
     -2.903  0.2872E-01  0.5958E-01
     -2.824  0.3889E-01  0.6265E-01
     -2.745  0.4569E-01  0.6626E-01
     -2.666  0.3963E-01  0.6939E-01
     -2.587  0.5008E-01  0.7335E-01
     -2.508  0.5364E-01  0.7759E-01
     -2.429  0.5295E-01  0.8177E-01
     -2.350  0.4375E-01  0.8522E-01
     -2.271  0.3220E-01  0.8777E-01
     -2.192  0.4435E-01  0.9127E-01
     -2.113  0.3634E-01  0.9414E-01
     -2.034  0.4687E-01  0.9784E-01
     -1.955  0.5422E-01  0.1021E+00
     -1.876  0.6241E-01  0.1071E+00
     -1.797  0.6047E-01  0.1118E+00
     -1.718  0.6329E-01  0.1168E+00
     -1.639  0.3795E-01  0.1198E+00
     -1.560  0.2168E-02  0.1200E+00
     -1.482  0.3298E-05  0.1200E+00
     -1.403  0.6902E-10  0.1200E+00
     -1.324  0.1441E-16  0.1200E+00
     -1.245  0.0000E+00  0.1200E+00
     -1.166  0.0000E+00  0.1200E+00
     -1.087  0.0000E+00  0.1200E+00
     -1.008  0.0000E+00  0.1200E+00
     -0.929  0.0000E+00  0.1200E+00
     -0.850  0.0000E+00  0.1200E+00
     -0.771  0.0000E+00  0.1200E+00
     -0.692  0.0000E+00  0.1200E+00
     -0.613  0.0000E+00  0.1200E+00
     -0.534  0.0000E+00  0.1200E+00
     -0.455  0.0000E+00  0.1200E+00
     -0.376  0.0000E+00  0.1200E+00
     -0.297  0.0000E+00  0.1200E+00
     -0.218  0.0000E+00  0.1200E+00
     -0.139  0.0000E+00  0.1200E+00
     -0.060  0.0000E+00  0.1200E+00
      0.019  0.0000E+00  0.1200E+00
      0.098  0.0000E+00  0.1200E+00
      0.177  0.0000E+00  0.1200E+00
      0.256  0.1560E-12  0.1200E+00
      0.335  0.2888E-07  0.1200E+00
      0.414  0.4846E-04  0.1200E+00
      0.493  0.1525E-02  0.1201E+00
      0.572  0.3492E-02  0.1204E+00
      0.651  0.4963E-02  0.1208E+00
      0.730  0.1109E-01  0.1217E+00
      0.809  0.1132E-01  0.1226E+00
      0.888  0.9975E-02  0.1234E+00
      0.967  0.2262E-01  0.1251E+00
      1.046  0.3133E-01  0.1276E+00
      1.125  0.1582E-01  0.1289E+00
      1.204  0.1864E-01  0.1303E+00
      1.283  0.1640E-01  0.1316E+00
      1.362  0.2689E-01  0.1338E+00
      1.441  0.2969E-01  0.1361E+00
      1.520  0.3047E-01  0.1385E+00
      1.599  0.3439E-01  0.1412E+00
      1.678  0.2302E-01  0.1430E+00
      1.757  0.3143E-01  0.1455E+00
      1.836  0.2388E-01  0.1474E+00
      1.915  0.2796E-01  0.1496E+00
      1.994  0.2817E-01  0.1518E+00
      2.073  0.3219E-01  0.1544E+00
      2.152  0.2598E-01  0.1564E+00
      2.231  0.3717E-01  0.1594E+00
      2.310  0.5849E-01  0.1640E+00
      2.389  0.6262E-01  0.1689E+00
      2.468  0.6178E-01  0.1738E+00
      2.547  0.5371E-01  0.1781E+00
      2.626  0.5116E-01  0.1821E+00
      2.705  0.3067E-01  0.1845E+00
      2.784  0.5249E-01  0.1887E+00
      2.863  0.6802E-01  0.1940E+00
      2.942  0.5420E-01  0.1983E+00
      3.021  0.3775E-01  0.2013E+00
      3.100  0.3962E-01  0.2044E+00
      3.179  0.3798E-01  0.2074E+00
      3.258  0.3867E-01  0.2105E+00
      3.337  0.4222E-01  0.2138E+00
      3.416  0.3472E-01  0.2166E+00
      3.495  0.3418E-01  0.2193E+00
      3.574  0.4168E-01  0.2226E+00
      3.653  0.4266E-01  0.2259E+00
      3.732  0.4926E-01  0.2298E+00
      3.811  0.3219E-01  0.2324E+00
      3.890  0.3587E-01  0.2352E+00
      3.969  0.3845E-01  0.2382E+00
      4.048  0.3337E-01  0.2409E+00
      4.127  0.5739E-01  0.2454E+00
      4.206  0.6171E-01  0.2503E+00
      4.285  0.3564E-01  0.2531E+00
      4.364  0.3409E-01  0.2558E+00
      4.443  0.4203E-01  0.2591E+00
      4.522  0.5428E-01  0.2634E+00
      4.601  0.7004E-01  0.2689E+00
      4.680  0.4419E-01  0.2724E+00
      4.758  0.4358E-01  0.2759E+00
      4.837  0.4847E-01  0.2797E+00
      4.916  0.4662E-01  0.2834E+00
      4.995  0.5191E-01  0.2875E+00
      5.074  0.4351E-01  0.2909E+00
      5.153  0.5776E-01  0.2955E+00
      5.232  0.5665E-01  0.2999E+00
      5.311  0.5377E-01  0.3042E+00
      5.390  0.6258E-01  0.3091E+00
      5.469  0.5824E-01  0.3137E+00
      5.548  0.5664E-01  0.3182E+00
      5.627  0.5399E-01  0.3225E+00
      5.706  0.6702E-01  0.3278E+00
      5.785  0.6556E-01  0.3329E+00
      5.864  0.8983E-01  0.3400E+00
      5.943  0.6621E-01  0.3453E+00
      6.022  0.6985E-01  0.3508E+00
      6.101  0.5845E-01  0.3554E+00
      6.180  0.6350E-01  0.3604E+00
      6.259  0.7101E-01  0.3660E+00
      6.338  0.8774E-01  0.3730E+00
      6.417  0.7512E-01  0.3789E+00
      6.496  0.7310E-01  0.3847E+00
      6.575  0.7942E-01  0.3909E+00
      6.654  0.8223E-01  0.3974E+00
      6.733  0.4199E-01  0.4007E+00
      6.812  0.5363E-01  0.4050E+00
      6.891  0.8837E-01  0.4120E+00
      6.970  0.7340E-01  0.4178E+00
      7.049  0.7702E-01  0.4238E+00
      7.128  0.9003E-01  0.4310E+00
      7.207  0.6025E-01  0.4357E+00
      7.286  0.5450E-01  0.4400E+00
      7.365  0.5393E-01  0.4443E+00
      7.444  0.7055E-01  0.4499E+00
      7.523  0.6672E-01  0.4551E+00
      7.602  0.6166E-01  0.4600E+00
      7.681  0.4876E-01  0.4638E+00
      7.760  0.3687E-01  0.4668E+00
      7.839  0.4211E-01  0.4701E+00
      7.918  0.3726E-01  0.4730E+00
      7.997  0.3967E-01  0.4762E+00
      8.076  0.2101E-01  0.4778E+00
      8.155  0.2326E-02  0.4780E+00
      8.234  0.8086E-02  0.4786E+00
      8.313  0.1224E-01  0.4796E+00
      8.392  0.4817E-02  0.4800E+00
      8.471  0.1205E-03  0.4800E+00
      8.550  0.5718E-07  0.4800E+00
      8.629  0.2038E-08  0.4800E+00
      8.708  0.1075E-04  0.4800E+00
      8.787  0.6346E-03  0.4801E+00
      8.866  0.1016E-02  0.4801E+00
      8.945  0.6199E-03  0.4802E+00
      9.024  0.4800E-03  0.4802E+00
      9.103  0.2638E-02  0.4804E+00
      9.182  0.2268E-02  0.4806E+00
      9.261  0.6245E-02  0.4811E+00
      9.340  0.4244E-02  0.4814E+00
      9.419  0.5390E-02  0.4819E+00
      9.498  0.8253E-02  0.4825E+00
      9.577  0.8085E-02  0.4832E+00
      9.656  0.4823E-02  0.4835E+00
      9.735  0.3447E-02  0.4838E+00
      9.814  0.7692E-02  0.4844E+00
      9.893  0.1140E-01  0.4853E+00
      9.972  0.1156E-01  0.4862E+00
     10.051  0.5897E-02  0.4867E+00
     10.130  0.8392E-02  0.4874E+00
     10.209  0.1516E-01  0.4886E+00
     10.288  0.1953E-01  0.4901E+00
     10.367  0.1685E-01  0.4914E+00
     10.446  0.1886E-01  0.4929E+00
     10.525  0.7409E-02  0.4935E+00
     10.604  0.1606E-01  0.4948E+00
     10.683  0.1744E-01  0.4961E+00
     10.762  0.2558E-01  0.4982E+00
     10.841  0.2038E-01  0.4998E+00
     10.920  0.1314E-01  0.5008E+00
     10.998  0.1247E-01  0.5018E+00
     11.077  0.1573E-01  0.5030E+00
     11.156  0.2129E-01  0.5047E+00
     11.235  0.1724E-01  0.5061E+00
     11.314  0.2303E-01  0.5079E+00
     11.393  0.2536E-01  0.5099E+00
     11.472  0.3503E-01  0.5127E+00
     11.551  0.2004E-01  0.5143E+00
     11.630  0.3525E-01  0.5170E+00
     11.709  0.2818E-01  0.5193E+00
     11.788  0.3610E-01  0.5221E+00
     11.867  0.4073E-01  0.5253E+00
     11.946  0.2565E-01  0.5274E+00
     12.025  0.2931E-01  0.5297E+00
     12.104  0.4201E-01  0.5330E+00
     12.183  0.3591E-01  0.5358E+00
     12.262  0.3499E-01  0.5386E+00
     12.341  0.2548E-01  0.5406E+00
     12.420  0.1864E-01  0.5421E+00
     12.499  0.3476E-01  0.5448E+00
     12.578  0.4590E-01  0.5485E+00
     12.657  0.3608E-01  0.5513E+00
     12.736  0.3575E-01  0.5541E+00
     12.815  0.4875E-01  0.5580E+00
     12.894  0.3891E-01  0.5610E+00
     12.973  0.1594E-01  0.5623E+00
     13.052  0.2224E-01  0.5641E+00
     13.131  0.3333E-01  0.5667E+00
     13.210  0.3310E-01  0.5693E+00
     13.289  0.4196E-01  0.5726E+00
     13.368  0.4512E-01  0.5762E+00
     13.447  0.5568E-01  0.5806E+00
     13.526  0.5435E-01  0.5849E+00
     13.605  0.5257E-01  0.5890E+00
     13.684  0.4460E-01  0.5926E+00
     13.763  0.3775E-01  0.5955E+00
     13.842  0.4495E-01  0.5991E+00
     13.921  0.4538E-01  0.6027E+00
     14.000  0.4336E-01  0.6061E+00
     14.079  0.3357E-01  0.6087E+00
     14.158  0.4310E-01  0.6122E+00
     14.237  0.3792E-01  0.6151E+00
     14.316  0.3238E-01  0.6177E+00
     14.395  0.4634E-01  0.6214E+00
     14.474  0.5949E-01  0.6261E+00
     14.553  0.5580E-01  0.6305E+00
     14.632  0.4899E-01  0.6343E+00
     14.711  0.5276E-01  0.6385E+00
     14.790  0.5762E-01  0.6431E+00
     14.869  0.4224E-01  0.6464E+00
     14.948  0.3242E-01  0.6490E+00
     15.027  0.3071E-01  0.6514E+00
     15.106  0.2955E-01  0.6537E+00
     15.185  0.3082E-01  0.6562E+00
     15.264  0.1906E-01  0.6577E+00
     15.343  0.1675E-01  0.6590E+00
     15.422  0.5454E-02  0.6594E+00
     15.501  0.3823E-02  0.6597E+00
     15.580  0.2312E-02  0.6599E+00
     15.659  0.1188E-02  0.6600E+00
     15.738  0.1226E-03  0.6600E+00
     15.817  0.2029E-06  0.6600E+00
     15.896  0.3058E-11  0.6600E+00
     15.975  0.3514E-18  0.6600E+00
     16.054  0.0000E+00  0.6600E+00
     16.133  0.0000E+00  0.6600E+00
     16.212  0.0000E+00  0.6600E+00
     16.291  0.0000E+00  0.6600E+00
     16.370  0.0000E+00  0.6600E+00
     16.449  0.0000E+00  0.6600E+00
     16.528  0.0000E+00  0.6600E+00
     16.607  0.0000E+00  0.6600E+00
     16.686  0.0000E+00  0.6600E+00
