       N       E                     dE             d eps       ncg     rms          rms(c)
DAV:   1    -0.169767639158E+03   -0.16977E+03   -0.42325E+00  7914   0.686E+00    0.665E-02
DAV:   2    -0.169789064394E+03   -0.21425E-01   -0.21446E-01  8352   0.151E+00    0.323E-02
DAV:   3    -0.169789258952E+03   -0.19456E-03   -0.19792E-03  7830   0.156E-01    0.253E-02
DAV:   4    -0.169789262958E+03   -0.40063E-05   -0.50727E-05  6936   0.250E-02
   1 F= -.13463153E+03 E0= -.13463153E+03  d E =-.134632E+03
       N       E                     dE             d eps       ncg     rms          rms(c)
DAV:   1    -0.173573525385E+03   -0.37843E+01   -0.21484E+01  8040   0.180E+01    0.493E+00
DAV:   2    -0.172939104829E+03    0.63442E+00   -0.17466E+00  8394   0.400E+00    0.200E+00
DAV:   3    -0.172900777315E+03    0.38328E-01   -0.26572E-01  8424   0.144E+00    0.648E-01
DAV:   4    -0.172892694498E+03    0.80828E-02   -0.30909E-02  8418   0.482E-01    0.266E-01
DAV:   5    -0.172890871094E+03    0.18234E-02   -0.67490E-03  8412   0.227E-01    0.132E-01
DAV:   6    -0.172890598878E+03    0.27222E-03   -0.72544E-04  8316   0.813E-02    0.329E-02
DAV:   7    -0.172890590615E+03    0.82627E-05   -0.56315E-05  8502   0.286E-02
   2 F= -.13445093E+03 E0= -.13445093E+03  d E =0.180601E+00
       N       E                     dE             d eps       ncg     rms          rms(c)
DAV:   1    -0.171770002317E+03    0.11206E+01   -0.69030E+00  7998   0.106E+01    0.274E+00
DAV:   2    -0.171575983382E+03    0.19402E+00   -0.53374E-01  8436   0.222E+00    0.113E+00
DAV:   3    -0.171563308496E+03    0.12675E-01   -0.79860E-02  8394   0.808E-01    0.361E-01
DAV:   4    -0.171560965926E+03    0.23426E-02   -0.79698E-03  8442   0.253E-01    0.145E-01
DAV:   5    -0.171560524964E+03    0.44096E-03   -0.15079E-03  8448   0.110E-01    0.758E-02
DAV:   6    -0.171560480807E+03    0.44157E-04   -0.17013E-04  8358   0.401E-02    0.170E-02
DAV:   7    -0.171560475246E+03    0.55605E-05   -0.12444E-05  4614   0.152E-02
   3 F= -.13497351E+03 E0= -.13497351E+03  d E =-.341982E+00
       N       E                     dE             d eps       ncg     rms          rms(c)
DAV:   1    -0.171546722182E+03    0.13759E-01   -0.45669E-04  8124   0.845E-02    0.229E-02
DAV:   2    -0.171546711285E+03    0.10897E-04   -0.37193E-05  7194   0.191E-02    0.936E-03
DAV:   3    -0.171546712015E+03   -0.73005E-06   -0.70293E-06  4236   0.805E-03
   4 F= -.13497355E+03 E0= -.13497355E+03  d E =-.342022E+00
       N       E                     dE             d eps       ncg     rms          rms(c)
DAV:   1    -0.171545238697E+03    0.14726E-02   -0.49548E-06  4152   0.836E-03    0.241E-03
DAV:   2    -0.171545238945E+03   -0.24794E-06   -0.45383E-07  4098   0.266E-03
   5 F= -.13497355E+03 E0= -.13497355E+03  d E =-.342023E+00
       N       E                     dE             d eps       ncg     rms          rms(c)
DAV:   1    -0.171561423570E+03   -0.16185E-01   -0.20268E-01  7152   0.180E+00    0.890E-02
DAV:   2    -0.171561474007E+03   -0.50437E-04   -0.48671E-03  8796   0.248E-01    0.615E-02
DAV:   3    -0.171561360181E+03    0.11383E-03   -0.28749E-04  8562   0.678E-02    0.297E-02
DAV:   4    -0.171561351975E+03    0.82069E-05   -0.13614E-04  8484   0.360E-02    0.997E-03
DAV:   5    -0.171561351641E+03    0.33308E-06   -0.54980E-06  4536   0.119E-02
   6 F= -.13497695E+03 E0= -.13497695E+03  d E =-.340070E-02
       N       E                     dE             d eps       ncg     rms          rms(c)
DAV:   1    -0.171562995316E+03   -0.16433E-02   -0.32265E-03  7458   0.227E-01    0.113E-02
DAV:   2    -0.171562997499E+03   -0.21831E-05   -0.82457E-05  8868   0.321E-02
   7 F= -.13497700E+03 E0= -.13497700E+03  d E =-.344723E-02
       N       E                     dE             d eps       ncg     rms          rms(c)
DAV:   1    -0.171569031334E+03   -0.60360E-02   -0.13420E-01  7128   0.147E+00    0.565E-02
DAV:   2    -0.171569015305E+03    0.16029E-04   -0.16064E-03  8802   0.147E-01    0.388E-02
DAV:   3    -0.171568951594E+03    0.63711E-04   -0.14613E-04  8724   0.489E-02    0.118E-02
DAV:   4    -0.171568953929E+03   -0.23353E-05   -0.52931E-05  5538   0.215E-02
   8 F= -.13497790E+03 E0= -.13497790E+03  d E =-.901450E-03
       N       E                     dE             d eps       ncg     rms          rms(c)
DAV:   1    -0.171570427817E+03   -0.14762E-02   -0.10622E-02  7176   0.414E-01    0.163E-02
DAV:   2    -0.171570426873E+03    0.94453E-06   -0.12504E-04  8820   0.408E-02    0.110E-02
DAV:   3    -0.171570421855E+03    0.50174E-05   -0.10745E-05  4884   0.139E-02
   9 F= -.13497795E+03 E0= -.13497795E+03  d E =-.950002E-03
       N       E                     dE             d eps       ncg     rms          rms(c)
DAV:   1    -0.171568708120E+03    0.17188E-02   -0.77509E-02  7128   0.112E+00    0.471E-02
DAV:   2    -0.171568716100E+03   -0.79801E-05   -0.11682E-03  8760   0.125E-01    0.322E-02
DAV:   3    -0.171568676156E+03    0.39944E-04   -0.84389E-05  8676   0.389E-02    0.123E-02
DAV:   4    -0.171568677013E+03   -0.85698E-06   -0.42381E-05  5388   0.210E-02
  10 F= -.13497846E+03 E0= -.13497846E+03  d E =-.507751E-03
       N       E                     dE             d eps       ncg     rms          rms(c)
DAV:   1    -0.171568018454E+03    0.65770E-03   -0.74477E-03  7140   0.346E-01    0.155E-02
DAV:   2    -0.171568020285E+03   -0.18313E-05   -0.11636E-04  8796   0.391E-02    0.106E-02
DAV:   3    -0.171568016572E+03    0.37130E-05   -0.68705E-06  4470   0.119E-02
  11 F= -.13497849E+03 E0= -.13497849E+03  d E =-.542658E-03
       N       E                     dE             d eps       ncg     rms          rms(c)
DAV:   1    -0.171572959056E+03   -0.49388E-02   -0.16800E-02  7140   0.535E-01    0.267E-02
DAV:   2    -0.171572963656E+03   -0.46005E-05   -0.21128E-04  8844   0.555E-02    0.178E-02
DAV:   3    -0.171572960896E+03    0.27601E-05   -0.16450E-05  5238   0.168E-02
  12 F= -.13497877E+03 E0= -.13497877E+03  d E =-.272729E-03
       N       E                     dE             d eps       ncg     rms          rms(c)
DAV:   1    -0.171573129943E+03   -0.16629E-03   -0.24010E-05  5844   0.206E-02    0.363E-03
DAV:   2    -0.171573130051E+03   -0.10772E-06   -0.11003E-06  4212   0.457E-03
  13 F= -.13497877E+03 E0= -.13497877E+03  d E =-.273324E-03
       N       E                     dE             d eps       ncg     rms          rms(c)
DAV:   1    -0.171572226280E+03    0.90366E-03   -0.11136E-02  7146   0.410E-01    0.202E-02
DAV:   2    -0.171572219271E+03    0.70090E-05   -0.21879E-04  8526   0.546E-02    0.139E-02
DAV:   3    -0.171572213087E+03    0.61840E-05   -0.17067E-05  5610   0.184E-02
