Al4C3 Pnma (CIF findsym, P21/n21/m21/a) 
   1.00000000000000     
     9.6452939784179659    0.0000000000000000    0.0000000000000000
     0.0000000000000000    3.3139963890629875    0.0000000000000000
     0.0000000000000000    0.0000000000000000   10.1679111777378797
   Al   C 
    16    12
Direct
  0.2664183421485054  0.2500000000000000  0.2666930506079716
  0.7664183421485053  0.2500000000000000  0.2333069493920284
  0.7335816578514947  0.7500000000000000  0.7333069493920286
  0.2335816578514946  0.7500000000000000  0.7666930506079714
  0.4662671593293310  0.2500000000000000  0.8919540609697286
  0.9662671593293312  0.2500000000000000  0.6080459390302714
  0.5337328406706688  0.7500000000000000  0.1080459390302714
  0.0337328406706690  0.7500000000000000  0.3919540609697286
  0.5064237421290546  0.2500000000000000  0.6019582585049265
  0.0064237421290545  0.2500000000000000  0.8980417414950735
  0.4935762578709454  0.7500000000000000  0.3980417414950737
  0.9935762578709454  0.7500000000000000  0.1019582585049263
  0.2395598652878237  0.2500000000000000  0.5606183807979113
  0.7395598652878236  0.2500000000000000  0.9393816192020887
  0.7604401347121764  0.7500000000000000  0.4393816192020887
  0.2604401347121764  0.7500000000000000  0.0606183807979114
  0.3848397625162769  0.2500000000000000  0.4244723271254937
  0.8848397625162769  0.2500000000000000  0.0755276728745064
  0.6151602374837231  0.7500000000000000  0.5755276728745066
  0.1151602374837231  0.7500000000000000  0.9244723271254934
  0.3925134023493055  0.2500000000000000  0.0841753216701344
  0.8925134023493057  0.2500000000000000  0.4158246783298656
  0.6074865976506943  0.7500000000000000  0.9158246783298656
  0.1074865976506944  0.7500000000000000  0.5841753216701344
  0.3474351631140128  0.2500000000000000  0.7340597724561297
  0.8474351631140130  0.2500000000000000  0.7659402275438703
  0.6525648368859870  0.7500000000000000  0.2659402275438702
  0.1525648368859871  0.7500000000000000  0.2340597724561298
 
  0.00000000E+00  0.00000000E+00  0.00000000E+00
  0.00000000E+00  0.00000000E+00  0.00000000E+00
  0.00000000E+00  0.00000000E+00  0.00000000E+00
  0.00000000E+00  0.00000000E+00  0.00000000E+00
  0.00000000E+00  0.00000000E+00  0.00000000E+00
  0.00000000E+00  0.00000000E+00  0.00000000E+00
  0.00000000E+00  0.00000000E+00  0.00000000E+00
  0.00000000E+00  0.00000000E+00  0.00000000E+00
  0.00000000E+00  0.00000000E+00  0.00000000E+00
  0.00000000E+00  0.00000000E+00  0.00000000E+00
  0.00000000E+00  0.00000000E+00  0.00000000E+00
  0.00000000E+00  0.00000000E+00  0.00000000E+00
  0.00000000E+00  0.00000000E+00  0.00000000E+00
  0.00000000E+00  0.00000000E+00  0.00000000E+00
  0.00000000E+00  0.00000000E+00  0.00000000E+00
  0.00000000E+00  0.00000000E+00  0.00000000E+00
  0.00000000E+00  0.00000000E+00  0.00000000E+00
  0.00000000E+00  0.00000000E+00  0.00000000E+00
  0.00000000E+00  0.00000000E+00  0.00000000E+00
  0.00000000E+00  0.00000000E+00  0.00000000E+00
  0.00000000E+00  0.00000000E+00  0.00000000E+00
  0.00000000E+00  0.00000000E+00  0.00000000E+00
  0.00000000E+00  0.00000000E+00  0.00000000E+00
  0.00000000E+00  0.00000000E+00  0.00000000E+00
  0.00000000E+00  0.00000000E+00  0.00000000E+00
  0.00000000E+00  0.00000000E+00  0.00000000E+00
  0.00000000E+00  0.00000000E+00  0.00000000E+00
  0.00000000E+00  0.00000000E+00  0.00000000E+00
