Al4C3 Pnma (CIF findsym, P21/n21/m21/a) 
   1.00000000000000     
     9.6462259125407428    0.0000000000000000    0.0000000000000000
     0.0000000000000000    3.3143165893932878    0.0000000000000000
     0.0000000000000000    0.0000000000000000   10.1688936074497285
   Al   C 
    16    12
Direct
  0.2639266266801176  0.2500000000000000  0.2676602749594482
  0.7639266266801176  0.2500000000000000  0.2323397250405519
  0.7360733733198824  0.7500000000000000  0.7323397250405522
  0.2360733733198823  0.7500000000000000  0.7676602749594478
  0.4687268539840002  0.2500000000000000  0.8920759919682286
  0.9687268539840005  0.2500000000000000  0.6079240080317714
  0.5312731460159995  0.7500000000000000  0.1079240080317714
  0.0312731460159997  0.7500000000000000  0.3920759919682286
  0.5078225993519405  0.2500000000000000  0.6025701765001409
  0.0078225993519406  0.2500000000000000  0.8974298234998591
  0.4921774006480591  0.7500000000000000  0.3974298234998592
  0.9921774006480595  0.7500000000000000  0.1025701765001407
  0.2411836013087971  0.2500000000000000  0.5604956947987035
  0.7411836013087968  0.2500000000000000  0.9395043052012965
  0.7588163986912032  0.7500000000000000  0.4395043052012961
  0.2588163986912030  0.7500000000000000  0.0604956947987039
  0.3845244993992958  0.2500000000000000  0.4241597532719584
  0.8845244993992958  0.2500000000000000  0.0758402467280416
  0.6154755006007042  0.7500000000000000  0.5758402467280418
  0.1154755006007042  0.7500000000000000  0.9241597532719582
  0.3904548614668119  0.2500000000000000  0.0833159421548131
  0.8904548614668119  0.2500000000000000  0.4166840578451869
  0.6095451385331881  0.7500000000000000  0.9166840578451869
  0.1095451385331881  0.7500000000000000  0.5833159421548131
  0.3496892140929185  0.2500000000000000  0.7346054498785340
  0.8496892140929186  0.2500000000000000  0.7653945501214660
  0.6503107859070814  0.7500000000000000  0.2653945501214661
  0.1503107859070814  0.7500000000000000  0.2346054498785340
 
  0.00000000E+00  0.00000000E+00  0.00000000E+00
  0.00000000E+00  0.00000000E+00  0.00000000E+00
  0.00000000E+00  0.00000000E+00  0.00000000E+00
  0.00000000E+00  0.00000000E+00  0.00000000E+00
  0.00000000E+00  0.00000000E+00  0.00000000E+00
  0.00000000E+00  0.00000000E+00  0.00000000E+00
  0.00000000E+00  0.00000000E+00  0.00000000E+00
  0.00000000E+00  0.00000000E+00  0.00000000E+00
  0.00000000E+00  0.00000000E+00  0.00000000E+00
  0.00000000E+00  0.00000000E+00  0.00000000E+00
  0.00000000E+00  0.00000000E+00  0.00000000E+00
  0.00000000E+00  0.00000000E+00  0.00000000E+00
  0.00000000E+00  0.00000000E+00  0.00000000E+00
  0.00000000E+00  0.00000000E+00  0.00000000E+00
  0.00000000E+00  0.00000000E+00  0.00000000E+00
  0.00000000E+00  0.00000000E+00  0.00000000E+00
  0.00000000E+00  0.00000000E+00  0.00000000E+00
  0.00000000E+00  0.00000000E+00  0.00000000E+00
  0.00000000E+00  0.00000000E+00  0.00000000E+00
  0.00000000E+00  0.00000000E+00  0.00000000E+00
  0.00000000E+00  0.00000000E+00  0.00000000E+00
  0.00000000E+00  0.00000000E+00  0.00000000E+00
  0.00000000E+00  0.00000000E+00  0.00000000E+00
  0.00000000E+00  0.00000000E+00  0.00000000E+00
  0.00000000E+00  0.00000000E+00  0.00000000E+00
  0.00000000E+00  0.00000000E+00  0.00000000E+00
  0.00000000E+00  0.00000000E+00  0.00000000E+00
  0.00000000E+00  0.00000000E+00  0.00000000E+00
