       N       E                     dE             d eps       ncg     rms          rms(c)
DAV:   1     0.341456830957E+03    0.34146E+03   -0.46558E+04698880   0.150E+03
DAV:   2    -0.164893522370E+03   -0.50635E+03   -0.47974E+03888912   0.245E+02
DAV:   3    -0.199700244011E+03   -0.34807E+02   -0.34499E+02844784   0.632E+01
DAV:   4    -0.200343288971E+03   -0.64304E+00   -0.64155E+00831400   0.965E+00
DAV:   5    -0.200356215202E+03   -0.12926E-01   -0.12921E-01828880   0.140E+00    0.305E+01
DAV:   6    -0.166180342000E+03    0.34176E+02   -0.10664E+02804856   0.305E+01    0.100E+01
DAV:   7    -0.165418449580E+03    0.76189E+00   -0.96495E+00811392   0.969E+00    0.631E+00
DAV:   8    -0.165292367699E+03    0.12608E+00   -0.70347E-01826120   0.323E+00    0.130E+00
DAV:   9    -0.165267936606E+03    0.24431E-01   -0.15667E-01809416   0.146E+00    0.648E-01
DAV:  10    -0.165263802979E+03    0.41336E-02   -0.40748E-02828424   0.734E-01    0.292E-01
DAV:  11    -0.165264433806E+03   -0.63083E-03   -0.55736E-03810952   0.269E-01    0.209E-01
DAV:  12    -0.165264727716E+03   -0.29391E-03   -0.20169E-03830112   0.134E-01    0.943E-02
DAV:  13    -0.165264539813E+03    0.18790E-03   -0.68032E-04831392   0.103E-01    0.254E-02
DAV:  14    -0.165264545479E+03   -0.56657E-05   -0.18370E-04786752   0.469E-02    0.181E-02
DAV:  15    -0.165264544181E+03    0.12973E-05   -0.44947E-06476704   0.809E-03
   1 F= -.16526454E+03 E0= -.16526454E+03  d E =-.165265E+03
       N       E                     dE             d eps       ncg     rms          rms(c)
DAV:   1    -0.181593934436E+03   -0.16329E+02   -0.40836E+02789856   0.712E+01    0.216E+01
DAV:   2    -0.168732503502E+03    0.12861E+02   -0.41204E+01828864   0.188E+01    0.774E+00
DAV:   3    -0.168225446236E+03    0.50706E+00   -0.60295E+00819304   0.652E+00    0.276E+00
DAV:   4    -0.168049267345E+03    0.17618E+00   -0.12034E+00827064   0.275E+00    0.145E+00
DAV:   5    -0.167992393209E+03    0.56874E-01   -0.41627E-01826536   0.162E+00    0.570E-01
DAV:   6    -0.167983068934E+03    0.93243E-02   -0.32247E-02817536   0.558E-01    0.308E-01
DAV:   7    -0.167982374004E+03    0.69493E-03   -0.52095E-03832464   0.227E-01    0.108E-01
DAV:   8    -0.167982401149E+03   -0.27145E-04   -0.14266E-03955088   0.118E-01    0.341E-02
DAV:   9    -0.167982382857E+03    0.18291E-04   -0.16442E-04953448   0.474E-02    0.240E-02
DAV:  10    -0.167982387815E+03   -0.49574E-05   -0.47914E-05700352   0.209E-02
   2 F= -.16798239E+03 E0= -.16798239E+03  d E =-.271784E+01
       N       E                     dE             d eps       ncg     rms          rms(c)
DAV:   1    -0.176436749220E+03   -0.84544E+01   -0.11064E+02772448   0.429E+01    0.106E+01
DAV:   2    -0.173489413869E+03    0.29473E+01   -0.92912E+00808816   0.910E+00    0.416E+00
DAV:   3    -0.173310150394E+03    0.17926E+00   -0.10963E+00820992   0.310E+00    0.136E+00
DAV:   4    -0.173268014618E+03    0.42136E-01   -0.11495E-01830696   0.979E-01    0.603E-01
DAV:   5    -0.173259823745E+03    0.81909E-02   -0.22667E-02830920   0.425E-01    0.286E-01
DAV:   6    -0.173259042487E+03    0.78126E-03   -0.24103E-03821624   0.156E-01    0.106E-01
DAV:   7    -0.173258954956E+03    0.87531E-04   -0.28880E-04835880   0.693E-02    0.353E-02
DAV:   8    -0.173258964142E+03   -0.91858E-05   -0.17622E-04810152   0.427E-02    0.129E-02
DAV:   9    -0.173258961102E+03    0.30394E-05   -0.84855E-06473640   0.146E-02
   3 F= -.17325896E+03 E0= -.17325896E+03  d E =-.799442E+01
       N       E                     dE             d eps       ncg     rms          rms(c)
DAV:   1    -0.173263098791E+03   -0.41346E-02   -0.36068E-02787192   0.756E-01    0.198E-01
DAV:   2    -0.173262062282E+03    0.10365E-02   -0.31022E-03809064   0.168E-01    0.772E-02
DAV:   3    -0.173262013962E+03    0.48321E-04   -0.39386E-04820648   0.571E-02    0.253E-02
DAV:   4    -0.173262004524E+03    0.94378E-05   -0.45833E-05761984   0.187E-02
   4 F= -.17326200E+03 E0= -.17326200E+03  d E =-.799746E+01
       N       E                     dE             d eps       ncg     rms          rms(c)
DAV:   1    -0.173262200343E+03   -0.18638E-03   -0.25311E-03787712   0.204E-01    0.519E-02
DAV:   2    -0.173262133087E+03    0.67257E-04   -0.20059E-04815696   0.429E-02    0.196E-02
DAV:   3    -0.173262130641E+03    0.24459E-05   -0.24227E-05491640   0.150E-02
   5 F= -.17326213E+03 E0= -.17326213E+03  d E =-.799759E+01
       N       E                     dE             d eps       ncg     rms          rms(c)
DAV:   1    -0.173344556764E+03   -0.82424E-01   -0.41354E+00699248   0.835E+00    0.354E-01
DAV:   2    -0.173347609428E+03   -0.30527E-02   -0.94770E-02855096   0.109E+00    0.260E-01
DAV:   3    -0.173345782225E+03    0.18272E-02   -0.52576E-03829848   0.285E-01    0.140E-01
DAV:   4    -0.173345475530E+03    0.30670E-03   -0.28881E-03837040   0.170E-01    0.467E-02
DAV:   5    -0.173345462839E+03    0.12690E-04   -0.22192E-04882264   0.653E-02    0.275E-02
DAV:   6    -0.173345473037E+03   -0.10198E-04   -0.17281E-04886920   0.452E-02    0.166E-02
DAV:   7    -0.173345468253E+03    0.47847E-05   -0.24901E-05584664   0.205E-02
   6 F= -.17334547E+03 E0= -.17334547E+03  d E =-.833376E-01
       N       E                     dE             d eps       ncg     rms          rms(c)
DAV:   1    -0.173354041678E+03   -0.85686E-02   -0.83671E-01703112   0.376E+00    0.163E-01
DAV:   2    -0.173354668290E+03   -0.62661E-03   -0.19477E-02859408   0.492E-01    0.117E-01
DAV:   3    -0.173354306293E+03    0.36200E-03   -0.10675E-03829896   0.129E-01    0.654E-02
DAV:   4    -0.173354239767E+03    0.66526E-04   -0.62275E-04838184   0.790E-02    0.219E-02
DAV:   5    -0.173354236059E+03    0.37083E-05   -0.45502E-05662928   0.307E-02
   7 F= -.17335424E+03 E0= -.17335424E+03  d E =-.921054E-01
       N       E                     dE             d eps       ncg     rms          rms(c)
DAV:   1    -0.173375241168E+03   -0.21001E-01   -0.30109E+00699120   0.714E+00    0.234E-01
DAV:   2    -0.173376029540E+03   -0.78837E-03   -0.41052E-02844248   0.724E-01    0.179E-01
DAV:   3    -0.173374858930E+03    0.11706E-02   -0.26600E-03843448   0.213E-01    0.761E-02
DAV:   4    -0.173374797099E+03    0.61831E-04   -0.12484E-03836272   0.109E-01    0.294E-02
DAV:   5    -0.173374803411E+03   -0.63116E-05   -0.95353E-05734344   0.343E-02
   8 F= -.17337480E+03 E0= -.17337480E+03  d E =-.205674E-01
       N       E                     dE             d eps       ncg     rms          rms(c)
DAV:   1    -0.173376621593E+03   -0.18245E-02   -0.46348E-01705800   0.281E+00    0.921E-02
DAV:   2    -0.173376758981E+03   -0.13739E-03   -0.63068E-03846440   0.283E-01    0.695E-02
DAV:   3    -0.173376581366E+03    0.17761E-03   -0.39374E-04843368   0.821E-02    0.296E-02
DAV:   4    -0.173376571949E+03    0.94174E-05   -0.19104E-04820688   0.431E-02    0.126E-02
