Al4C3 Pnma (CIF) - relax @ 0 GPa (ISIF=8
           1
     8.992398    0.000000    0.000000
     0.000000    3.089670    0.000000
     0.000000    0.000000    9.479639
   Al   C 
    16    12
Direct configuration=     1
   0.26818336  0.25000000  0.26647675
   0.76818336  0.25000000  0.23352325
   0.73181664  0.75000000  0.73352325
   0.23181664  0.75000000  0.76647675
   0.46568949  0.25000000  0.89163821
   0.96568949  0.25000000  0.60836179
   0.53431051  0.75000000  0.10836179
   0.03431051  0.75000000  0.39163821
   0.50604432  0.25000000  0.60480726
   0.00604432  0.25000000  0.89519274
   0.49395568  0.75000000  0.39519274
   0.99395568  0.75000000  0.10480726
   0.23679010  0.25000000  0.55794005
   0.73679010  0.25000000  0.94205995
   0.76320990  0.75000000  0.44205995
   0.26320990  0.75000000  0.05794005
   0.38469964  0.25000000  0.42533442
   0.88469964  0.25000000  0.07466558
   0.61530036  0.75000000  0.57466558
   0.11530036  0.75000000  0.92533442
   0.39440472  0.25000000  0.08775135
   0.89440472  0.25000000  0.41224865
   0.60559528  0.75000000  0.91224865
   0.10559528  0.75000000  0.58775135
   0.34710766  0.25000000  0.73421836
   0.84710766  0.25000000  0.76578164
   0.65289234  0.75000000  0.26578164
   0.15289234  0.75000000  0.23421836
Al4C3 Pnma (CIF) - relax @ 0 GPa (ISIF=8
           1
    10.267118    0.000000    0.000000
     0.000000    3.527647    0.000000
     0.000000    0.000000   10.823427
   Al   C 
    16    12
Direct configuration=     2
   0.26818169  0.25000000  0.26647239
   0.76818169  0.25000000  0.23352761
   0.73181831  0.75000000  0.73352761
   0.23181831  0.75000000  0.76647239
   0.46568275  0.25000000  0.89163384
   0.96568275  0.25000000  0.60836616
   0.53431725  0.75000000  0.10836616
   0.03431725  0.75000000  0.39163384
   0.50601735  0.25000000  0.60481338
   0.00601735  0.25000000  0.89518662
   0.49398265  0.75000000  0.39518662
   0.99398265  0.75000000  0.10481338
   0.23680580  0.25000000  0.55790455
   0.73680580  0.25000000  0.94209545
   0.76319420  0.75000000  0.44209545
   0.26319420  0.75000000  0.05790455
   0.38472061  0.25000000  0.42531662
   0.88472061  0.25000000  0.07468338
   0.61527939  0.75000000  0.57468338
   0.11527939  0.75000000  0.92531662
   0.39438758  0.25000000  0.08774028
   0.89438758  0.25000000  0.41225972
   0.60561242  0.75000000  0.91225972
   0.10561242  0.75000000  0.58774028
   0.34709120  0.25000000  0.73422161
   0.84709120  0.25000000  0.76577839
   0.65290880  0.75000000  0.26577839
   0.15290880  0.75000000  0.23422161
Al4C3 Pnma (CIF) - relax @ 0 GPa (ISIF=8
           1
     9.648600    0.000000    0.000000
     0.000000    3.315132    0.000000
     0.000000    0.000000   10.171396
   Al   C 
    16    12
Direct configuration=     3
   0.26818240  0.25000000  0.26647424
   0.76818240  0.25000000  0.23352576
   0.73181760  0.75000000  0.73352576
   0.23181760  0.75000000  0.76647424
   0.46568561  0.25000000  0.89163570
   0.96568561  0.25000000  0.60836430
   0.53431439  0.75000000  0.10836430
   0.03431439  0.75000000  0.39163570
   0.50602881  0.25000000  0.60481078
   0.00602881  0.25000000  0.89518922
   0.49397119  0.75000000  0.39518922
   0.99397119  0.75000000  0.10481078
   0.23679913  0.25000000  0.55791964
   0.73679913  0.25000000  0.94208036
   0.76320087  0.75000000  0.44208036
   0.26320087  0.75000000  0.05791964
   0.38471170  0.25000000  0.42532418
   0.88471170  0.25000000  0.07467582
   0.61528830  0.75000000  0.57467582
   0.11528830  0.75000000  0.92532418
   0.39439486  0.25000000  0.08774499
   0.89439486  0.25000000  0.41225501
   0.60560514  0.75000000  0.91225501
   0.10560514  0.75000000  0.58774499
   0.34709820  0.25000000  0.73422023
   0.84709820  0.25000000  0.76577977
   0.65290180  0.75000000  0.26577977
   0.15290180  0.75000000  0.23422023
Al4C3 Pnma (CIF) - relax @ 0 GPa (ISIF=8
           1
     9.637285    0.000000    0.000000
     0.000000    3.311245    0.000000
     0.000000    0.000000   10.159468
   Al   C 
    16    12
Direct configuration=     4
   0.26818242  0.25000000  0.26647428
   0.76818242  0.25000000  0.23352572
   0.73181758  0.75000000  0.73352572
   0.23181758  0.75000000  0.76647428
   0.46568567  0.25000000  0.89163574
   0.96568567  0.25000000  0.60836426
   0.53431433  0.75000000  0.10836426
   0.03431433  0.75000000  0.39163574
   0.50602903  0.25000000  0.60481073
   0.00602903  0.25000000  0.89518927
   0.49397097  0.75000000  0.39518927
   0.99397097  0.75000000  0.10481073
   0.23679900  0.25000000  0.55791993
   0.73679900  0.25000000  0.94208007
   0.76320100  0.75000000  0.44208007
   0.26320100  0.75000000  0.05791993
   0.38471152  0.25000000  0.42532433
   0.88471152  0.25000000  0.07467567
   0.61528848  0.75000000  0.57467567
   0.11528848  0.75000000  0.92532433
   0.39439500  0.25000000  0.08774508
   0.89439500  0.25000000  0.41225492
   0.60560500  0.75000000  0.91225492
   0.10560500  0.75000000  0.58774508
   0.34709833  0.25000000  0.73422020
   0.84709833  0.25000000  0.76577980
   0.65290167  0.75000000  0.26577980
   0.15290167  0.75000000  0.23422020
Al4C3 Pnma (CIF) - relax @ 0 GPa (ISIF=8
           1
     9.634169    0.000000    0.000000
     0.000000    3.310174    0.000000
     0.000000    0.000000   10.156184
   Al   C 
    16    12
Direct configuration=     5
   0.26818242  0.25000000  0.26647429
   0.76818242  0.25000000  0.23352571
   0.73181758  0.75000000  0.73352571
   0.23181758  0.75000000  0.76647429
   0.46568569  0.25000000  0.89163575
   0.96568569  0.25000000  0.60836425
   0.53431431  0.75000000  0.10836425
   0.03431431  0.75000000  0.39163575
   0.50602910  0.25000000  0.60481071
   0.00602910  0.25000000  0.89518929
   0.49397090  0.75000000  0.39518929
   0.99397090  0.75000000  0.10481071
   0.23679896  0.25000000  0.55792002
   0.73679896  0.25000000  0.94207998
   0.76320104  0.75000000  0.44207998
   0.26320104  0.75000000  0.05792002
   0.38471148  0.25000000  0.42532437
   0.88471148  0.25000000  0.07467563
   0.61528852  0.75000000  0.57467563
   0.11528852  0.75000000  0.92532437
   0.39439504  0.25000000  0.08774511
   0.89439504  0.25000000  0.41225489
   0.60560496  0.75000000  0.91225489
   0.10560496  0.75000000  0.58774511
   0.34709837  0.25000000  0.73422019
   0.84709837  0.25000000  0.76577981
   0.65290163  0.75000000  0.26577981
   0.15290163  0.75000000  0.23422019
Al4C3 Pnma (CIF) - relax @ 0 GPa (ISIF=8
           1
     9.639126    0.000000    0.000000
     0.000000    3.311877    0.000000
     0.000000    0.000000   10.161409
   Al   C 
    16    12
Direct configuration=     6
   0.26711580  0.25000000  0.26656825
   0.76711580  0.25000000  0.23343175
   0.73288420  0.75000000  0.73343175
   0.23288420  0.75000000  0.76656825
   0.46554314  0.25000000  0.89162572
   0.96554314  0.25000000  0.60837428
   0.53445686  0.75000000  0.10837428
   0.03445686  0.75000000  0.39162572
   0.50616920  0.25000000  0.60298564
   0.00616920  0.25000000  0.89701436
   0.49383080  0.75000000  0.39701436
   0.99383080  0.75000000  0.10298564
   0.23869831  0.25000000  0.55926535
   0.73869831  0.25000000  0.94073465
   0.76130169  0.75000000  0.44073465
   0.26130169  0.75000000  0.05926535
   0.38465026  0.25000000  0.42485617
   0.88465026  0.25000000  0.07514383
   0.61534974  0.75000000  0.57514383
   0.11534974  0.75000000  0.92485617
   0.39396375  0.25000000  0.08591024
   0.89396375  0.25000000  0.41408976
   0.60603625  0.75000000  0.91408976
   0.10603625  0.75000000  0.58591024
   0.34666832  0.25000000  0.73422719
   0.84666832  0.25000000  0.76577281
   0.65333168  0.75000000  0.26577281
   0.15333168  0.75000000  0.23422719
Al4C3 Pnma (CIF) - relax @ 0 GPa (ISIF=8
           1
     9.641355    0.000000    0.000000
     0.000000    3.312643    0.000000
     0.000000    0.000000   10.163759
   Al   C 
    16    12
Direct configuration=     7
   0.26663627  0.25000000  0.26661050
   0.76663627  0.25000000  0.23338950
   0.73336373  0.75000000  0.73338950
   0.23336373  0.75000000  0.76661050
   0.46547905  0.25000000  0.89162121
   0.96547905  0.25000000  0.60837879
   0.53452095  0.75000000  0.10837879
   0.03452095  0.75000000  0.39162121
   0.50623219  0.25000000  0.60216511
   0.00623219  0.25000000  0.89783489
   0.49376781  0.75000000  0.39783489
   0.99376781  0.75000000  0.10216511
   0.23955222  0.25000000  0.55987020
   0.73955222  0.25000000  0.94012980
   0.76044778  0.75000000  0.44012980
   0.26044778  0.75000000  0.05987020
   0.38462274  0.25000000  0.42464568
   0.88462274  0.25000000  0.07535432
   0.61537726  0.75000000  0.57535432
   0.11537726  0.75000000  0.92464568
   0.39376984  0.25000000  0.08508531
   0.89376984  0.25000000  0.41491469
   0.60623016  0.75000000  0.91491469
   0.10623016  0.75000000  0.58508531
   0.34647498  0.25000000  0.73423033
   0.84647498  0.25000000  0.76576967
   0.65352502  0.75000000  0.26576967
   0.15352502  0.75000000  0.23423033
Al4C3 Pnma (CIF) - relax @ 0 GPa (ISIF=8
           1
     9.645294    0.000000    0.000000
     0.000000    3.313996    0.000000
     0.000000    0.000000   10.167911
   Al   C 
    16    12
Direct configuration=     8
   0.26641834  0.25000000  0.26669305
   0.76641834  0.25000000  0.23330695
   0.73358166  0.75000000  0.73330695
   0.23358166  0.75000000  0.76669305
   0.46626716  0.25000000  0.89195406
   0.96626716  0.25000000  0.60804594
   0.53373284  0.75000000  0.10804594
   0.03373284  0.75000000  0.39195406
   0.50642374  0.25000000  0.60195826
   0.00642374  0.25000000  0.89804174
   0.49357626  0.75000000  0.39804174
   0.99357626  0.75000000  0.10195826
   0.23955987  0.25000000  0.56061838
   0.73955987  0.25000000  0.93938162
   0.76044013  0.75000000  0.43938162
   0.26044013  0.75000000  0.06061838
   0.38483976  0.25000000  0.42447233
   0.88483976  0.25000000  0.07552767
   0.61516024  0.75000000  0.57552767
   0.11516024  0.75000000  0.92447233
   0.39251340  0.25000000  0.08417532
   0.89251340  0.25000000  0.41582468
   0.60748660  0.75000000  0.91582468
   0.10748660  0.75000000  0.58417532
   0.34743516  0.25000000  0.73405977
   0.84743516  0.25000000  0.76594023
   0.65256484  0.75000000  0.26594023
   0.15256484  0.75000000  0.23405977
Al4C3 Pnma (CIF) - relax @ 0 GPa (ISIF=8
           1
     9.646839    0.000000    0.000000
     0.000000    3.314527    0.000000
     0.000000    0.000000   10.169540
   Al   C 
    16    12
Direct configuration=     9
   0.26633289  0.25000000  0.26672542
   0.76633289  0.25000000  0.23327458
   0.73366711  0.75000000  0.73327458
   0.23366711  0.75000000  0.76672542
   0.46657618  0.25000000  0.89208457
   0.96657618  0.25000000  0.60791543
   0.53342382  0.75000000  0.10791543
   0.03342382  0.75000000  0.39208457
   0.50649885  0.25000000  0.60187715
   0.00649885  0.25000000  0.89812285
   0.49350115  0.75000000  0.39812285
   0.99350115  0.75000000  0.10187715
   0.23956286  0.25000000  0.56091175
   0.73956286  0.25000000  0.93908825
   0.76043714  0.75000000  0.43908825
   0.26043714  0.75000000  0.06091175
   0.38492486  0.25000000  0.42440435
   0.88492486  0.25000000  0.07559565
   0.61507514  0.75000000  0.57559565
   0.11507514  0.75000000  0.92440435
   0.39202074  0.25000000  0.08381851
   0.89202074  0.25000000  0.41618149
   0.60797926  0.75000000  0.91618149
   0.10797926  0.75000000  0.58381851
   0.34781166  0.25000000  0.73399289
   0.84781166  0.25000000  0.76600711
   0.65218834  0.75000000  0.26600711
   0.15218834  0.75000000  0.23399289
Al4C3 Pnma (CIF) - relax @ 0 GPa (ISIF=8
           1
     9.645100    0.000000    0.000000
     0.000000    3.313930    0.000000
     0.000000    0.000000   10.167707
   Al   C 
    16    12
Direct configuration=    10
   0.26584865  0.25000000  0.26721703
   0.76584865  0.25000000  0.23278297
   0.73415135  0.75000000  0.73278297
   0.23415135  0.75000000  0.76721703
   0.46720832  0.25000000  0.89196737
   0.96720832  0.25000000  0.60803263
   0.53279168  0.75000000  0.10803263
   0.03279168  0.75000000  0.39196737
   0.50680861  0.25000000  0.60204151
   0.00680861  0.25000000  0.89795849
   0.49319139  0.75000000  0.39795849
   0.99319139  0.75000000  0.10204151
   0.24027363  0.25000000  0.56058984
   0.74027363  0.25000000  0.93941016
   0.75972637  0.75000000  0.43941016
   0.25972637  0.75000000  0.06058984
   0.38458752  0.25000000  0.42450917
   0.88458752  0.25000000  0.07549083
   0.61541248  0.75000000  0.57549083
   0.11541248  0.75000000  0.92450917
   0.39109523  0.25000000  0.08335896
   0.89109523  0.25000000  0.41664104
   0.60890477  0.75000000  0.91664104
   0.10890477  0.75000000  0.58335896
   0.34877235  0.25000000  0.73429967
   0.84877235  0.25000000  0.76570033
   0.65122765  0.75000000  0.26570033
   0.15122765  0.75000000  0.23429967
Al4C3 Pnma (CIF) - relax @ 0 GPa (ISIF=8
           1
     9.644516    0.000000    0.000000
     0.000000    3.313729    0.000000
     0.000000    0.000000   10.167091
   Al   C 
    16    12
Direct configuration=    11
   0.26568604  0.25000000  0.26738212
   0.76568604  0.25000000  0.23261788
   0.73431396  0.75000000  0.73261788
   0.23431396  0.75000000  0.76738212
   0.46742060  0.25000000  0.89192802
   0.96742060  0.25000000  0.60807198
   0.53257940  0.75000000  0.10807198
   0.03257940  0.75000000  0.39192802
   0.50691264  0.25000000  0.60209670
   0.00691264  0.25000000  0.89790330
   0.49308736  0.75000000  0.39790330
   0.99308736  0.75000000  0.10209670
   0.24051231  0.25000000  0.56048174
   0.74051231  0.25000000  0.93951826
   0.75948769  0.75000000  0.43951826
   0.25948769  0.75000000  0.06048174
   0.38447424  0.25000000  0.42454436
   0.88447424  0.25000000  0.07545564
   0.61552576  0.75000000  0.57545564
   0.11552576  0.75000000  0.92454436
   0.39078443  0.25000000  0.08320464
   0.89078443  0.25000000  0.41679536
   0.60921557  0.75000000  0.91679536
   0.10921557  0.75000000  0.58320464
   0.34909496  0.25000000  0.73440268
   0.84909496  0.25000000  0.76559732
   0.65090504  0.75000000  0.26559732
   0.15090504  0.75000000  0.23440268
Al4C3 Pnma (CIF) - relax @ 0 GPa (ISIF=8
           1
     9.645282    0.000000    0.000000
     0.000000    3.313992    0.000000
     0.000000    0.000000   10.167899
   Al   C 
    16    12
Direct configuration=    12
   0.26476965  0.25000000  0.26744594
   0.76476965  0.25000000  0.23255406
   0.73523035  0.75000000  0.73255406
   0.23523035  0.75000000  0.76744594
   0.46815588  0.25000000  0.89201177
   0.96815588  0.25000000  0.60798823
   0.53184412  0.75000000  0.10798823
   0.03184412  0.75000000  0.39201177
   0.50740427  0.25000000  0.60236901
   0.00740427  0.25000000  0.89763099
   0.49259573  0.75000000  0.39763099
   0.99259573  0.75000000  0.10236901
   0.24088843  0.25000000  0.56035141
   0.74088843  0.25000000  0.93964859
   0.75911157  0.75000000  0.43964859
   0.25911157  0.75000000  0.06035141
   0.38467101  0.25000000  0.42450562
   0.88467101  0.25000000  0.07549438
   0.61532899  0.75000000  0.57549438
   0.11532899  0.75000000  0.92450562
   0.39046456  0.25000000  0.08323526
   0.89046456  0.25000000  0.41676474
   0.60953544  0.75000000  0.91676474
   0.10953544  0.75000000  0.58323526
   0.34919763  0.25000000  0.73459713
   0.84919763  0.25000000  0.76540287
   0.65080237  0.75000000  0.26540287
   0.15080237  0.75000000  0.23459713
Al4C3 Pnma (CIF) - relax @ 0 GPa (ISIF=8
           1
     9.645599    0.000000    0.000000
     0.000000    3.314101    0.000000
     0.000000    0.000000   10.168233
   Al   C 
    16    12
Direct configuration=    13
   0.26439087  0.25000000  0.26747232
   0.76439087  0.25000000  0.23252768
   0.73560913  0.75000000  0.73252768
   0.23560913  0.75000000  0.76747232
   0.46845979  0.25000000  0.89204639
   0.96845979  0.25000000  0.60795361
   0.53154021  0.75000000  0.10795361
   0.03154021  0.75000000  0.39204639
   0.50760748  0.25000000  0.60248156
   0.00760748  0.25000000  0.89751844
   0.49239252  0.75000000  0.39751844
   0.99239252  0.75000000  0.10248156
   0.24104389  0.25000000  0.56029754
   0.74104389  0.25000000  0.93970246
   0.75895611  0.75000000  0.43970246
   0.25895611  0.75000000  0.06029754
   0.38475234  0.25000000  0.42448960
   0.88475234  0.25000000  0.07551040
   0.61524766  0.75000000  0.57551040
   0.11524766  0.75000000  0.92448960
   0.39033235  0.25000000  0.08324791
   0.89033235  0.25000000  0.41675209
   0.60966765  0.75000000  0.91675209
   0.10966765  0.75000000  0.58324791
   0.34924007  0.25000000  0.73467751
   0.84924007  0.25000000  0.76532249
   0.65075993  0.75000000  0.26532249
   0.15075993  0.75000000  0.23467751
Al4C3 Pnma (CIF) - relax @ 0 GPa (ISIF=8
           1
     9.646364    0.000000    0.000000
     0.000000    3.314364    0.000000
     0.000000    0.000000   10.169040
   Al   C 
    16    12
Direct configuration=    14
   0.26409962  0.25000000  0.26767965
   0.76409962  0.25000000  0.23232035
   0.73590038  0.75000000  0.73232035
   0.23590038  0.75000000  0.76767965
   0.46873220  0.25000000  0.89205824
   0.96873220  0.25000000  0.60794176
   0.53126780  0.75000000  0.10794176
   0.03126780  0.75000000  0.39205824
   0.50774457  0.25000000  0.60261466
   0.00774457  0.25000000  0.89738534
   0.49225543  0.75000000  0.39738534
   0.99225543  0.75000000  0.10261466
   0.24118841  0.25000000  0.56038502
   0.74118841  0.25000000  0.93961498
   0.75881159  0.75000000  0.43961498
   0.25881159  0.75000000  0.06038502
   0.38465524  0.25000000  0.42407917
   0.88465524  0.25000000  0.07592083
   0.61534476  0.75000000  0.57592083
   0.11534476  0.75000000  0.92407917
   0.39042352  0.25000000  0.08329864
   0.89042352  0.25000000  0.41670136
   0.60957648  0.75000000  0.91670136
   0.10957648  0.75000000  0.58329864
   0.34948418  0.25000000  0.73470127
   0.84948418  0.25000000  0.76529873
   0.65051582  0.75000000  0.26529873
   0.15051582  0.75000000  0.23470127
Al4C3 Pnma (CIF) - relax @ 0 GPa (ISIF=8
           1
     9.646343    0.000000    0.000000
     0.000000    3.314357    0.000000
     0.000000    0.000000   10.169017
   Al   C 
    16    12
Direct configuration=    15
   0.26410780  0.25000000  0.26767383
   0.76410780  0.25000000  0.23232617
   0.73589220  0.75000000  0.73232617
   0.23589220  0.75000000  0.76767383
   0.46872455  0.25000000  0.89205791
   0.96872455  0.25000000  0.60794209
   0.53127545  0.75000000  0.10794209
   0.03127545  0.75000000  0.39205791
   0.50774072  0.25000000  0.60261093
   0.00774072  0.25000000  0.89738907
   0.49225928  0.75000000  0.39738907
   0.99225928  0.75000000  0.10261093
   0.24118435  0.25000000  0.56038257
   0.74118435  0.25000000  0.93961743
   0.75881565  0.75000000  0.43961743
   0.25881565  0.75000000  0.06038257
   0.38465797  0.25000000  0.42409070
   0.88465797  0.25000000  0.07590930
   0.61534203  0.75000000  0.57590930
   0.11534203  0.75000000  0.92409070
   0.39042095  0.25000000  0.08329722
   0.89042095  0.25000000  0.41670278
   0.60957905  0.75000000  0.91670278
   0.10957905  0.75000000  0.58329722
   0.34947733  0.25000000  0.73470060
   0.84947733  0.25000000  0.76529940
   0.65052267  0.75000000  0.26529940
   0.15052267  0.75000000  0.23470060
Al4C3 Pnma (CIF) - relax @ 0 GPa (ISIF=8
           1
     9.645609    0.000000    0.000000
     0.000000    3.314105    0.000000
     0.000000    0.000000   10.168244
   Al   C 
    16    12
Direct configuration=    16
   0.26399670  0.25000000  0.26765356
   0.76399670  0.25000000  0.23234644
   0.73600330  0.75000000  0.73234644
   0.23600330  0.75000000  0.76765356
   0.46873654  0.25000000  0.89206308
   0.96873654  0.25000000  0.60793692
   0.53126346  0.75000000  0.10793692
   0.03126346  0.75000000  0.39206308
   0.50774206  0.25000000  0.60262395
   0.00774206  0.25000000  0.89737605
   0.49225794  0.75000000  0.39737605
   0.99225794  0.75000000  0.10262395
   0.24121089  0.25000000  0.56046281
   0.74121089  0.25000000  0.93953719
   0.75878911  0.75000000  0.43953719
   0.25878911  0.75000000  0.06046281
   0.38459196  0.25000000  0.42412232
   0.88459196  0.25000000  0.07587768
   0.61540804  0.75000000  0.57587768
   0.11540804  0.75000000  0.92412232
   0.39045599  0.25000000  0.08329647
   0.89045599  0.25000000  0.41670353
   0.60954401  0.75000000  0.91670353
   0.10954401  0.75000000  0.58329647
   0.34962028  0.25000000  0.73463270
   0.84962028  0.25000000  0.76536730
   0.65037972  0.75000000  0.26536730
   0.15037972  0.75000000  0.23463270
Al4C3 Pnma (CIF) - relax @ 0 GPa (ISIF=8
           1
     9.645542    0.000000    0.000000
     0.000000    3.314082    0.000000
     0.000000    0.000000   10.168173
   Al   C 
    16    12
Direct configuration=    17
   0.26398647  0.25000000  0.26765169
   0.76398647  0.25000000  0.23234831
   0.73601353  0.75000000  0.73234831
   0.23601353  0.75000000  0.76765169
   0.46873765  0.25000000  0.89206355
   0.96873765  0.25000000  0.60793645
   0.53126235  0.75000000  0.10793645
   0.03126235  0.75000000  0.39206355
   0.50774218  0.25000000  0.60262515
   0.00774218  0.25000000  0.89737485
   0.49225782  0.75000000  0.39737485
   0.99225782  0.75000000  0.10262515
   0.24121334  0.25000000  0.56047020
   0.74121334  0.25000000  0.93952980
   0.75878666  0.75000000  0.43952980
   0.25878666  0.75000000  0.06047020
   0.38458588  0.25000000  0.42412523
   0.88458588  0.25000000  0.07587477
   0.61541412  0.75000000  0.57587477
   0.11541412  0.75000000  0.92412523
   0.39045922  0.25000000  0.08329640
   0.89045922  0.25000000  0.41670360
   0.60954078  0.75000000  0.91670360
   0.10954078  0.75000000  0.58329640
   0.34963344  0.25000000  0.73462645
   0.84963344  0.25000000  0.76537355
   0.65036656  0.75000000  0.26537355
   0.15036656  0.75000000  0.23462645
Al4C3 Pnma (CIF) - relax @ 0 GPa (ISIF=8
           1
     9.646226    0.000000    0.000000
     0.000000    3.314317    0.000000
     0.000000    0.000000   10.168894
   Al   C 
    16    12
Direct configuration=    18
   0.26392663  0.25000000  0.26766027
   0.76392663  0.25000000  0.23233973
   0.73607337  0.75000000  0.73233973
   0.23607337  0.75000000  0.76766027
   0.46872685  0.25000000  0.89207599
   0.96872685  0.25000000  0.60792401
   0.53127315  0.75000000  0.10792401
   0.03127315  0.75000000  0.39207599
   0.50782260  0.25000000  0.60257018
   0.00782260  0.25000000  0.89742982
   0.49217740  0.75000000  0.39742982
   0.99217740  0.75000000  0.10257018
   0.24118360  0.25000000  0.56049569
   0.74118360  0.25000000  0.93950431
   0.75881640  0.75000000  0.43950431
   0.25881640  0.75000000  0.06049569
   0.38452450  0.25000000  0.42415975
   0.88452450  0.25000000  0.07584025
   0.61547550  0.75000000  0.57584025
   0.11547550  0.75000000  0.92415975
   0.39045486  0.25000000  0.08331594
   0.89045486  0.25000000  0.41668406
   0.60954514  0.75000000  0.91668406
   0.10954514  0.75000000  0.58331594
   0.34968921  0.25000000  0.73460545
   0.84968921  0.25000000  0.76539455
   0.65031079  0.75000000  0.26539455
   0.15031079  0.75000000  0.23460545
