Al4C3 R-3m polymorph (findsym-output, fr
   1.00000000000000     
     3.2757383302507872    0.0000000000000000    0.0000000000000000
    -1.6378691651253936    2.8368726101840300    0.0000000000000000
     0.0000000000000000    0.0000000000000000   24.4894328116773821
   Al   C 
    12     9
Direct
 -0.0000000000000000 -0.0000000000000000  0.6300638204076111
 -0.0000000000000000  0.0000000000000000  0.3699361795923886
  0.6666666870000029  0.3333333429999996  0.9633971334076082
  0.6666666870000029  0.3333333429999996  0.7032694935923897
  0.3333333429999996  0.6666666870000029  0.2967304764076081
  0.3333333429999996  0.6666666870000029  0.0366028475923935
 -0.0000000000000000 -0.0000000000000000  0.2063562183294146
 -0.0000000000000000  0.0000000000000000  0.7936437816705852
  0.6666666870000029  0.3333333429999996  0.5396895323294155
  0.6666666870000029  0.3333333429999996  0.1269771096705873
  0.3333333429999996  0.6666666870000029  0.8730229053294176
  0.3333333429999996  0.6666666870000029  0.4603104376705822
 -0.0000000000000000 -0.0000000000000000  0.7167550058277207
  0.0000000000000000 -0.0000000000000000  0.2832449941722792
  0.6666666870000029  0.3333333429999996  0.0500883378277230
  0.6666666870000029  0.3333333429999996  0.6165783071722765
  0.3333333429999996  0.6666666870000029  0.3834216628277212
  0.3333333429999996  0.6666666870000029  0.9499116811722751
 -0.0000000000000000 -0.0000000000000000  0.5000000000000000
  0.6666666870000029  0.3333333429999996  0.8333333129999971
  0.3333333429999996  0.6666666870000029  0.1666666719999981
 
  0.00000000E+00  0.00000000E+00  0.00000000E+00
  0.00000000E+00  0.00000000E+00  0.00000000E+00
  0.00000000E+00  0.00000000E+00  0.00000000E+00
  0.00000000E+00  0.00000000E+00  0.00000000E+00
  0.00000000E+00  0.00000000E+00  0.00000000E+00
  0.00000000E+00  0.00000000E+00  0.00000000E+00
  0.00000000E+00  0.00000000E+00  0.00000000E+00
  0.00000000E+00  0.00000000E+00  0.00000000E+00
  0.00000000E+00  0.00000000E+00  0.00000000E+00
  0.00000000E+00  0.00000000E+00  0.00000000E+00
  0.00000000E+00  0.00000000E+00  0.00000000E+00
  0.00000000E+00  0.00000000E+00  0.00000000E+00
  0.00000000E+00  0.00000000E+00  0.00000000E+00
  0.00000000E+00  0.00000000E+00  0.00000000E+00
  0.00000000E+00  0.00000000E+00  0.00000000E+00
  0.00000000E+00  0.00000000E+00  0.00000000E+00
  0.00000000E+00  0.00000000E+00  0.00000000E+00
  0.00000000E+00  0.00000000E+00  0.00000000E+00
  0.00000000E+00  0.00000000E+00  0.00000000E+00
  0.00000000E+00  0.00000000E+00  0.00000000E+00
  0.00000000E+00  0.00000000E+00  0.00000000E+00
