  21  21   0   0
  0.1101069E+02  0.3293148E-09  0.3293148E-09  0.2461959E-08  0.5000000E-15
  1.000000000000000E-004
  CAR 
 Al4C3 R-3m - r2SCAN H(P) scan @ 10 GPa (
     16.26719052     -8.01318191  301      8.17879146      1.00000000
     -8.013  0.0000E+00  0.0000E+00
     -7.932  0.0000E+00  0.0000E+00
     -7.851  0.0000E+00  0.0000E+00
     -7.770  0.0000E+00  0.0000E+00
     -7.689  0.0000E+00  0.0000E+00
     -7.609  0.0000E+00  0.0000E+00
     -7.528  0.0000E+00  0.0000E+00
     -7.447  0.0000E+00  0.0000E+00
     -7.366  0.0000E+00  0.0000E+00
     -7.285  0.0000E+00  0.0000E+00
     -7.204  0.2382E-19  0.1927E-20
     -7.123  0.3413E-12  0.2762E-13
     -7.042  0.3919E-07  0.3171E-08
     -6.961  0.3607E-04  0.2922E-05
     -6.880  0.6932E-03  0.5902E-04
     -6.799  0.2946E-02  0.2974E-03
     -6.718  0.6179E-02  0.7975E-03
     -6.637  0.5194E-02  0.1218E-02
     -6.556  0.7100E-02  0.1793E-02
     -6.475  0.7497E-02  0.2399E-02
     -6.394  0.9942E-02  0.3204E-02
     -6.314  0.6389E-02  0.3721E-02
     -6.233  0.2950E-02  0.3960E-02
     -6.152  0.6841E-02  0.4513E-02
     -6.071  0.1064E-01  0.5374E-02
     -5.990  0.1250E-01  0.6386E-02
     -5.909  0.1182E-01  0.7343E-02
     -5.828  0.9407E-02  0.8104E-02
     -5.747  0.6671E-02  0.8644E-02
     -5.666  0.9245E-02  0.9392E-02
     -5.585  0.1677E-01  0.1075E-01
     -5.504  0.2066E-01  0.1242E-01
     -5.423  0.1924E-01  0.1398E-01
     -5.342  0.1488E-01  0.1518E-01
     -5.261  0.1824E-01  0.1666E-01
     -5.180  0.1132E-01  0.1758E-01
     -5.100  0.9452E-02  0.1834E-01
     -5.019  0.1491E-01  0.1955E-01
     -4.938  0.1716E-01  0.2094E-01
     -4.857  0.2657E-01  0.2309E-01
     -4.776  0.2682E-01  0.2526E-01
     -4.695  0.2005E-01  0.2688E-01
     -4.614  0.9000E-02  0.2761E-01
     -4.533  0.1399E-01  0.2874E-01
     -4.452  0.1803E-01  0.3020E-01
     -4.371  0.1394E-01  0.3133E-01
     -4.290  0.2430E-01  0.3330E-01
     -4.209  0.3838E-01  0.3640E-01
     -4.128  0.3723E-01  0.3941E-01
     -4.047  0.3074E-01  0.4190E-01
     -3.966  0.1952E-01  0.4348E-01
     -3.886  0.2311E-01  0.4535E-01
     -3.805  0.2717E-01  0.4755E-01
     -3.724  0.4487E-01  0.5118E-01
     -3.643  0.3702E-01  0.5418E-01
     -3.562  0.3511E-01  0.5702E-01
     -3.481  0.3670E-01  0.5999E-01
     -3.400  0.2518E-01  0.6203E-01
     -3.319  0.2128E-01  0.6375E-01
     -3.238  0.3163E-01  0.6631E-01
     -3.157  0.3106E-01  0.6883E-01
     -3.076  0.9509E-02  0.6960E-01
     -2.995  0.2153E-01  0.7134E-01
     -2.914  0.4202E-01  0.7474E-01
     -2.833  0.5261E-01  0.7900E-01
     -2.752  0.8431E-01  0.8582E-01
     -2.671  0.4409E-01  0.8939E-01
     -2.591  0.7399E-02  0.8999E-01
     -2.510  0.1560E-03  0.9000E-01
     -2.429  0.8844E-07  0.9000E-01
     -2.348  0.4388E-12  0.9000E-01
     -2.267  0.0000E+00  0.9000E-01
     -2.186  0.0000E+00  0.9000E-01
     -2.105  0.0000E+00  0.9000E-01
     -2.024  0.0000E+00  0.9000E-01
     -1.943  0.0000E+00  0.9000E-01
     -1.862  0.0000E+00  0.9000E-01
     -1.781  0.0000E+00  0.9000E-01
     -1.700  0.0000E+00  0.9000E-01
     -1.619  0.0000E+00  0.9000E-01
     -1.538  0.0000E+00  0.9000E-01
     -1.457  0.0000E+00  0.9000E-01
     -1.377  0.0000E+00  0.9000E-01
     -1.296  0.0000E+00  0.9000E-01
     -1.215  0.0000E+00  0.9000E-01
     -1.134  0.0000E+00  0.9000E-01
     -1.053  0.0000E+00  0.9000E-01
     -0.972  0.0000E+00  0.9000E-01
     -0.891  0.0000E+00  0.9000E-01
     -0.810  0.0000E+00  0.9000E-01
     -0.729  0.0000E+00  0.9000E-01
     -0.648  0.0000E+00  0.9000E-01
     -0.567  0.0000E+00  0.9000E-01
     -0.486  0.1352E-13  0.9000E-01
     -0.405  0.6667E-08  0.9000E-01
     -0.324  0.2223E-04  0.9000E-01
     -0.243  0.9436E-03  0.9008E-01
     -0.163  0.2487E-02  0.9028E-01
     -0.082  0.3013E-02  0.9052E-01
     -0.001  0.1052E-01  0.9138E-01
      0.080  0.1067E-01  0.9224E-01
      0.161  0.1425E-01  0.9339E-01
      0.242  0.1359E-01  0.9449E-01
      0.323  0.7959E-02  0.9514E-01
      0.404  0.6474E-02  0.9566E-01
      0.485  0.8612E-02  0.9636E-01
      0.566  0.1723E-01  0.9775E-01
      0.647  0.3145E-01  0.1003E+00
      0.728  0.1992E-01  0.1019E+00
      0.809  0.1362E-01  0.1030E+00
      0.890  0.1285E-01  0.1041E+00
      0.971  0.1858E-01  0.1056E+00
      1.051  0.1468E-01  0.1067E+00
      1.132  0.1034E-01  0.1076E+00
      1.213  0.8871E-02  0.1083E+00
      1.294  0.1640E-01  0.1096E+00
      1.375  0.1789E-01  0.1111E+00
      1.456  0.3120E-01  0.1136E+00
      1.537  0.2310E-01  0.1155E+00
      1.618  0.2570E-01  0.1175E+00
      1.699  0.2448E-01  0.1195E+00
      1.780  0.4145E-01  0.1229E+00
      1.861  0.4396E-01  0.1264E+00
      1.942  0.3695E-01  0.1294E+00
      2.023  0.2397E-01  0.1314E+00
      2.104  0.2702E-01  0.1336E+00
      2.185  0.3846E-01  0.1367E+00
      2.266  0.3910E-01  0.1398E+00
      2.346  0.3234E-01  0.1425E+00
      2.427  0.2688E-01  0.1446E+00
      2.508  0.3300E-01  0.1473E+00
      2.589  0.3891E-01  0.1504E+00
      2.670  0.4364E-01  0.1540E+00
      2.751  0.4485E-01  0.1576E+00
      2.832  0.3665E-01  0.1606E+00
      2.913  0.3559E-01  0.1635E+00
      2.994  0.1993E-01  0.1651E+00
      3.075  0.3034E-01  0.1675E+00
      3.156  0.4332E-01  0.1710E+00
      3.237  0.4892E-01  0.1750E+00
      3.318  0.4250E-01  0.1784E+00
      3.399  0.3353E-01  0.1811E+00
      3.480  0.3316E-01  0.1838E+00
      3.560  0.2904E-01  0.1862E+00
      3.641  0.3277E-01  0.1888E+00
      3.722  0.2232E-01  0.1906E+00
      3.803  0.2426E-01  0.1926E+00
      3.884  0.2425E-01  0.1946E+00
      3.965  0.3174E-01  0.1971E+00
      4.046  0.3632E-01  0.2001E+00
      4.127  0.4528E-01  0.2037E+00
      4.208  0.3643E-01  0.2067E+00
      4.289  0.3871E-01  0.2098E+00
      4.370  0.2514E-01  0.2119E+00
      4.451  0.3492E-01  0.2147E+00
      4.532  0.4535E-01  0.2183E+00
      4.613  0.3469E-01  0.2212E+00
      4.694  0.1845E-01  0.2226E+00
      4.774  0.2880E-01  0.2250E+00
      4.855  0.4652E-01  0.2287E+00
      4.936  0.5126E-01  0.2329E+00
      5.017  0.5769E-01  0.2376E+00
      5.098  0.6000E-01  0.2424E+00
      5.179  0.3201E-01  0.2450E+00
      5.260  0.2288E-01  0.2469E+00
      5.341  0.2346E-01  0.2488E+00
      5.422  0.5516E-01  0.2532E+00
      5.503  0.5603E-01  0.2578E+00
      5.584  0.4207E-01  0.2612E+00
      5.665  0.3734E-01  0.2642E+00
      5.746  0.4758E-01  0.2680E+00
      5.827  0.5247E-01  0.2723E+00
      5.908  0.7730E-01  0.2785E+00
      5.988  0.7067E-01  0.2843E+00
      6.069  0.4721E-01  0.2881E+00
      6.150  0.5504E-01  0.2925E+00
      6.231  0.5326E-01  0.2968E+00
      6.312  0.5062E-01  0.3009E+00
      6.393  0.7004E-01  0.3066E+00
      6.474  0.5991E-01  0.3115E+00
      6.555  0.5178E-01  0.3157E+00
      6.636  0.4396E-01  0.3192E+00
      6.717  0.4087E-01  0.3225E+00
      6.798  0.4722E-01  0.3263E+00
      6.879  0.5658E-01  0.3309E+00
      6.960  0.5704E-01  0.3355E+00
      7.041  0.4848E-01  0.3395E+00
      7.122  0.3810E-01  0.3425E+00
      7.203  0.3540E-01  0.3454E+00
      7.283  0.3584E-01  0.3483E+00
      7.364  0.2001E-01  0.3499E+00
      7.445  0.2989E-01  0.3523E+00
      7.526  0.2172E-01  0.3541E+00
      7.607  0.1834E-01  0.3556E+00
      7.688  0.1724E-01  0.3570E+00
      7.769  0.1400E-01  0.3581E+00
      7.850  0.1197E-01  0.3591E+00
      7.931  0.1036E-01  0.3599E+00
      8.012  0.9262E-03  0.3600E+00
      8.093  0.2525E-05  0.3600E+00
      8.174  0.8845E-10  0.3600E+00
      8.255  0.2420E-16  0.3600E+00
      8.336  0.0000E+00  0.3600E+00
      8.417  0.0000E+00  0.3600E+00
      8.497  0.0000E+00  0.3600E+00
      8.578  0.0000E+00  0.3600E+00
      8.659  0.0000E+00  0.3600E+00
      8.740  0.0000E+00  0.3600E+00
      8.821  0.0000E+00  0.3600E+00
      8.902  0.0000E+00  0.3600E+00
      8.983  0.0000E+00  0.3600E+00
      9.064  0.0000E+00  0.3600E+00
      9.145  0.0000E+00  0.3600E+00
      9.226  0.0000E+00  0.3600E+00
      9.307  0.4787E-17  0.3600E+00
      9.388  0.2615E-10  0.3600E+00
      9.469  0.8881E-06  0.3600E+00
      9.550  0.2380E-03  0.3600E+00
      9.631  0.1681E-02  0.3602E+00
      9.711  0.3293E-02  0.3604E+00
      9.792  0.3716E-02  0.3607E+00
      9.873  0.6987E-02  0.3613E+00
      9.954  0.5731E-02  0.3618E+00
     10.035  0.2240E-02  0.3619E+00
     10.116  0.7912E-02  0.3626E+00
     10.197  0.1191E-01  0.3635E+00
     10.278  0.9383E-02  0.3643E+00
     10.359  0.3670E-02  0.3646E+00
     10.440  0.7608E-02  0.3652E+00
     10.521  0.1494E-01  0.3664E+00
     10.602  0.1133E-01  0.3673E+00
     10.683  0.1918E-01  0.3689E+00
     10.764  0.1702E-01  0.3703E+00
     10.845  0.2524E-01  0.3723E+00
     10.926  0.1190E-01  0.3733E+00
     11.006  0.1392E-01  0.3744E+00
     11.087  0.1202E-01  0.3754E+00
     11.168  0.9294E-02  0.3761E+00
     11.249  0.2416E-01  0.3781E+00
     11.330  0.2091E-01  0.3798E+00
     11.411  0.2923E-01  0.3821E+00
     11.492  0.2088E-01  0.3838E+00
     11.573  0.1094E-01  0.3847E+00
     11.654  0.1334E-01  0.3858E+00
     11.735  0.2413E-01  0.3877E+00
     11.816  0.1913E-01  0.3893E+00
     11.897  0.2020E-01  0.3909E+00
     11.978  0.2208E-01  0.3927E+00
     12.059  0.2428E-01  0.3947E+00
     12.140  0.4829E-01  0.3986E+00
     12.220  0.4981E-01  0.4026E+00
     12.301  0.6341E-01  0.4078E+00
     12.382  0.3416E-01  0.4105E+00
     12.463  0.2388E-01  0.4124E+00
     12.544  0.1965E-01  0.4140E+00
     12.625  0.1507E-01  0.4153E+00
     12.706  0.1998E-01  0.4169E+00
     12.787  0.2122E-01  0.4186E+00
     12.868  0.3528E-01  0.4214E+00
     12.949  0.2934E-01  0.4238E+00
     13.030  0.2353E-01  0.4257E+00
     13.111  0.2718E-01  0.4279E+00
     13.192  0.4307E-01  0.4314E+00
     13.273  0.3467E-01  0.4342E+00
     13.354  0.2964E-01  0.4366E+00
     13.434  0.2862E-01  0.4389E+00
     13.515  0.4915E-01  0.4429E+00
     13.596  0.5419E-01  0.4473E+00
     13.677  0.4473E-01  0.4509E+00
     13.758  0.6053E-01  0.4558E+00
     13.839  0.5069E-01  0.4599E+00
     13.920  0.2786E-01  0.4622E+00
     14.001  0.1981E-01  0.4638E+00
     14.082  0.2215E-01  0.4656E+00
     14.163  0.3577E-01  0.4685E+00
     14.244  0.2132E-01  0.4702E+00
     14.325  0.2247E-01  0.4720E+00
     14.406  0.2206E-01  0.4738E+00
     14.487  0.1546E-01  0.4750E+00
     14.568  0.2504E-01  0.4771E+00
     14.648  0.1979E-01  0.4787E+00
     14.729  0.4671E-02  0.4791E+00
     14.810  0.4176E-02  0.4794E+00
     14.891  0.4459E-02  0.4798E+00
     14.972  0.4917E-03  0.4798E+00
     15.053  0.3134E-05  0.4798E+00
     15.134  0.5192E-03  0.4798E+00
     15.215  0.1866E-02  0.4800E+00
     15.296  0.1866E-03  0.4800E+00
     15.377  0.2313E-06  0.4800E+00
     15.458  0.2045E-11  0.4800E+00
     15.539  0.0000E+00  0.4800E+00
     15.620  0.0000E+00  0.4800E+00
     15.701  0.0000E+00  0.4800E+00
     15.782  0.0000E+00  0.4800E+00
     15.863  0.0000E+00  0.4800E+00
     15.943  0.0000E+00  0.4800E+00
     16.024  0.0000E+00  0.4800E+00
     16.105  0.0000E+00  0.4800E+00
     16.186  0.0000E+00  0.4800E+00
     16.267  0.0000E+00  0.4800E+00
