Al4C3 R-3m - r2SCAN H(P) scan @ 10 GPa (
           1
     3.293148    0.000000    0.000000
    -1.646574    2.851950    0.000000
     0.000000    0.000000   24.619589
   Al   C 
    12     9
Direct configuration=     1
   0.00000000  0.00000000  0.62978162
   0.00000000  0.00000000  0.37021838
   0.66666669  0.33333334  0.96311494
   0.66666669  0.33333334  0.70355169
   0.33333334  0.66666669  0.29644828
   0.33333334  0.66666669  0.03688504
   0.00000000  0.00000000  0.20637335
   0.00000000  0.00000000  0.79362665
   0.66666669  0.33333334  0.53970666
   0.66666669  0.33333334  0.12695998
   0.33333334  0.66666669  0.87304003
   0.33333334  0.66666669  0.46029331
   0.00000000  0.00000000  0.71673728
   0.00000000  0.00000000  0.28326272
   0.66666669  0.33333334  0.05007062
   0.66666669  0.33333334  0.61659603
   0.33333334  0.66666669  0.38340394
   0.33333334  0.66666669  0.94992940
   0.00000000  0.00000000  0.50000000
   0.66666669  0.33333334  0.83333331
   0.33333334  0.66666669  0.16666667
Al4C3 R-3m - r2SCAN H(P) scan @ 10 GPa (
           1
     3.257425    0.000000    0.000000
    -1.628712    2.821012    0.000000
     0.000000    0.000000   24.352519
   Al   C 
    12     9
Direct configuration=     2
  -0.00000000  0.00000000  0.63001850
   0.00000000  0.00000000  0.36998150
   0.66666669  0.33333334  0.96335181
   0.66666669  0.33333334  0.70331482
   0.33333334  0.66666669  0.29668515
   0.33333334  0.66666669  0.03664817
   0.00000000  0.00000000  0.20641631
  -0.00000000  0.00000000  0.79358369
   0.66666669  0.33333334  0.53974963
   0.66666669  0.33333334  0.12691702
   0.33333334  0.66666669  0.87308300
   0.33333334  0.66666669  0.46025034
  -0.00000000  0.00000000  0.71681903
   0.00000000 -0.00000000  0.28318097
   0.66666669  0.33333334  0.05015236
   0.66666669  0.33333334  0.61651429
   0.33333334  0.66666669  0.38348568
   0.33333334  0.66666669  0.94984766
   0.00000000 -0.00000000  0.50000000
   0.66666669  0.33333334  0.83333331
   0.33333334  0.66666669  0.16666667
Al4C3 R-3m - r2SCAN H(P) scan @ 10 GPa (
           1
     3.275536    0.000000    0.000000
    -1.637768    2.836697    0.000000
     0.000000    0.000000   24.487918
   Al   C 
    12     9
Direct configuration=     3
  -0.00000000  0.00000000  0.62989709
   0.00000000  0.00000000  0.37010291
   0.66666669  0.33333334  0.96323040
   0.66666669  0.33333334  0.70343622
   0.33333334  0.66666669  0.29656375
   0.33333334  0.66666669  0.03676958
   0.00000000  0.00000000  0.20639429
  -0.00000000  0.00000000  0.79360571
   0.66666669  0.33333334  0.53972761
   0.66666669  0.33333334  0.12693904
   0.33333334  0.66666669  0.87306098
   0.33333334  0.66666669  0.46027236
  -0.00000000  0.00000000  0.71677713
   0.00000000 -0.00000000  0.28322287
   0.66666669  0.33333334  0.05011046
   0.66666669  0.33333334  0.61655618
   0.33333334  0.66666669  0.38344379
   0.33333334  0.66666669  0.94988956
   0.00000000 -0.00000000  0.50000000
   0.66666669  0.33333334  0.83333331
   0.33333334  0.66666669  0.16666667
Al4C3 R-3m - r2SCAN H(P) scan @ 10 GPa (
           1
     3.275457    0.000000    0.000000
    -1.637729    2.836629    0.000000
     0.000000    0.000000   24.487331
   Al   C 
    12     9
Direct configuration=     4
   0.00000000  0.00000000  0.63001452
  -0.00000000  0.00000000  0.36998548
   0.66666669  0.33333334  0.96334783
   0.66666669  0.33333334  0.70331880
   0.33333334  0.66666669  0.29668117
   0.33333334  0.66666669  0.03665215
   0.00000000 -0.00000000  0.20631413
  -0.00000000  0.00000000  0.79368587
   0.66666669  0.33333334  0.53964744
   0.66666669  0.33333334  0.12701920
   0.33333334  0.66666669  0.87298082
   0.33333334  0.66666669  0.46035253
  -0.00000000 -0.00000000  0.71672725
   0.00000000 -0.00000000  0.28327275
   0.66666669  0.33333334  0.05006058
   0.66666669  0.33333334  0.61660607
   0.33333334  0.66666669  0.38339390
   0.33333334  0.66666669  0.94993944
  -0.00000000 -0.00000000  0.50000000
   0.66666669  0.33333334  0.83333331
   0.33333334  0.66666669  0.16666667
Al4C3 R-3m - r2SCAN H(P) scan @ 10 GPa (
           1
     3.275476    0.000000    0.000000
    -1.637738    2.836645    0.000000
     0.000000    0.000000   24.487469
   Al   C 
    12     9
Direct configuration=     5
   0.00000000  0.00000000  0.62998685
  -0.00000000  0.00000000  0.37001315
   0.66666669  0.33333334  0.96332016
   0.66666669  0.33333334  0.70334646
   0.33333334  0.66666669  0.29665351
   0.33333334  0.66666669  0.03667982
   0.00000000 -0.00000000  0.20633301
  -0.00000000  0.00000000  0.79366699
   0.66666669  0.33333334  0.53966633
   0.66666669  0.33333334  0.12700031
   0.33333334  0.66666669  0.87299970
   0.33333334  0.66666669  0.46033364
  -0.00000000 -0.00000000  0.71673900
   0.00000000 -0.00000000  0.28326100
   0.66666669  0.33333334  0.05007233
   0.66666669  0.33333334  0.61659431
   0.33333334  0.66666669  0.38340566
   0.33333334  0.66666669  0.94992769
  -0.00000000 -0.00000000  0.50000000
   0.66666669  0.33333334  0.83333331
   0.33333334  0.66666669  0.16666667
Al4C3 R-3m - r2SCAN H(P) scan @ 10 GPa (
           1
     3.275787    0.000000    0.000000
    -1.637893    2.836914    0.000000
     0.000000    0.000000   24.489793
   Al   C 
    12     9
Direct configuration=     6
  -0.00000000 -0.00000000  0.63007796
  -0.00000000  0.00000000  0.36992204
   0.66666669  0.33333334  0.96341127
   0.66666669  0.33333334  0.70325536
   0.33333334  0.66666669  0.29674461
   0.33333334  0.66666669  0.03658871
  -0.00000000 -0.00000000  0.20636048
  -0.00000000  0.00000000  0.79363952
   0.66666669  0.33333334  0.53969379
   0.66666669  0.33333334  0.12697285
   0.33333334  0.66666669  0.87302717
   0.33333334  0.66666669  0.46030618
  -0.00000000 -0.00000000  0.71675795
   0.00000000 -0.00000000  0.28324205
   0.66666669  0.33333334  0.05009128
   0.66666669  0.33333334  0.61657537
   0.33333334  0.66666669  0.38342460
   0.33333334  0.66666669  0.94990874
  -0.00000000 -0.00000000  0.50000000
   0.66666669  0.33333334  0.83333331
   0.33333334  0.66666669  0.16666667
Al4C3 R-3m - r2SCAN H(P) scan @ 10 GPa (
           1
     3.275738    0.000000    0.000000
    -1.637869    2.836873    0.000000
     0.000000    0.000000   24.489433
   Al   C 
    12     9
Direct configuration=     7
  -0.00000000 -0.00000000  0.63006382
  -0.00000000  0.00000000  0.36993618
   0.66666669  0.33333334  0.96339713
   0.66666669  0.33333334  0.70326949
   0.33333334  0.66666669  0.29673048
   0.33333334  0.66666669  0.03660285
  -0.00000000 -0.00000000  0.20635622
  -0.00000000  0.00000000  0.79364378
   0.66666669  0.33333334  0.53968953
   0.66666669  0.33333334  0.12697711
   0.33333334  0.66666669  0.87302291
   0.33333334  0.66666669  0.46031044
  -0.00000000 -0.00000000  0.71675501
   0.00000000 -0.00000000  0.28324499
   0.66666669  0.33333334  0.05008834
   0.66666669  0.33333334  0.61657831
   0.33333334  0.66666669  0.38342166
   0.33333334  0.66666669  0.94991168
  -0.00000000 -0.00000000  0.50000000
   0.66666669  0.33333334  0.83333331
   0.33333334  0.66666669  0.16666667
