Al4C3 Pbam polymorph (findsym-output) - 
   1.00000000000000     
     8.2520813715167236    0.0000000000000000    0.0000000000000000
     0.0000000000000000    4.7648231016129436    0.0000000000000000
     0.0000000000000000    0.0000000000000000    2.8225444901418220
   Al   C 
     8     6
Direct
  0.7857273676779857  0.1611056526499904  0.0000000000000000
  0.2142726323220144  0.8388943473500098 -0.0000000000000000
  0.7142726323220143  0.6611056526499902 -0.0000000000000000
  0.2857273676779856  0.3388943473500096  0.0000000000000000
  0.0324752699370936  0.2525468642151502  0.5000000000000000
  0.9675247540629082  0.7474531357848496  0.5000000000000000
  0.4675247240629058  0.7525468642151504  0.5000000000000000
  0.5324752459370918  0.2474531357848498  0.5000000000000000
  0.0000000000000000 -0.0000000000000000  0.0000000000000000
  0.5000000000000000  0.5000000000000000  0.0000000000000000
  0.8242163563324237  0.4450057575882004  0.5000000000000000
  0.1757836436675764  0.5549942424117993  0.5000000000000000
  0.6757836436675763  0.9450057575882007  0.5000000000000000
  0.3242163563324236  0.0549942424117995  0.5000000000000000
 
  0.00000000E+00  0.00000000E+00  0.00000000E+00
  0.00000000E+00  0.00000000E+00  0.00000000E+00
  0.00000000E+00  0.00000000E+00  0.00000000E+00
  0.00000000E+00  0.00000000E+00  0.00000000E+00
  0.00000000E+00  0.00000000E+00  0.00000000E+00
  0.00000000E+00  0.00000000E+00  0.00000000E+00
  0.00000000E+00  0.00000000E+00  0.00000000E+00
  0.00000000E+00  0.00000000E+00  0.00000000E+00
  0.00000000E+00  0.00000000E+00  0.00000000E+00
  0.00000000E+00  0.00000000E+00  0.00000000E+00
  0.00000000E+00  0.00000000E+00  0.00000000E+00
  0.00000000E+00  0.00000000E+00  0.00000000E+00
  0.00000000E+00  0.00000000E+00  0.00000000E+00
  0.00000000E+00  0.00000000E+00  0.00000000E+00
