  14  14   0   0
  0.7987738E+01  0.8273014E-09  0.4776910E-09  0.2829704E-09  0.5000000E-15
  1.000000000000000E-004
  CAR 
 Al4C3 Pbam - r2SCAN H(P) scan @ 80 GPa (
     23.57022138     -6.72393237  301     12.44037211      1.00000000
     -6.724  0.0000E+00  0.0000E+00
     -6.623  0.0000E+00  0.0000E+00
     -6.522  0.0000E+00  0.0000E+00
     -6.421  0.0000E+00  0.0000E+00
     -6.320  0.0000E+00  0.0000E+00
     -6.219  0.0000E+00  0.0000E+00
     -6.118  0.0000E+00  0.0000E+00
     -6.017  0.0000E+00  0.0000E+00
     -5.916  0.0000E+00  0.0000E+00
     -5.815  0.0000E+00  0.0000E+00
     -5.714  0.0000E+00  0.0000E+00
     -5.613  0.7477E-17  0.7550E-18
     -5.512  0.4359E-09  0.4402E-10
     -5.411  0.1019E-04  0.1029E-05
     -5.310  0.2604E-03  0.2732E-04
     -5.209  0.1301E-02  0.1587E-03
     -5.108  0.2429E-02  0.4040E-03
     -5.007  0.2481E-02  0.6546E-03
     -4.906  0.1887E-02  0.8451E-03
     -4.805  0.2283E-02  0.1076E-02
     -4.704  0.6325E-02  0.1714E-02
     -4.603  0.6257E-02  0.2346E-02
     -4.502  0.6991E-03  0.2417E-02
     -4.401  0.2676E-02  0.2687E-02
     -4.300  0.6565E-02  0.3350E-02
     -4.199  0.7054E-02  0.4062E-02
     -4.098  0.6428E-02  0.4711E-02
     -3.997  0.4671E-02  0.5183E-02
     -3.896  0.4444E-02  0.5632E-02
     -3.795  0.8944E-02  0.6535E-02
     -3.695  0.9786E-02  0.7523E-02
     -3.594  0.3275E-02  0.7854E-02
     -3.493  0.6043E-02  0.8464E-02
     -3.392  0.8205E-02  0.9293E-02
     -3.291  0.6848E-02  0.9984E-02
     -3.190  0.8741E-02  0.1087E-01
     -3.089  0.5064E-02  0.1138E-01
     -2.988  0.6239E-02  0.1201E-01
     -2.887  0.7420E-02  0.1276E-01
     -2.786  0.6410E-02  0.1340E-01
     -2.685  0.7397E-02  0.1415E-01
     -2.584  0.4275E-02  0.1458E-01
     -2.483  0.1195E-01  0.1579E-01
     -2.382  0.1476E-01  0.1728E-01
     -2.281  0.8696E-02  0.1816E-01
     -2.180  0.6554E-02  0.1882E-01
     -2.079  0.1217E-01  0.2005E-01
     -1.978  0.1458E-01  0.2152E-01
     -1.877  0.6542E-02  0.2218E-01
     -1.776  0.6392E-02  0.2283E-01
     -1.675  0.9703E-02  0.2381E-01
     -1.574  0.1301E-01  0.2512E-01
     -1.473  0.1401E-01  0.2654E-01
     -1.372  0.1179E-01  0.2773E-01
     -1.271  0.1622E-01  0.2937E-01
     -1.170  0.1274E-01  0.3065E-01
     -1.069  0.1519E-01  0.3219E-01
     -0.968  0.1526E-01  0.3373E-01
     -0.867  0.2064E-01  0.3581E-01
     -0.766  0.1716E-01  0.3754E-01
     -0.665  0.1599E-01  0.3916E-01
     -0.564  0.2744E-01  0.4193E-01
     -0.463  0.2933E-01  0.4489E-01
     -0.362  0.1078E-01  0.4598E-01
     -0.261  0.1188E-01  0.4718E-01
     -0.160  0.1885E-01  0.4908E-01
     -0.059  0.8572E-02  0.4995E-01
      0.042  0.5440E-02  0.5050E-01
      0.143  0.1085E-01  0.5159E-01
      0.244  0.1275E-01  0.5288E-01
      0.345  0.8290E-02  0.5372E-01
      0.446  0.5842E-02  0.5431E-01
      0.547  0.6550E-02  0.5497E-01
      0.648  0.9787E-02  0.5596E-01
      0.749  0.7597E-02  0.5673E-01
      0.850  0.3263E-02  0.5706E-01
      0.951  0.3829E-02  0.5744E-01
      1.052  0.3077E-02  0.5775E-01
      1.153  0.3924E-02  0.5815E-01
      1.254  0.3731E-02  0.5853E-01
      1.355  0.3134E-02  0.5884E-01
      1.455  0.2050E-02  0.5905E-01
      1.556  0.1136E-02  0.5916E-01
      1.657  0.2522E-02  0.5942E-01
      1.758  0.6595E-03  0.5949E-01
      1.859  0.2330E-02  0.5972E-01
      1.960  0.9117E-03  0.5981E-01
      2.061  0.8846E-03  0.5990E-01
      2.162  0.6533E-03  0.5997E-01
      2.263  0.8326E-04  0.5998E-01
      2.364  0.2291E-03  0.6000E-01
      2.465  0.1206E-04  0.6000E-01
      2.566  0.8422E-03  0.6009E-01
      2.667  0.2424E-02  0.6033E-01
      2.768  0.2803E-02  0.6061E-01
      2.869  0.2583E-02  0.6087E-01
      2.970  0.5335E-02  0.6141E-01
      3.071  0.8496E-02  0.6227E-01
      3.172  0.9553E-02  0.6324E-01
      3.273  0.1389E-01  0.6464E-01
      3.374  0.1956E-01  0.6661E-01
      3.475  0.1590E-01  0.6822E-01
      3.576  0.1857E-01  0.7009E-01
      3.677  0.1096E-01  0.7120E-01
      3.778  0.1422E-01  0.7264E-01
      3.879  0.2219E-01  0.7488E-01
      3.980  0.2140E-01  0.7704E-01
      4.081  0.2296E-01  0.7936E-01
      4.182  0.2423E-01  0.8181E-01
      4.283  0.1298E-01  0.8312E-01
      4.384  0.1455E-01  0.8459E-01
      4.485  0.1167E-01  0.8576E-01
      4.586  0.1222E-01  0.8700E-01
      4.687  0.1402E-01  0.8841E-01
      4.788  0.1372E-01  0.8980E-01
      4.889  0.1714E-01  0.9153E-01
      4.990  0.2014E-01  0.9356E-01
      5.091  0.1718E-01  0.9530E-01
      5.192  0.1877E-01  0.9719E-01
      5.293  0.2055E-01  0.9927E-01
      5.394  0.1758E-01  0.1010E+00
      5.495  0.1488E-01  0.1025E+00
      5.596  0.1440E-01  0.1040E+00
      5.697  0.1686E-01  0.1057E+00
      5.798  0.1892E-01  0.1076E+00
      5.899  0.1550E-01  0.1092E+00
      6.000  0.1527E-01  0.1107E+00
      6.101  0.1661E-01  0.1124E+00
      6.202  0.1676E-01  0.1141E+00
      6.303  0.2116E-01  0.1162E+00
      6.404  0.2217E-01  0.1185E+00
      6.505  0.2106E-01  0.1206E+00
      6.605  0.1390E-01  0.1220E+00
      6.706  0.1991E-01  0.1240E+00
      6.807  0.1867E-01  0.1259E+00
      6.908  0.1544E-01  0.1275E+00
      7.009  0.1964E-01  0.1294E+00
      7.110  0.2210E-01  0.1317E+00
      7.211  0.2090E-01  0.1338E+00
      7.312  0.2089E-01  0.1359E+00
      7.413  0.2033E-01  0.1379E+00
      7.514  0.2043E-01  0.1400E+00
      7.615  0.2063E-01  0.1421E+00
      7.716  0.2205E-01  0.1443E+00
      7.817  0.2248E-01  0.1466E+00
      7.918  0.2046E-01  0.1486E+00
      8.019  0.2486E-01  0.1512E+00
      8.120  0.1731E-01  0.1529E+00
      8.221  0.1089E-01  0.1540E+00
      8.322  0.1360E-01  0.1554E+00
      8.423  0.2854E-01  0.1583E+00
      8.524  0.2358E-01  0.1606E+00
      8.625  0.2399E-01  0.1631E+00
      8.726  0.2119E-01  0.1652E+00
      8.827  0.1610E-01  0.1668E+00
      8.928  0.1777E-01  0.1686E+00
      9.029  0.2637E-01  0.1713E+00
      9.130  0.2476E-01  0.1738E+00
      9.231  0.1823E-01  0.1756E+00
      9.332  0.2189E-01  0.1778E+00
      9.433  0.2383E-01  0.1802E+00
      9.534  0.2348E-01  0.1826E+00
      9.635  0.1460E-01  0.1841E+00
      9.736  0.2501E-01  0.1866E+00
      9.837  0.2238E-01  0.1889E+00
      9.938  0.2707E-01  0.1916E+00
     10.039  0.3035E-01  0.1947E+00
     10.140  0.1804E-01  0.1965E+00
     10.241  0.2182E-01  0.1987E+00
     10.342  0.2491E-01  0.2012E+00
     10.443  0.2977E-01  0.2042E+00
     10.544  0.2645E-01  0.2069E+00
     10.645  0.2453E-01  0.2094E+00
     10.746  0.1907E-01  0.2113E+00
     10.847  0.2194E-01  0.2135E+00
     10.948  0.1975E-01  0.2155E+00
     11.049  0.2428E-01  0.2180E+00
     11.150  0.2957E-01  0.2209E+00
     11.251  0.2792E-01  0.2238E+00
     11.352  0.2813E-01  0.2266E+00
     11.453  0.2898E-01  0.2295E+00
     11.554  0.2345E-01  0.2319E+00
     11.655  0.1986E-01  0.2339E+00
     11.756  0.1762E-01  0.2357E+00
     11.856  0.1226E-01  0.2369E+00
     11.957  0.8207E-02  0.2377E+00
     12.058  0.6545E-02  0.2384E+00
     12.159  0.7150E-02  0.2391E+00
     12.260  0.3254E-02  0.2395E+00
     12.361  0.3514E-02  0.2398E+00
     12.462  0.2333E-02  0.2401E+00
     12.563  0.1433E-02  0.2402E+00
     12.664  0.7951E-03  0.2403E+00
     12.765  0.1939E-02  0.2405E+00
     12.866  0.1437E-02  0.2406E+00
     12.967  0.7805E-04  0.2406E+00
     13.068  0.1115E-02  0.2407E+00
     13.169  0.1273E-02  0.2409E+00
     13.270  0.1632E-02  0.2410E+00
     13.371  0.9261E-03  0.2411E+00
     13.472  0.7435E-03  0.2412E+00
     13.573  0.6523E-03  0.2413E+00
     13.674  0.3679E-02  0.2416E+00
     13.775  0.3263E-02  0.2420E+00
     13.876  0.3030E-02  0.2423E+00
     13.977  0.1994E-02  0.2425E+00
     14.078  0.4721E-02  0.2430E+00
     14.179  0.1826E-02  0.2431E+00
     14.280  0.3158E-02  0.2435E+00
     14.381  0.3390E-02  0.2438E+00
     14.482  0.5984E-02  0.2444E+00
     14.583  0.4685E-02  0.2449E+00
     14.684  0.3533E-03  0.2449E+00
     14.785  0.2429E-02  0.2452E+00
     14.886  0.5232E-02  0.2457E+00
     14.987  0.6651E-02  0.2464E+00
     15.088  0.1027E-01  0.2474E+00
     15.189  0.8649E-02  0.2483E+00
     15.290  0.7904E-02  0.2491E+00
     15.391  0.7889E-02  0.2499E+00
     15.492  0.1073E-01  0.2509E+00
     15.593  0.1431E-01  0.2524E+00
     15.694  0.1215E-01  0.2536E+00
     15.795  0.1608E-01  0.2552E+00
     15.896  0.1087E-01  0.2563E+00
     15.997  0.1970E-01  0.2583E+00
     16.098  0.1767E-01  0.2601E+00
     16.199  0.1198E-01  0.2613E+00
     16.300  0.1181E-01  0.2625E+00
     16.401  0.1163E-01  0.2637E+00
     16.502  0.1311E-01  0.2650E+00
     16.603  0.1721E-01  0.2667E+00
     16.704  0.1640E-01  0.2684E+00
     16.805  0.1577E-01  0.2700E+00
     16.906  0.2322E-01  0.2723E+00
     17.006  0.2067E-01  0.2744E+00
     17.107  0.1624E-01  0.2761E+00
     17.208  0.1287E-01  0.2774E+00
     17.309  0.8192E-02  0.2782E+00
     17.410  0.1242E-01  0.2794E+00
     17.511  0.1286E-01  0.2807E+00
     17.612  0.8112E-02  0.2816E+00
     17.713  0.7498E-02  0.2823E+00
     17.814  0.1595E-01  0.2839E+00
     17.915  0.1812E-01  0.2858E+00
     18.016  0.1336E-01  0.2871E+00
     18.117  0.8481E-02  0.2880E+00
     18.218  0.1992E-01  0.2900E+00
     18.319  0.1296E-01  0.2913E+00
     18.420  0.1124E-01  0.2924E+00
     18.521  0.1883E-01  0.2943E+00
     18.622  0.1837E-01  0.2962E+00
     18.723  0.2081E-01  0.2983E+00
     18.824  0.2298E-01  0.3006E+00
     18.925  0.2541E-01  0.3032E+00
     19.026  0.1869E-01  0.3051E+00
     19.127  0.2567E-01  0.3076E+00
     19.228  0.2145E-01  0.3098E+00
     19.329  0.1691E-01  0.3115E+00
     19.430  0.1852E-01  0.3134E+00
     19.531  0.1560E-01  0.3150E+00
     19.632  0.2343E-01  0.3173E+00
     19.733  0.2719E-01  0.3201E+00
     19.834  0.2079E-01  0.3222E+00
     19.935  0.1572E-01  0.3238E+00
     20.036  0.2470E-01  0.3263E+00
     20.137  0.2147E-01  0.3284E+00
     20.238  0.2162E-01  0.3306E+00
     20.339  0.1708E-01  0.3323E+00
     20.440  0.2115E-01  0.3345E+00
     20.541  0.2255E-01  0.3367E+00
     20.642  0.2314E-01  0.3391E+00
     20.743  0.2302E-01  0.3414E+00
     20.844  0.1891E-01  0.3433E+00
     20.945  0.1797E-01  0.3451E+00
     21.046  0.2140E-01  0.3473E+00
     21.147  0.2051E-01  0.3494E+00
     21.248  0.1916E-01  0.3513E+00
     21.349  0.2035E-01  0.3534E+00
     21.450  0.1821E-01  0.3552E+00
     21.551  0.1328E-01  0.3565E+00
     21.652  0.1086E-01  0.3576E+00
     21.753  0.7008E-02  0.3583E+00
     21.854  0.9058E-02  0.3593E+00
     21.955  0.2343E-02  0.3595E+00
     22.056  0.2081E-02  0.3597E+00
     22.156  0.1470E-02  0.3599E+00
     22.257  0.1428E-02  0.3600E+00
     22.358  0.4513E-04  0.3600E+00
     22.459  0.1467E-08  0.3600E+00
     22.560  0.2055E-16  0.3600E+00
     22.661  0.0000E+00  0.3600E+00
     22.762  0.0000E+00  0.3600E+00
     22.863  0.0000E+00  0.3600E+00
     22.964  0.0000E+00  0.3600E+00
     23.065  0.0000E+00  0.3600E+00
     23.166  0.0000E+00  0.3600E+00
     23.267  0.0000E+00  0.3600E+00
     23.368  0.0000E+00  0.3600E+00
     23.469  0.0000E+00  0.3600E+00
     23.570  0.0000E+00  0.3600E+00
