Al4C3 Pbam - r2SCAN H(P) scan @ 80 GPa (
           1
     8.273014    0.000000    0.000000
     0.000000    4.776910    0.000000
     0.000000    0.000000    2.829704
   Al   C 
     8     6
Direct configuration=     1
   0.78591649  0.16039641  0.00000000
   0.21408351  0.83960359  0.00000000
   0.71408351  0.66039641  0.00000000
   0.28591649  0.33960359  0.00000000
   0.03287933  0.25289362  0.50000000
   0.96712070  0.74710638  0.50000000
   0.46712067  0.75289362  0.50000000
   0.53287930  0.24710638  0.50000000
   0.00000000  0.00000000  0.00000000
   0.50000000  0.50000000  0.00000000
   0.82378741  0.44435799  0.50000000
   0.17621259  0.55564201  0.50000000
   0.67621259  0.94435799  0.50000000
   0.32378741  0.05564201  0.50000000
Al4C3 Pbam - r2SCAN H(P) scan @ 80 GPa (
           1
     8.201245    0.000000    0.000000
     0.000000    4.735470    0.000000
     0.000000    0.000000    2.805156
   Al   C 
     8     6
Direct configuration=     2
   0.78611299  0.16044993  0.00000000
   0.21388701  0.83955007 -0.00000000
   0.71388701  0.66044993 -0.00000000
   0.28611299  0.33955007  0.00000000
   0.03251555  0.25233475  0.50000000
   0.96748448  0.74766525  0.50000000
   0.46748445  0.75233475  0.50000000
   0.53251552  0.24766525  0.50000000
   0.00000000 -0.00000000  0.00000000
   0.50000000  0.50000000  0.00000000
   0.82447992  0.44465727  0.50000000
   0.17552008  0.55534273  0.50000000
   0.67552008  0.94465727  0.50000000
   0.32447992  0.05534273  0.50000000
Al4C3 Pbam - r2SCAN H(P) scan @ 80 GPa (
           1
     8.251109    0.000000    0.000000
     0.000000    4.764262    0.000000
     0.000000    0.000000    2.822212
   Al   C 
     8     6
Direct configuration=     3
   0.78597527  0.16041242  0.00000000
   0.21402473  0.83958758 -0.00000000
   0.71402473  0.66041242 -0.00000000
   0.28597527  0.33958758  0.00000000
   0.03277051  0.25272644  0.50000000
   0.96722952  0.74727356  0.50000000
   0.46722949  0.75272644  0.50000000
   0.53277048  0.24727356  0.50000000
   0.00000000 -0.00000000  0.00000000
   0.50000000  0.50000000  0.00000000
   0.82399457  0.44444752  0.50000000
   0.17600543  0.55555248  0.50000000
   0.67600543  0.94444752  0.50000000
   0.32399457  0.05555248  0.50000000
Al4C3 Pbam - r2SCAN H(P) scan @ 80 GPa (
           1
     8.251261    0.000000    0.000000
     0.000000    4.764349    0.000000
     0.000000    0.000000    2.822264
   Al   C 
     8     6
Direct configuration=     4
   0.78597486  0.16041231  0.00000000
   0.21402514  0.83958769 -0.00000000
   0.71402514  0.66041231 -0.00000000
   0.28597486  0.33958769  0.00000000
   0.03277128  0.25272763  0.50000000
   0.96722875  0.74727237  0.50000000
   0.46722872  0.75272763  0.50000000
   0.53277125  0.24727237  0.50000000
   0.00000000 -0.00000000  0.00000000
   0.50000000  0.50000000  0.00000000
   0.82399310  0.44444688  0.50000000
   0.17600690  0.55555312  0.50000000
   0.67600690  0.94444688  0.50000000
   0.32399310  0.05555312  0.50000000
Al4C3 Pbam - r2SCAN H(P) scan @ 80 GPa (
           1
     8.252001    0.000000    0.000000
     0.000000    4.764777    0.000000
     0.000000    0.000000    2.822517
   Al   C 
     8     6
Direct configuration=     5
   0.78590738  0.16057175  0.00000000
   0.21409262  0.83942825 -0.00000000
   0.71409262  0.66057175 -0.00000000
   0.28590738  0.33942825  0.00000000
   0.03270914  0.25257439  0.50000000
   0.96729088  0.74742561  0.50000000
   0.46729085  0.75257439  0.50000000
   0.53270912  0.24742561  0.50000000
   0.00000000 -0.00000000  0.00000000
   0.50000000  0.50000000  0.00000000
   0.82425091  0.44457285  0.50000000
   0.17574909  0.55542715  0.50000000
   0.67574909  0.94457285  0.50000000
   0.32425091  0.05542715  0.50000000
Al4C3 Pbam - r2SCAN H(P) scan @ 80 GPa (
           1
     8.252053    0.000000    0.000000
     0.000000    4.764807    0.000000
     0.000000    0.000000    2.822535
   Al   C 
     8     6
Direct configuration=     6
   0.78590269  0.16058284  0.00000000
   0.21409731  0.83941716 -0.00000000
   0.71409731  0.66058284 -0.00000000
   0.28590269  0.33941716  0.00000000
   0.03270482  0.25256374  0.50000000
   0.96729520  0.74743626  0.50000000
   0.46729517  0.75256374  0.50000000
   0.53270480  0.24743626  0.50000000
   0.00000000 -0.00000000  0.00000000
   0.50000000  0.50000000  0.00000000
   0.82426882  0.44458161  0.50000000
   0.17573118  0.55541839  0.50000000
   0.67573118  0.94458161  0.50000000
   0.32426882  0.05541839  0.50000000
Al4C3 Pbam - r2SCAN H(P) scan @ 80 GPa (
           1
     8.251980    0.000000    0.000000
     0.000000    4.764764    0.000000
     0.000000    0.000000    2.822510
   Al   C 
     8     6
Direct configuration=     7
   0.78581349  0.16074334  0.00000000
   0.21418651  0.83925666 -0.00000000
   0.71418651  0.66074334 -0.00000000
   0.28581349  0.33925666  0.00000000
   0.03264712  0.25256402  0.50000000
   0.96735290  0.74743598  0.50000000
   0.46735287  0.75256402  0.50000000
   0.53264710  0.24743598  0.50000000
   0.00000000 -0.00000000  0.00000000
   0.50000000  0.50000000  0.00000000
   0.82426401  0.44475219  0.50000000
   0.17573599  0.55524781  0.50000000
   0.67573599  0.94475219  0.50000000
   0.32426401  0.05524781  0.50000000
Al4C3 Pbam - r2SCAN H(P) scan @ 80 GPa (
           1
     8.251899    0.000000    0.000000
     0.000000    4.764718    0.000000
     0.000000    0.000000    2.822482
   Al   C 
     8     6
Direct configuration=     8
   0.78571427  0.16092188  0.00000000
   0.21428573  0.83907812 -0.00000000
   0.71428573  0.66092188 -0.00000000
   0.28571427  0.33907812  0.00000000
   0.03258293  0.25256433  0.50000000
   0.96741709  0.74743567  0.50000000
   0.46741706  0.75256433  0.50000000
   0.53258291  0.24743567  0.50000000
   0.00000000 -0.00000000  0.00000000
   0.50000000  0.50000000  0.00000000
   0.82425864  0.44494194  0.50000000
   0.17574136  0.55505806  0.50000000
   0.67574136  0.94494194  0.50000000
   0.32425864  0.05505806  0.50000000
Al4C3 Pbam - r2SCAN H(P) scan @ 80 GPa (
           1
     8.252114    0.000000    0.000000
     0.000000    4.764842    0.000000
     0.000000    0.000000    2.822556
   Al   C 
     8     6
Direct configuration=     9
   0.78572968  0.16113805  0.00000000
   0.21427032  0.83886195 -0.00000000
   0.71427032  0.66113805 -0.00000000
   0.28572968  0.33886195  0.00000000
   0.03245629  0.25254379  0.50000000
   0.96754373  0.74745621  0.50000000
   0.46754370  0.75254379  0.50000000
   0.53245627  0.24745621  0.50000000
   0.00000000 -0.00000000  0.00000000
   0.50000000  0.50000000  0.00000000
   0.82420890  0.44501701  0.50000000
   0.17579110  0.55498299  0.50000000
   0.67579110  0.94501701  0.50000000
   0.32420890  0.05498299  0.50000000
Al4C3 Pbam - r2SCAN H(P) scan @ 80 GPa (
           1
     8.252081    0.000000    0.000000
     0.000000    4.764823    0.000000
     0.000000    0.000000    2.822544
   Al   C 
     8     6
Direct configuration=    10
   0.78572737  0.16110565  0.00000000
   0.21427263  0.83889435 -0.00000000
   0.71427263  0.66110565 -0.00000000
   0.28572737  0.33889435  0.00000000
   0.03247527  0.25254686  0.50000000
   0.96752475  0.74745314  0.50000000
   0.46752472  0.75254686  0.50000000
   0.53247525  0.24745314  0.50000000
   0.00000000 -0.00000000  0.00000000
   0.50000000  0.50000000  0.00000000
   0.82421636  0.44500576  0.50000000
   0.17578364  0.55499424  0.50000000
   0.67578364  0.94500576  0.50000000
   0.32421636  0.05499424  0.50000000
