  28  28   0   0
  0.7840347E+01  0.6032506E-09  0.6032506E-09  0.6032506E-09  0.5000000E-15
  1.000000000000000E-004
  CAR 
 Al4C3 I-43d - H(P) scan @ 70 GPa (ISIF=8
     21.49058522     -5.31747446  301     13.54311253      1.00000000
     -5.317  0.0000E+00  0.0000E+00
     -5.228  0.0000E+00  0.0000E+00
     -5.139  0.0000E+00  0.0000E+00
     -5.049  0.0000E+00  0.0000E+00
     -4.960  0.0000E+00  0.0000E+00
     -4.871  0.0000E+00  0.0000E+00
     -4.781  0.0000E+00  0.0000E+00
     -4.692  0.0000E+00  0.0000E+00
     -4.603  0.0000E+00  0.0000E+00
     -4.513  0.0000E+00  0.0000E+00
     -4.424  0.0000E+00  0.0000E+00
     -4.335  0.6932E-14  0.6195E-15
     -4.245  0.9159E-08  0.8185E-09
     -4.156  0.2791E-04  0.2495E-05
     -4.066  0.4763E-03  0.4505E-04
     -3.977  0.2310E-02  0.2515E-03
     -3.888  0.4515E-02  0.6549E-03
     -3.798  0.4417E-02  0.1050E-02
     -3.709  0.3265E-02  0.1341E-02
     -3.620  0.4898E-02  0.1779E-02
     -3.530  0.1100E-01  0.2762E-02
     -3.441  0.1019E-01  0.3673E-02
     -3.352  0.1174E-02  0.3778E-02
     -3.262  0.5153E-02  0.4238E-02
     -3.173  0.1219E-01  0.5327E-02
     -3.083  0.1192E-01  0.6393E-02
     -2.994  0.1105E-01  0.7380E-02
     -2.905  0.7697E-02  0.8068E-02
     -2.815  0.6410E-02  0.8641E-02
     -2.726  0.1420E-01  0.9910E-02
     -2.637  0.1829E-01  0.1154E-01
     -2.547  0.1208E-02  0.1165E-01
     -2.458  0.4509E-02  0.1206E-01
     -2.369  0.2094E-01  0.1393E-01
     -2.279  0.1797E-01  0.1553E-01
     -2.190  0.1278E-01  0.1667E-01
     -2.101  0.1165E-01  0.1772E-01
     -2.011  0.1950E-01  0.1946E-01
     -1.922  0.1619E-01  0.2090E-01
     -1.832  0.4939E-02  0.2135E-01
     -1.743  0.6073E-02  0.2189E-01
     -1.654  0.1276E-01  0.2303E-01
     -1.564  0.2285E-01  0.2507E-01
     -1.475  0.2844E-01  0.2761E-01
     -1.386  0.1140E-01  0.2863E-01
     -1.296  0.1192E-01  0.2970E-01
     -1.207  0.3118E-01  0.3248E-01
     -1.118  0.1848E-01  0.3413E-01
     -1.028  0.2575E-02  0.3436E-01
     -0.939  0.1143E-01  0.3539E-01
     -0.849  0.2543E-01  0.3766E-01
     -0.760  0.2449E-01  0.3985E-01
     -0.671  0.2277E-01  0.4188E-01
     -0.581  0.1262E-01  0.4301E-01
     -0.492  0.2447E-01  0.4520E-01
     -0.403  0.2267E-01  0.4722E-01
     -0.313  0.6550E-02  0.4781E-01
     -0.224  0.3575E-01  0.5100E-01
     -0.135  0.4107E-01  0.5467E-01
     -0.045  0.1772E-01  0.5625E-01
      0.044  0.2437E-01  0.5843E-01
      0.133  0.2777E-01  0.6091E-01
      0.223  0.2132E-01  0.6282E-01
      0.312  0.2580E-01  0.6512E-01
      0.402  0.3201E-01  0.6798E-01
      0.491  0.2479E-01  0.7020E-01
      0.580  0.6369E-01  0.7589E-01
      0.670  0.5139E-01  0.8048E-01
      0.759  0.1558E-01  0.8188E-01
      0.848  0.7172E-02  0.8252E-01
      0.938  0.2237E-01  0.8452E-01
      1.027  0.1851E-01  0.8617E-01
      1.116  0.4125E-02  0.8654E-01
      1.206  0.1755E-02  0.8670E-01
      1.295  0.1285E-01  0.8784E-01
      1.385  0.1200E-01  0.8892E-01
      1.474  0.2540E-01  0.9119E-01
      1.563  0.5078E-01  0.9572E-01
      1.653  0.2723E-01  0.9816E-01
      1.742  0.2979E-01  0.1008E+00
      1.831  0.2789E-01  0.1033E+00
      1.921  0.2503E-01  0.1055E+00
      2.010  0.5653E-01  0.1106E+00
      2.099  0.4129E-01  0.1143E+00
      2.189  0.1574E-01  0.1157E+00
      2.278  0.5980E-03  0.1157E+00
      2.368  0.8779E-02  0.1165E+00
      2.457  0.1489E-01  0.1179E+00
      2.546  0.9309E-02  0.1187E+00
      2.636  0.8691E-02  0.1195E+00
      2.725  0.3808E-02  0.1198E+00
      2.814  0.2356E-03  0.1198E+00
      2.904  0.1645E-02  0.1200E+00
      2.993  0.2070E-03  0.1200E+00
      3.082  0.1443E-06  0.1200E+00
      3.172  0.2429E-12  0.1200E+00
      3.261  0.0000E+00  0.1200E+00
      3.350  0.8932E-15  0.1200E+00
      3.440  0.7102E-08  0.1200E+00
      3.529  0.1207E-03  0.1200E+00
      3.619  0.7520E-02  0.1207E+00
      3.708  0.1688E-01  0.1222E+00
      3.797  0.2912E-01  0.1248E+00
      3.887  0.1988E-01  0.1266E+00
      3.976  0.3283E-01  0.1295E+00
      4.065  0.3576E-01  0.1327E+00
      4.155  0.1507E-01  0.1340E+00
      4.244  0.2920E-01  0.1367E+00
      4.333  0.1753E-01  0.1382E+00
      4.423  0.3776E-01  0.1416E+00
      4.512  0.3432E-01  0.1447E+00
      4.602  0.3470E-01  0.1478E+00
      4.691  0.1983E-01  0.1495E+00
      4.780  0.3440E-01  0.1526E+00
      4.870  0.3807E-01  0.1560E+00
      4.959  0.2047E-01  0.1578E+00
      5.048  0.3235E-01  0.1607E+00
      5.138  0.2267E-01  0.1628E+00
      5.227  0.1928E-01  0.1645E+00
      5.316  0.1007E-01  0.1654E+00
      5.406  0.4084E-01  0.1690E+00
      5.495  0.7307E-01  0.1756E+00
      5.584  0.5877E-01  0.1808E+00
      5.674  0.3266E-01  0.1837E+00
      5.763  0.2431E-01  0.1859E+00
      5.853  0.6003E-02  0.1864E+00
      5.942  0.9492E-02  0.1873E+00
      6.031  0.5285E-01  0.1920E+00
      6.121  0.5425E-01  0.1969E+00
      6.210  0.5024E-01  0.2013E+00
      6.299  0.1885E-01  0.2030E+00
      6.389  0.3422E-01  0.2061E+00
      6.478  0.5431E-01  0.2109E+00
      6.567  0.3891E-01  0.2144E+00
      6.657  0.2234E-01  0.2164E+00
      6.746  0.2018E-01  0.2182E+00
      6.836  0.3371E-01  0.2212E+00
      6.925  0.2253E-01  0.2232E+00
      7.014  0.5598E-02  0.2237E+00
      7.104  0.3883E-01  0.2272E+00
      7.193  0.5990E-01  0.2326E+00
      7.282  0.4866E-01  0.2369E+00
      7.372  0.2813E-01  0.2394E+00
      7.461  0.3084E-01  0.2422E+00
      7.550  0.1837E-01  0.2438E+00
      7.640  0.2925E-01  0.2464E+00
      7.729  0.2619E-01  0.2488E+00
      7.818  0.5744E-01  0.2539E+00
      7.908  0.5372E-01  0.2587E+00
      7.997  0.4104E-01  0.2624E+00
      8.087  0.3129E-01  0.2652E+00
      8.176  0.5229E-01  0.2699E+00
      8.265  0.8590E-01  0.2775E+00
      8.355  0.3741E-01  0.2809E+00
      8.444  0.3900E-01  0.2844E+00
      8.533  0.3423E-01  0.2874E+00
      8.623  0.2763E-01  0.2899E+00
      8.712  0.2272E-01  0.2919E+00
      8.801  0.4081E-01  0.2956E+00
      8.891  0.1859E-01  0.2972E+00
      8.980  0.3898E-01  0.3007E+00
      9.070  0.4976E-01  0.3051E+00
      9.159  0.3714E-01  0.3085E+00
      9.248  0.3441E-01  0.3115E+00
      9.338  0.4295E-01  0.3154E+00
      9.427  0.4896E-01  0.3198E+00
      9.516  0.3183E-01  0.3226E+00
      9.606  0.2420E-01  0.3248E+00
      9.695  0.5086E-01  0.3293E+00
      9.784  0.2545E-01  0.3316E+00
      9.874  0.2797E-01  0.3341E+00
      9.963  0.3487E-01  0.3372E+00
     10.052  0.4028E-01  0.3408E+00
     10.142  0.6903E-01  0.3470E+00
     10.231  0.6385E-01  0.3527E+00
     10.321  0.3540E-01  0.3558E+00
     10.410  0.3422E-01  0.3589E+00
     10.499  0.4305E-01  0.3627E+00
     10.589  0.3606E-01  0.3660E+00
     10.678  0.5879E-01  0.3712E+00
     10.767  0.3947E-01  0.3747E+00
     10.857  0.6879E-02  0.3754E+00
     10.946  0.4141E-01  0.3791E+00
     11.035  0.6843E-01  0.3852E+00
     11.125  0.9575E-01  0.3937E+00
     11.214  0.7601E-01  0.4005E+00
     11.304  0.1747E-01  0.4021E+00
     11.393  0.2824E-01  0.4046E+00
     11.482  0.5491E-01  0.4095E+00
     11.572  0.5226E-01  0.4142E+00
     11.661  0.3183E-01  0.4170E+00
     11.750  0.4260E-01  0.4208E+00
     11.840  0.2603E-01  0.4232E+00
     11.929  0.4303E-01  0.4270E+00
     12.018  0.4914E-01  0.4314E+00
     12.108  0.4025E-01  0.4350E+00
     12.197  0.5065E-01  0.4395E+00
     12.286  0.3992E-01  0.4431E+00
     12.376  0.5956E-01  0.4484E+00
     12.465  0.1152E+00  0.4587E+00
     12.555  0.8747E-01  0.4665E+00
     12.644  0.6371E-01  0.4722E+00
     12.733  0.3167E-01  0.4750E+00
     12.823  0.1569E-01  0.4764E+00
     12.912  0.1697E-01  0.4780E+00
     13.001  0.9164E-02  0.4788E+00
     13.091  0.5541E-02  0.4793E+00
     13.180  0.1724E-02  0.4794E+00
     13.269  0.4650E-02  0.4798E+00
     13.359  0.1426E-02  0.4800E+00
     13.448  0.2727E-03  0.4800E+00
     13.538  0.4209E-06  0.4800E+00
     13.627  0.1663E-11  0.4800E+00
     13.716  0.0000E+00  0.4800E+00
     13.806  0.0000E+00  0.4800E+00
     13.895  0.0000E+00  0.4800E+00
     13.984  0.0000E+00  0.4800E+00
     14.074  0.0000E+00  0.4800E+00
     14.163  0.0000E+00  0.4800E+00
     14.252  0.0000E+00  0.4800E+00
     14.342  0.0000E+00  0.4800E+00
     14.431  0.0000E+00  0.4800E+00
     14.520  0.0000E+00  0.4800E+00
     14.610  0.0000E+00  0.4800E+00
     14.699  0.0000E+00  0.4800E+00
     14.789  0.0000E+00  0.4800E+00
     14.878  0.0000E+00  0.4800E+00
     14.967  0.0000E+00  0.4800E+00
     15.057  0.0000E+00  0.4800E+00
     15.146  0.0000E+00  0.4800E+00
     15.235  0.2761E-17  0.4800E+00
     15.325  0.9419E-10  0.4800E+00
     15.414  0.6785E-05  0.4800E+00
     15.503  0.1401E-02  0.4801E+00
     15.593  0.2674E-02  0.4804E+00
     15.682  0.3202E-02  0.4807E+00
     15.772  0.9059E-02  0.4815E+00
     15.861  0.1491E-01  0.4828E+00
     15.950  0.5352E-01  0.4876E+00
     16.040  0.4772E-01  0.4918E+00
     16.129  0.5132E-01  0.4964E+00
     16.218  0.4189E-01  0.5002E+00
     16.308  0.5294E-01  0.5049E+00
     16.397  0.3703E-01  0.5082E+00
     16.486  0.2316E-01  0.5103E+00
     16.576  0.2972E-01  0.5129E+00
     16.665  0.5349E-01  0.5177E+00
     16.754  0.3623E-01  0.5210E+00
     16.844  0.3292E-01  0.5239E+00
     16.933  0.3958E-01  0.5274E+00
     17.023  0.6500E-01  0.5332E+00
     17.112  0.4134E-01  0.5369E+00
     17.201  0.4908E-01  0.5413E+00
     17.291  0.4444E-01  0.5453E+00
     17.380  0.5673E-01  0.5504E+00
     17.469  0.5346E-01  0.5551E+00
     17.559  0.3610E-01  0.5584E+00
     17.648  0.2754E-01  0.5608E+00
     17.737  0.5824E-01  0.5660E+00
     17.827  0.6283E-01  0.5716E+00
     17.916  0.5606E-01  0.5766E+00
     18.006  0.5315E-01  0.5814E+00
     18.095  0.4180E-01  0.5851E+00
     18.184  0.9598E-01  0.5937E+00
     18.274  0.5275E-01  0.5984E+00
     18.363  0.3163E-01  0.6013E+00
     18.452  0.3561E-01  0.6044E+00
     18.542  0.2236E-01  0.6064E+00
     18.631  0.5370E-01  0.6112E+00
     18.720  0.4447E-01  0.6152E+00
     18.810  0.3756E-01  0.6186E+00
     18.899  0.4839E-01  0.6229E+00
     18.988  0.3225E-01  0.6258E+00
     19.078  0.1528E-01  0.6271E+00
     19.167  0.2247E-01  0.6291E+00
     19.257  0.3059E-01  0.6319E+00
     19.346  0.3153E-01  0.6347E+00
     19.435  0.3884E-01  0.6382E+00
     19.525  0.3322E-01  0.6411E+00
     19.614  0.1300E-01  0.6423E+00
     19.703  0.2409E-01  0.6444E+00
     19.793  0.6925E-01  0.6506E+00
     19.882  0.5469E-01  0.6555E+00
     19.971  0.2068E-01  0.6574E+00
     20.061  0.6286E-02  0.6579E+00
     20.150  0.1488E-01  0.6593E+00
     20.240  0.5659E-02  0.6598E+00
     20.329  0.2445E-02  0.6600E+00
     20.418  0.1674E-03  0.6600E+00
     20.508  0.5496E-07  0.6600E+00
     20.597  0.4159E-13  0.6600E+00
     20.686  0.0000E+00  0.6600E+00
     20.776  0.0000E+00  0.6600E+00
     20.865  0.0000E+00  0.6600E+00
     20.954  0.0000E+00  0.6600E+00
     21.044  0.0000E+00  0.6600E+00
     21.133  0.0000E+00  0.6600E+00
     21.223  0.0000E+00  0.6600E+00
     21.312  0.0000E+00  0.6600E+00
     21.401  0.0000E+00  0.6600E+00
     21.491  0.0000E+00  0.6600E+00
