       N       E                     dE             d eps       ncg     rms          rms(c)
DAV:   1    -0.173784556395E+03   -0.17378E+03   -0.85489E+01  3024   0.254E+01    0.267E+01
DAV:   2    -0.152925737769E+03    0.20859E+02   -0.62397E+01  3000   0.220E+01    0.851E+00
DAV:   3    -0.152249052368E+03    0.67669E+00   -0.48506E+00  3072   0.666E+00    0.484E+00
DAV:   4    -0.152132863133E+03    0.11619E+00   -0.38564E-01  2964   0.214E+00    0.980E-01
DAV:   5    -0.152107636639E+03    0.25226E-01   -0.80072E-02  3096   0.828E-01    0.329E-01
DAV:   6    -0.152107618578E+03    0.18061E-04   -0.70585E-03  3180   0.265E-01    0.139E-01
DAV:   7    -0.152107503379E+03    0.11520E-03   -0.38071E-04  3084   0.600E-02    0.574E-02
DAV:   8    -0.152107502884E+03    0.49555E-06   -0.41286E-06  1674   0.891E-03
   1 F= -.56193772E+02 E0= -.56193772E+02  d E =-.561938E+02
       N       E                     dE             d eps       ncg     rms          rms(c)
DAV:   1    -0.145259814825E+03    0.68477E+01   -0.13208E+01  2904   0.154E+01    0.384E+00
DAV:   2    -0.144974000625E+03    0.28581E+00   -0.75063E-01  3072   0.286E+00    0.180E+00
DAV:   3    -0.144950775161E+03    0.23225E-01   -0.91857E-02  3054   0.936E-01    0.549E-01
DAV:   4    -0.144947057649E+03    0.37175E-02   -0.55949E-03  3072   0.227E-01    0.178E-01
DAV:   5    -0.144946558527E+03    0.49912E-03   -0.86735E-04  3054   0.943E-02    0.117E-01
DAV:   6    -0.144946522840E+03    0.35687E-04   -0.93517E-05  2898   0.300E-02    0.155E-02
DAV:   7    -0.144946518899E+03    0.39409E-05   -0.16549E-05  1578   0.131E-02
   2 F= -.55680101E+02 E0= -.55680101E+02  d E =0.513671E+00
       N       E                     dE             d eps       ncg     rms          rms(c)
DAV:   1    -0.150181673740E+03   -0.52352E+01   -0.57457E+00  2904   0.984E+00    0.258E+00
DAV:   2    -0.150050933188E+03    0.13074E+00   -0.34887E-01  3060   0.191E+00    0.118E+00
DAV:   3    -0.150041025481E+03    0.99077E-02   -0.39843E-02  3060   0.607E-01    0.369E-01
DAV:   4    -0.150039164424E+03    0.18611E-02   -0.27328E-03  3078   0.155E-01    0.117E-01
DAV:   5    -0.150038849417E+03    0.31501E-03   -0.52108E-04  3042   0.705E-02    0.749E-02
DAV:   6    -0.150038816378E+03    0.33039E-04   -0.60632E-05  2856   0.236E-02    0.132E-02
DAV:   7    -0.150038816981E+03   -0.60268E-06   -0.97466E-06  1554   0.996E-03
   3 F= -.56358034E+02 E0= -.56358034E+02  d E =-.164262E+00
       N       E                     dE             d eps       ncg     rms          rms(c)
DAV:   1    -0.150006712810E+03    0.32104E-01   -0.28581E-04  2832   0.693E-02    0.167E-02
DAV:   2    -0.150006709595E+03    0.32144E-05   -0.13627E-05  1590   0.124E-02
   4 F= -.56358073E+02 E0= -.56358073E+02  d E =-.164301E+00
       N       E                     dE             d eps       ncg     rms          rms(c)
DAV:   1    -0.150002240263E+03    0.44725E-02   -0.24905E-06  1440   0.649E-03    0.469E-03
DAV:   2    -0.150002240827E+03   -0.56417E-06   -0.35737E-07  1446   0.184E-03
   5 F= -.56358074E+02 E0= -.56358074E+02  d E =-.164302E+00
       N       E                     dE             d eps       ncg     rms          rms(c)
DAV:   1    -0.150004082443E+03   -0.18422E-02   -0.11920E-06  1416   0.463E-03    0.955E-04
DAV:   2    -0.150004082424E+03    0.19077E-07   -0.63300E-08  1392   0.102E-03
   6 F= -.56358075E+02 E0= -.56358075E+02  d E =-.164303E+00
       N       E                     dE             d eps       ncg     rms          rms(c)
DAV:   1    -0.149979461469E+03    0.24621E-01   -0.24962E-02  2664   0.606E-01    0.680E-02
DAV:   2    -0.149979361523E+03    0.99946E-04   -0.63378E-04  3216   0.926E-02    0.298E-02
DAV:   3    -0.149979349871E+03    0.11652E-04   -0.58102E-05  3042   0.252E-02    0.150E-02
DAV:   4    -0.149979347652E+03    0.22196E-05   -0.63671E-06  1536   0.862E-03
   7 F= -.56361132E+02 E0= -.56361132E+02  d E =-.305685E-02
       N       E                     dE             d eps       ncg     rms          rms(c)
DAV:   1    -0.149953553468E+03    0.25796E-01   -0.23245E-02  2670   0.585E-01    0.656E-02
DAV:   2    -0.149953460959E+03    0.92509E-04   -0.58693E-04  3216   0.890E-02    0.289E-02
DAV:   3    -0.149953450487E+03    0.10472E-04   -0.53588E-05  3036   0.242E-02    0.146E-02
DAV:   4    -0.149953448497E+03    0.19904E-05   -0.58860E-06  1548   0.830E-03
   8 F= -.56362086E+02 E0= -.56362086E+02  d E =-.401094E-02
