Al4C3 I-43d - H(P) scan @ 70 GPa (ISIF=8
           1
     6.032506    0.000000    0.000000
     0.000000    6.032506    0.000000
     0.000000    0.000000    6.032506
   Al   C 
    16    12
Direct configuration=     1
   0.31427904  0.31427904  0.31427904
   0.18572096  0.68572096  0.81427904
   0.68572096  0.81427904  0.18572096
   0.81427904  0.18572096  0.68572096
   0.56427904  0.56427904  0.56427904
   0.93572096  0.43572096  0.06427904
   0.06427904  0.93572096  0.43572096
   0.43572096  0.06427904  0.93572096
   0.81427904  0.81427904  0.81427904
   0.68572096  0.18572096  0.31427904
   0.18572096  0.31427904  0.68572096
   0.31427904  0.68572096  0.18572096
   0.06427904  0.06427904  0.06427904
   0.43572096  0.93572096  0.56427904
   0.56427904  0.43572096  0.93572096
   0.93572096  0.56427904  0.43572096
   0.37500000  0.00000000  0.25000000
   0.12500000  0.00000000  0.75000000
   0.62500000  0.50000000  0.25000000
   0.87500000  0.50000000  0.75000000
   0.25000000  0.37500000  0.00000000
   0.75000000  0.12500000  0.00000000
   0.25000000  0.62500000  0.50000000
   0.75000000  0.87500000  0.50000000
   0.00000000  0.25000000  0.37500000
   0.00000000  0.75000000  0.12500000
   0.50000000  0.25000000  0.62500000
   0.50000000  0.75000000  0.87500000
Al4C3 I-43d - H(P) scan @ 70 GPa (ISIF=8
           1
     5.889796    0.000000    0.000000
     0.000000    5.889796    0.000000
     0.000000    0.000000    5.889796
   Al   C 
    16    12
Direct configuration=     2
   0.31428338  0.31428338  0.31428338
   0.18571662  0.68571662  0.81428338
   0.68571662  0.81428338  0.18571662
   0.81428338  0.18571662  0.68571662
   0.56428338  0.56428338  0.56428338
   0.93571662  0.43571662  0.06428338
   0.06428338  0.93571662  0.43571662
   0.43571662  0.06428338  0.93571662
   0.81428338  0.81428338  0.81428338
   0.68571662  0.18571662  0.31428338
   0.18571662  0.31428338  0.68571662
   0.31428338  0.68571662  0.18571662
   0.06428338  0.06428338  0.06428338
   0.43571662  0.93571662  0.56428338
   0.56428338  0.43571662  0.93571662
   0.93571662  0.56428338  0.43571662
   0.37500000 -0.00000000  0.25000000
   0.12500000 -0.00000000  0.75000000
   0.62500000  0.50000000  0.25000000
   0.87500000  0.50000000  0.75000000
   0.25000000  0.37500000 -0.00000000
   0.75000000  0.12500000 -0.00000000
   0.25000000  0.62500000  0.50000000
   0.75000000  0.87500000  0.50000000
   0.00000000  0.25000000  0.37500000
   0.00000000  0.75000000  0.12500000
   0.50000000  0.25000000  0.62500000
   0.50000000  0.75000000  0.87500000
Al4C3 I-43d - H(P) scan @ 70 GPa (ISIF=8
           1
     5.985324    0.000000    0.000000
     0.000000    5.985324    0.000000
     0.000000    0.000000    5.985324
   Al   C 
    16    12
Direct configuration=     3
   0.31428040  0.31428040  0.31428040
   0.18571960  0.68571960  0.81428040
   0.68571960  0.81428040  0.18571960
   0.81428040  0.18571960  0.68571960
   0.56428040  0.56428040  0.56428040
   0.93571960  0.43571960  0.06428040
   0.06428040  0.93571960  0.43571960
   0.43571960  0.06428040  0.93571960
   0.81428040  0.81428040  0.81428040
   0.68571960  0.18571960  0.31428040
   0.18571960  0.31428040  0.68571960
   0.31428040  0.68571960  0.18571960
   0.06428040  0.06428040  0.06428040
   0.43571960  0.93571960  0.56428040
   0.56428040  0.43571960  0.93571960
   0.93571960  0.56428040  0.43571960
   0.37500000 -0.00000000  0.25000000
   0.12500000 -0.00000000  0.75000000
   0.62500000  0.50000000  0.25000000
   0.87500000  0.50000000  0.75000000
   0.25000000  0.37500000 -0.00000000
   0.75000000  0.12500000 -0.00000000
   0.25000000  0.62500000  0.50000000
   0.75000000  0.87500000  0.50000000
   0.00000000  0.25000000  0.37500000
   0.00000000  0.75000000  0.12500000
   0.50000000  0.25000000  0.62500000
   0.50000000  0.75000000  0.87500000
Al4C3 I-43d - H(P) scan @ 70 GPa (ISIF=8
           1
     5.984640    0.000000    0.000000
     0.000000    5.984640    0.000000
     0.000000    0.000000    5.984640
   Al   C 
    16    12
Direct configuration=     4
   0.31428043  0.31428043  0.31428043
   0.18571957  0.68571957  0.81428043
   0.68571957  0.81428043  0.18571957
   0.81428043  0.18571957  0.68571957
   0.56428043  0.56428043  0.56428043
   0.93571957  0.43571957  0.06428043
   0.06428043  0.93571957  0.43571957
   0.43571957  0.06428043  0.93571957
   0.81428043  0.81428043  0.81428043
   0.68571957  0.18571957  0.31428043
   0.18571957  0.31428043  0.68571957
   0.31428043  0.68571957  0.18571957
   0.06428043  0.06428043  0.06428043
   0.43571957  0.93571957  0.56428043
   0.56428043  0.43571957  0.93571957
   0.93571957  0.56428043  0.43571957
   0.37500000 -0.00000000  0.25000000
   0.12500000 -0.00000000  0.75000000
   0.62500000  0.50000000  0.25000000
   0.87500000  0.50000000  0.75000000
   0.25000000  0.37500000 -0.00000000
   0.75000000  0.12500000 -0.00000000
   0.25000000  0.62500000  0.50000000
   0.75000000  0.87500000  0.50000000
   0.00000000  0.25000000  0.37500000
   0.00000000  0.75000000  0.12500000
   0.50000000  0.25000000  0.62500000
   0.50000000  0.75000000  0.87500000
Al4C3 I-43d - H(P) scan @ 70 GPa (ISIF=8
           1
     5.984544    0.000000    0.000000
     0.000000    5.984544    0.000000
     0.000000    0.000000    5.984544
   Al   C 
    16    12
Direct configuration=     5
   0.31428043  0.31428043  0.31428043
   0.18571957  0.68571957  0.81428043
   0.68571957  0.81428043  0.18571957
   0.81428043  0.18571957  0.68571957
   0.56428043  0.56428043  0.56428043
   0.93571957  0.43571957  0.06428043
   0.06428043  0.93571957  0.43571957
   0.43571957  0.06428043  0.93571957
   0.81428043  0.81428043  0.81428043
   0.68571957  0.18571957  0.31428043
   0.18571957  0.31428043  0.68571957
   0.31428043  0.68571957  0.18571957
   0.06428043  0.06428043  0.06428043
   0.43571957  0.93571957  0.56428043
   0.56428043  0.43571957  0.93571957
   0.93571957  0.56428043  0.43571957
   0.37500000 -0.00000000  0.25000000
   0.12500000 -0.00000000  0.75000000
   0.62500000  0.50000000  0.25000000
   0.87500000  0.50000000  0.75000000
   0.25000000  0.37500000 -0.00000000
   0.75000000  0.12500000 -0.00000000
   0.25000000  0.62500000  0.50000000
   0.75000000  0.87500000  0.50000000
   0.00000000  0.25000000  0.37500000
   0.00000000  0.75000000  0.12500000
   0.50000000  0.25000000  0.62500000
   0.50000000  0.75000000  0.87500000
Al4C3 I-43d - H(P) scan @ 70 GPa (ISIF=8
           1
     5.984584    0.000000    0.000000
     0.000000    5.984584    0.000000
     0.000000    0.000000    5.984584
   Al   C 
    16    12
Direct configuration=     6
   0.31428043  0.31428043  0.31428043
   0.18571957  0.68571957  0.81428043
   0.68571957  0.81428043  0.18571957
   0.81428043  0.18571957  0.68571957
   0.56428043  0.56428043  0.56428043
   0.93571957  0.43571957  0.06428043
   0.06428043  0.93571957  0.43571957
   0.43571957  0.06428043  0.93571957
   0.81428043  0.81428043  0.81428043
   0.68571957  0.18571957  0.31428043
   0.18571957  0.31428043  0.68571957
   0.31428043  0.68571957  0.18571957
   0.06428043  0.06428043  0.06428043
   0.43571957  0.93571957  0.56428043
   0.56428043  0.43571957  0.93571957
   0.93571957  0.56428043  0.43571957
   0.37500000 -0.00000000  0.25000000
   0.12500000 -0.00000000  0.75000000
   0.62500000  0.50000000  0.25000000
   0.87500000  0.50000000  0.75000000
   0.25000000  0.37500000 -0.00000000
   0.75000000  0.12500000 -0.00000000
   0.25000000  0.62500000  0.50000000
   0.75000000  0.87500000  0.50000000
   0.00000000  0.25000000  0.37500000
   0.00000000  0.75000000  0.12500000
   0.50000000  0.25000000  0.62500000
   0.50000000  0.75000000  0.87500000
Al4C3 I-43d - H(P) scan @ 70 GPa (ISIF=8
           1
     5.983991    0.000000    0.000000
     0.000000    5.983991    0.000000
     0.000000    0.000000    5.983991
   Al   C 
    16    12
Direct configuration=     7
   0.31459724  0.31459724  0.31459724
   0.18540276  0.68540276  0.81459724
   0.68540276  0.81459724  0.18540276
   0.81459724  0.18540276  0.68540276
   0.56459724  0.56459724  0.56459724
   0.93540276  0.43540276  0.06459724
   0.06459724  0.93540276  0.43540276
   0.43540276  0.06459724  0.93540276
   0.81459724  0.81459724  0.81459724
   0.68540276  0.18540276  0.31459724
   0.18540276  0.31459724  0.68540276
   0.31459724  0.68540276  0.18540276
   0.06459724  0.06459724  0.06459724
   0.43540276  0.93540276  0.56459724
   0.56459724  0.43540276  0.93540276
   0.93540276  0.56459724  0.43540276
   0.37500000 -0.00000000  0.25000000
   0.12500000 -0.00000000  0.75000000
   0.62500000  0.50000000  0.25000000
   0.87500000  0.50000000  0.75000000
   0.25000000  0.37500000 -0.00000000
   0.75000000  0.12500000 -0.00000000
   0.25000000  0.62500000  0.50000000
   0.75000000  0.87500000  0.50000000
  -0.00000000  0.25000000  0.37500000
  -0.00000000  0.75000000  0.12500000
   0.50000000  0.25000000  0.62500000
   0.50000000  0.75000000  0.87500000
Al4C3 I-43d - H(P) scan @ 70 GPa (ISIF=8
           1
     5.983419    0.000000    0.000000
     0.000000    5.983419    0.000000
     0.000000    0.000000    5.983419
   Al   C 
    16    12
Direct configuration=     8
   0.31490345  0.31490345  0.31490345
   0.18509655  0.68509655  0.81490345
   0.68509655  0.81490345  0.18509655
   0.81490345  0.18509655  0.68509655
   0.56490345  0.56490345  0.56490345
   0.93509655  0.43509655  0.06490345
   0.06490345  0.93509655  0.43509655
   0.43509655  0.06490345  0.93509655
   0.81490345  0.81490345  0.81490345
   0.68509655  0.18509655  0.31490345
   0.18509655  0.31490345  0.68509655
   0.31490345  0.68509655  0.18509655
   0.06490345  0.06490345  0.06490345
   0.43509655  0.93509655  0.56490345
   0.56490345  0.43509655  0.93509655
   0.93509655  0.56490345  0.43509655
   0.37500000 -0.00000000  0.25000000
   0.12500000 -0.00000000  0.75000000
   0.62500000  0.50000000  0.25000000
   0.87500000  0.50000000  0.75000000
   0.25000000  0.37500000 -0.00000000
   0.75000000  0.12500000 -0.00000000
   0.25000000  0.62500000  0.50000000
   0.75000000  0.87500000  0.50000000
  -0.00000000  0.25000000  0.37500000
  -0.00000000  0.75000000  0.12500000
   0.50000000  0.25000000  0.62500000
   0.50000000  0.75000000  0.87500000
