       N       E                     dE             d eps       ncg     rms          rms(c)
DAV:   1    -0.829154457385E+02   -0.82915E+02   -0.39840E-02  5208   0.290E+00    0.123E-02
DAV:   2    -0.829154494260E+02   -0.36875E-05   -0.29535E-06  2880   0.110E-02
   1 F= -.66892696E+02 E0= -.66892506E+02  d E =-.668927E+02
       N       E                     dE             d eps       ncg     rms          rms(c)
DAV:   1    -0.844569873911E+02   -0.15415E+01   -0.85360E+00  6192   0.150E+01    0.313E+00
DAV:   2    -0.842221769980E+02    0.23481E+00   -0.64867E-01  6300   0.332E+00    0.128E+00
DAV:   3    -0.842099121072E+02    0.12265E-01   -0.65863E-02  6636   0.105E+00    0.435E-01
DAV:   4    -0.842068806736E+02    0.30314E-02   -0.54576E-03  6264   0.284E-01    0.159E-01
DAV:   5    -0.842062753328E+02    0.60534E-03   -0.11355E-03  6564   0.131E-01    0.801E-02
DAV:   6    -0.842062120884E+02    0.63244E-04   -0.13069E-04  6420   0.479E-02    0.384E-02
DAV:   7    -0.842062061501E+02    0.59383E-05   -0.28146E-05  5172   0.214E-02
   2 F= -.66826576E+02 E0= -.66826161E+02  d E =0.661204E-01
       N       E                     dE             d eps       ncg     rms          rms(c)
DAV:   1    -0.837342686479E+02    0.47194E+00   -0.26844E+00  6192   0.866E+00    0.175E+00
DAV:   2    -0.836628708954E+02    0.71398E-01   -0.19645E-01  6252   0.184E+00    0.713E-01
DAV:   3    -0.836589774156E+02    0.38935E-02   -0.16890E-02  6612   0.568E-01    0.253E-01
DAV:   4    -0.836581064310E+02    0.87098E-03   -0.11030E-03  6168   0.147E-01    0.849E-02
DAV:   5    -0.836579610029E+02    0.14543E-03   -0.11462E-04  6612   0.481E-02    0.476E-02
DAV:   6    -0.836579542804E+02    0.67224E-05   -0.75352E-06  4212   0.198E-02
   3 F= -.67036157E+02 E0= -.67035899E+02  d E =-.143461E+00
       N       E                     dE             d eps       ncg     rms          rms(c)
DAV:   1    -0.836530344007E+02    0.49266E-02   -0.12770E-04  6432   0.587E-02    0.112E-02
DAV:   2    -0.836530321337E+02    0.22671E-05   -0.82716E-06  3288   0.130E-02
   4 F= -.67036169E+02 E0= -.67035912E+02  d E =-.143473E+00
       N       E                     dE             d eps       ncg     rms          rms(c)
DAV:   1    -0.836517203420E+02    0.13141E-02   -0.44679E-06  3024   0.115E-02    0.320E-03
DAV:   2    -0.836517204970E+02   -0.15503E-06   -0.40131E-07  2868   0.312E-03
   5 F= -.67036169E+02 E0= -.67035913E+02  d E =-.143473E+00
       N       E                     dE             d eps       ncg     rms          rms(c)
DAV:   1    -0.836634655256E+02   -0.11745E-01   -0.22711E-01  5184   0.243E+00    0.867E-02
DAV:   2    -0.836633483631E+02    0.11716E-03   -0.34327E-03  6816   0.286E-01    0.523E-02
DAV:   3    -0.836632660411E+02    0.82322E-04   -0.24009E-04  6696   0.835E-02    0.214E-02
DAV:   4    -0.836632676529E+02   -0.16118E-05   -0.73039E-05  6072   0.356E-02
   6 F= -.67038898E+02 E0= -.67038655E+02  d E =-.272913E-02
       N       E                     dE             d eps       ncg     rms          rms(c)
DAV:   1    -0.836668749073E+02   -0.36089E-02   -0.32759E-02  5184   0.924E-01    0.335E-02
DAV:   2    -0.836668598128E+02    0.15094E-04   -0.49101E-04  6816   0.108E-01    0.202E-02
DAV:   3    -0.836668483492E+02    0.11464E-04   -0.33097E-05  6144   0.314E-02    0.857E-03
DAV:   4    -0.836668487366E+02   -0.38738E-06   -0.11236E-05  4308   0.142E-02
   7 F= -.67039125E+02 E0= -.67038885E+02  d E =-.295594E-02
       N       E                     dE             d eps       ncg     rms          rms(c)
DAV:   1    -0.836710786522E+02   -0.42303E-02   -0.20070E-02  5184   0.723E-01    0.293E-02
DAV:   2    -0.836710804166E+02   -0.17644E-05   -0.33265E-04  6840   0.933E-02    0.180E-02
DAV:   3    -0.836710692276E+02    0.11189E-04   -0.34372E-05  5748   0.334E-02    0.580E-03
DAV:   4    -0.836710696641E+02   -0.43649E-06   -0.11844E-05  3624   0.162E-02
   8 F= -.67039530E+02 E0= -.67039297E+02  d E =-.404483E-03
       N       E                     dE             d eps       ncg     rms          rms(c)
DAV:   1    -0.836740828426E+02   -0.30136E-02   -0.11686E-02  5184   0.553E-01    0.227E-02
DAV:   2    -0.836740853086E+02   -0.24659E-05   -0.20245E-04  6840   0.725E-02    0.141E-02
DAV:   3    -0.836740785456E+02    0.67630E-05   -0.16285E-05  4260   0.252E-02
   9 F= -.67039626E+02 E0= -.67039397E+02  d E =-.500491E-03
       N       E                     dE             d eps       ncg     rms          rms(c)
DAV:   1    -0.836685723943E+02    0.55129E-02   -0.31297E-03  5256   0.284E-01    0.209E-02
DAV:   2    -0.836685767298E+02   -0.43355E-05   -0.12591E-04  6804   0.533E-02    0.144E-02
DAV:   3    -0.836685756212E+02    0.11086E-05   -0.50610E-06  3456   0.125E-02
  10 F= -.67039758E+02 E0= -.67039538E+02  d E =-.132885E-03
       N       E                     dE             d eps       ncg     rms          rms(c)
DAV:   1    -0.836692249621E+02   -0.64823E-03   -0.45634E-05  5328   0.347E-02    0.280E-03
DAV:   2    -0.836692249782E+02   -0.16093E-07   -0.21186E-06  2628   0.712E-03
  11 F= -.67039761E+02 E0= -.67039539E+02  d E =-.135372E-03
       N       E                     dE             d eps       ncg     rms          rms(c)
DAV:   1    -0.836739560660E+02   -0.47311E-02   -0.35800E-03  5184   0.304E-01    0.155E-02
DAV:   2    -0.836739516156E+02    0.44504E-05   -0.79895E-05  6912   0.438E-02
  12 F= -.67039789E+02 E0= -.67039570E+02  d E =-.282526E-04
