Al4C3 R-3m - H(P) scan @ 50 GPa (ISIF=8)
           1
     3.129326    0.000000    0.000000
    -1.564663    2.710076    0.000000
     0.000000    0.000000   23.394856
   Al   C 
    12     9
Direct configuration=     1
   0.00000000  0.00000000  0.62950503
   0.00000000  0.00000000  0.37049497
   0.66666669  0.33333334  0.96283834
   0.66666669  0.33333334  0.70382828
   0.33333334  0.66666669  0.29617169
   0.33333334  0.66666669  0.03716164
   0.00000000  0.00000000  0.20608266
   0.00000000  0.00000000  0.79391734
   0.66666669  0.33333334  0.53941597
   0.66666669  0.33333334  0.12725067
   0.33333334  0.66666669  0.87274934
   0.33333334  0.66666669  0.46058400
   0.00000000  0.00000000  0.71668628
   0.00000000  0.00000000  0.28331372
   0.66666669  0.33333334  0.05001961
   0.66666669  0.33333334  0.61664704
   0.33333334  0.66666669  0.38335293
   0.33333334  0.66666669  0.94998041
   0.00000000  0.00000000  0.50000000
   0.66666669  0.33333334  0.83333331
   0.33333334  0.66666669  0.16666667
