  21  21   0   0
  0.1101069E+02  0.3293148E-09  0.3293148E-09  0.2461959E-08  0.5000000E-15
  1.000000000000000E-004
  CAR 
 Al4C3 R-3m - H(P) scan @ 0 GPa (ISIF=8) 
     14.58127300     -7.27792081  301      7.51802100      1.00000000
     -7.278  0.0000E+00  0.0000E+00
     -7.205  0.0000E+00  0.0000E+00
     -7.132  0.0000E+00  0.0000E+00
     -7.059  0.0000E+00  0.0000E+00
     -6.986  0.0000E+00  0.0000E+00
     -6.914  0.0000E+00  0.0000E+00
     -6.841  0.0000E+00  0.0000E+00
     -6.768  0.0000E+00  0.0000E+00
     -6.695  0.0000E+00  0.0000E+00
     -6.622  0.0000E+00  0.0000E+00
     -6.549  0.1590E-16  0.1158E-17
     -6.476  0.1321E-10  0.9628E-12
     -6.404  0.1814E-06  0.1322E-07
     -6.331  0.5283E-04  0.3862E-05
     -6.258  0.7303E-03  0.5708E-04
     -6.185  0.3001E-02  0.2757E-03
     -6.112  0.6217E-02  0.7287E-03
     -6.039  0.4789E-02  0.1078E-02
     -5.966  0.7769E-02  0.1644E-02
     -5.894  0.8608E-02  0.2271E-02
     -5.821  0.9956E-02  0.2996E-02
     -5.748  0.7028E-02  0.3508E-02
     -5.675  0.4808E-02  0.3859E-02
     -5.602  0.7569E-02  0.4410E-02
     -5.529  0.1301E-01  0.5358E-02
     -5.456  0.1090E-01  0.6152E-02
     -5.383  0.1673E-01  0.7371E-02
     -5.311  0.1060E-01  0.8144E-02
     -5.238  0.9294E-02  0.8821E-02
     -5.165  0.1120E-01  0.9637E-02
     -5.092  0.1541E-01  0.1076E-01
     -5.019  0.1955E-01  0.1218E-01
     -4.946  0.2150E-01  0.1375E-01
     -4.873  0.2185E-01  0.1534E-01
     -4.801  0.1928E-01  0.1675E-01
     -4.728  0.1048E-01  0.1751E-01
     -4.655  0.1159E-01  0.1836E-01
     -4.582  0.1492E-01  0.1944E-01
     -4.509  0.1921E-01  0.2084E-01
     -4.436  0.2457E-01  0.2263E-01
     -4.363  0.2943E-01  0.2478E-01
     -4.290  0.2146E-01  0.2634E-01
     -4.218  0.1439E-01  0.2739E-01
     -4.145  0.1688E-01  0.2862E-01
     -4.072  0.1835E-01  0.2996E-01
     -3.999  0.1437E-01  0.3100E-01
     -3.926  0.2316E-01  0.3269E-01
     -3.853  0.3309E-01  0.3510E-01
     -3.780  0.3407E-01  0.3758E-01
     -3.708  0.4313E-01  0.4073E-01
     -3.635  0.3146E-01  0.4302E-01
     -3.562  0.2704E-01  0.4499E-01
     -3.489  0.2554E-01  0.4685E-01
     -3.416  0.3966E-01  0.4974E-01
     -3.343  0.4691E-01  0.5316E-01
     -3.270  0.4915E-01  0.5674E-01
     -3.198  0.3467E-01  0.5927E-01
     -3.125  0.3413E-01  0.6175E-01
     -3.052  0.3141E-01  0.6404E-01
     -2.979  0.3260E-01  0.6642E-01
     -2.906  0.3150E-01  0.6871E-01
     -2.833  0.1387E-01  0.6972E-01
     -2.760  0.2684E-01  0.7168E-01
     -2.687  0.4623E-01  0.7505E-01
     -2.615  0.5759E-01  0.7924E-01
     -2.542  0.8509E-01  0.8544E-01
     -2.469  0.5003E-01  0.8909E-01
     -2.396  0.1194E-01  0.8996E-01
     -2.323  0.5694E-03  0.9000E-01
     -2.250  0.1931E-05  0.9000E-01
     -2.177  0.1768E-09  0.9000E-01
     -2.105  0.2809E-15  0.9000E-01
     -2.032  0.0000E+00  0.9000E-01
     -1.959  0.0000E+00  0.9000E-01
     -1.886  0.0000E+00  0.9000E-01
     -1.813  0.0000E+00  0.9000E-01
     -1.740  0.0000E+00  0.9000E-01
     -1.667  0.0000E+00  0.9000E-01
     -1.595  0.0000E+00  0.9000E-01
     -1.522  0.0000E+00  0.9000E-01
     -1.449  0.0000E+00  0.9000E-01
     -1.376  0.0000E+00  0.9000E-01
     -1.303  0.0000E+00  0.9000E-01
     -1.230  0.0000E+00  0.9000E-01
     -1.157  0.0000E+00  0.9000E-01
     -1.084  0.0000E+00  0.9000E-01
     -1.012  0.0000E+00  0.9000E-01
     -0.939  0.0000E+00  0.9000E-01
     -0.866  0.0000E+00  0.9000E-01
     -0.793  0.0000E+00  0.9000E-01
     -0.720  0.0000E+00  0.9000E-01
     -0.647  0.0000E+00  0.9000E-01
     -0.574  0.0000E+00  0.9000E-01
     -0.502  0.5523E-16  0.9000E-01
     -0.429  0.4405E-10  0.9000E-01
     -0.356  0.5727E-06  0.9000E-01
     -0.283  0.1469E-03  0.9001E-01
     -0.210  0.1618E-02  0.9013E-01
     -0.137  0.2368E-02  0.9030E-01
     -0.064  0.4908E-02  0.9066E-01
      0.008  0.1106E-01  0.9146E-01
      0.081  0.1172E-01  0.9232E-01
      0.154  0.1471E-01  0.9339E-01
      0.227  0.1577E-01  0.9454E-01
      0.300  0.9946E-02  0.9526E-01
      0.373  0.5396E-02  0.9566E-01
      0.446  0.1253E-01  0.9657E-01
      0.519  0.2219E-01  0.9819E-01
      0.591  0.2741E-01  0.1002E+00
      0.664  0.2531E-01  0.1020E+00
      0.737  0.1732E-01  0.1033E+00
      0.810  0.1256E-01  0.1042E+00
      0.883  0.1932E-01  0.1056E+00
      0.956  0.1364E-01  0.1066E+00
      1.029  0.1821E-01  0.1079E+00
      1.101  0.1769E-01  0.1092E+00
      1.174  0.1546E-01  0.1103E+00
      1.247  0.2716E-01  0.1123E+00
      1.320  0.3262E-01  0.1147E+00
      1.393  0.2845E-01  0.1168E+00
      1.466  0.3212E-01  0.1191E+00
      1.539  0.4077E-01  0.1221E+00
      1.611  0.4645E-01  0.1255E+00
      1.684  0.4228E-01  0.1286E+00
      1.757  0.3055E-01  0.1308E+00
      1.830  0.2757E-01  0.1328E+00
      1.903  0.3252E-01  0.1352E+00
      1.976  0.3540E-01  0.1377E+00
      2.049  0.4092E-01  0.1407E+00
      2.122  0.4487E-01  0.1440E+00
      2.194  0.3751E-01  0.1467E+00
      2.267  0.4435E-01  0.1500E+00
      2.340  0.3637E-01  0.1526E+00
      2.413  0.4700E-01  0.1560E+00
      2.486  0.4476E-01  0.1593E+00
      2.559  0.3449E-01  0.1618E+00
      2.632  0.2401E-01  0.1636E+00
      2.704  0.2428E-01  0.1653E+00
      2.777  0.2475E-01  0.1671E+00
      2.850  0.4429E-01  0.1704E+00
      2.923  0.5613E-01  0.1744E+00
      2.996  0.3484E-01  0.1770E+00
      3.069  0.4566E-01  0.1803E+00
      3.142  0.3747E-01  0.1830E+00
      3.214  0.2891E-01  0.1851E+00
      3.287  0.3402E-01  0.1876E+00
      3.360  0.2640E-01  0.1895E+00
      3.433  0.2660E-01  0.1915E+00
      3.506  0.1987E-01  0.1929E+00
      3.579  0.3072E-01  0.1952E+00
      3.652  0.4016E-01  0.1981E+00
      3.725  0.4691E-01  0.2015E+00
      3.797  0.4813E-01  0.2050E+00
      3.870  0.3425E-01  0.2075E+00
      3.943  0.2798E-01  0.2096E+00
      4.016  0.3192E-01  0.2119E+00
      4.089  0.4211E-01  0.2150E+00
      4.162  0.3338E-01  0.2174E+00
      4.235  0.4868E-01  0.2209E+00
      4.307  0.2392E-01  0.2227E+00
      4.380  0.2492E-01  0.2245E+00
      4.453  0.4097E-01  0.2275E+00
      4.526  0.5732E-01  0.2316E+00
      4.599  0.7721E-01  0.2373E+00
      4.672  0.6497E-01  0.2420E+00
      4.745  0.3208E-01  0.2443E+00
      4.817  0.2963E-01  0.2465E+00
      4.890  0.3378E-01  0.2490E+00
      4.963  0.4676E-01  0.2524E+00
      5.036  0.5403E-01  0.2563E+00
      5.109  0.5989E-01  0.2607E+00
      5.182  0.5023E-01  0.2643E+00
      5.255  0.5705E-01  0.2685E+00
      5.328  0.5294E-01  0.2723E+00
      5.400  0.6019E-01  0.2767E+00
      5.473  0.8028E-01  0.2826E+00
      5.546  0.6750E-01  0.2875E+00
      5.619  0.6054E-01  0.2919E+00
      5.692  0.6630E-01  0.2967E+00
      5.765  0.4160E-01  0.2998E+00
      5.838  0.6350E-01  0.3044E+00
      5.910  0.7277E-01  0.3097E+00
      5.983  0.6832E-01  0.3147E+00
      6.056  0.4396E-01  0.3179E+00
      6.129  0.4408E-01  0.3211E+00
      6.202  0.4393E-01  0.3243E+00
      6.275  0.6225E-01  0.3288E+00
      6.348  0.6594E-01  0.3336E+00
      6.421  0.5141E-01  0.3374E+00
      6.493  0.4880E-01  0.3409E+00
      6.566  0.3640E-01  0.3436E+00
      6.639  0.4067E-01  0.3466E+00
      6.712  0.3062E-01  0.3488E+00
      6.785  0.2294E-01  0.3505E+00
      6.858  0.3119E-01  0.3527E+00
      6.931  0.2161E-01  0.3543E+00
      7.003  0.1885E-01  0.3557E+00
      7.076  0.1818E-01  0.3570E+00
      7.149  0.1482E-01  0.3581E+00
      7.222  0.1177E-01  0.3589E+00
      7.295  0.1204E-01  0.3598E+00
      7.368  0.2420E-02  0.3600E+00
      7.441  0.3638E-04  0.3600E+00
      7.513  0.2039E-07  0.3600E+00
      7.586  0.2583E-12  0.3600E+00
      7.659  0.0000E+00  0.3600E+00
      7.732  0.0000E+00  0.3600E+00
      7.805  0.0000E+00  0.3600E+00
      7.878  0.0000E+00  0.3600E+00
      7.951  0.0000E+00  0.3600E+00
      8.024  0.0000E+00  0.3600E+00
      8.096  0.0000E+00  0.3600E+00
      8.169  0.0000E+00  0.3600E+00
      8.242  0.0000E+00  0.3600E+00
      8.315  0.0000E+00  0.3600E+00
      8.388  0.9231E-13  0.3600E+00
      8.461  0.8993E-08  0.3600E+00
      8.534  0.1510E-04  0.3600E+00
      8.606  0.6163E-03  0.3600E+00
      8.679  0.2879E-02  0.3603E+00
      8.752  0.4545E-02  0.3606E+00
      8.825  0.5414E-02  0.3610E+00
      8.898  0.7196E-02  0.3615E+00
      8.971  0.4415E-02  0.3618E+00
      9.044  0.3372E-02  0.3621E+00
      9.116  0.8710E-02  0.3627E+00
      9.189  0.1224E-01  0.3636E+00
      9.262  0.1134E-01  0.3644E+00
      9.335  0.6699E-02  0.3649E+00
      9.408  0.8617E-02  0.3655E+00
      9.481  0.1529E-01  0.3667E+00
      9.554  0.1468E-01  0.3677E+00
      9.627  0.1925E-01  0.3691E+00
      9.699  0.2675E-01  0.3711E+00
      9.772  0.2174E-01  0.3727E+00
      9.845  0.1093E-01  0.3735E+00
      9.918  0.1789E-01  0.3748E+00
      9.991  0.1717E-01  0.3760E+00
     10.064  0.2013E-01  0.3775E+00
     10.137  0.2991E-01  0.3797E+00
     10.209  0.2241E-01  0.3813E+00
     10.282  0.2556E-01  0.3832E+00
     10.355  0.2657E-01  0.3851E+00
     10.428  0.1768E-01  0.3864E+00
     10.501  0.2068E-01  0.3879E+00
     10.574  0.4388E-01  0.3911E+00
     10.647  0.3142E-01  0.3934E+00
     10.719  0.2913E-01  0.3955E+00
     10.792  0.3982E-01  0.3984E+00
     10.865  0.4877E-01  0.4019E+00
     10.938  0.5041E-01  0.4056E+00
     11.011  0.4571E-01  0.4090E+00
     11.084  0.5502E-01  0.4130E+00
     11.157  0.3163E-01  0.4153E+00
     11.230  0.2623E-01  0.4172E+00
     11.302  0.2643E-01  0.4191E+00
     11.375  0.2035E-01  0.4206E+00
     11.448  0.1813E-01  0.4219E+00
     11.521  0.4464E-01  0.4252E+00
     11.594  0.3804E-01  0.4279E+00
     11.667  0.2889E-01  0.4300E+00
     11.740  0.3121E-01  0.4323E+00
     11.812  0.2902E-01  0.4344E+00
     11.885  0.4599E-01  0.4378E+00
     11.958  0.4279E-01  0.4409E+00
     12.031  0.4398E-01  0.4441E+00
     12.104  0.4227E-01  0.4472E+00
     12.177  0.4139E-01  0.4502E+00
     12.250  0.4760E-01  0.4537E+00
     12.322  0.4706E-01  0.4571E+00
     12.395  0.4482E-01  0.4604E+00
     12.468  0.4207E-01  0.4634E+00
     12.541  0.3406E-01  0.4659E+00
     12.614  0.2064E-01  0.4674E+00
     12.687  0.2919E-01  0.4695E+00
     12.760  0.3622E-01  0.4722E+00
     12.833  0.2368E-01  0.4739E+00
     12.905  0.1903E-01  0.4753E+00
     12.978  0.2360E-01  0.4770E+00
     13.051  0.1398E-01  0.4780E+00
     13.124  0.9509E-02  0.4787E+00
     13.197  0.6543E-02  0.4792E+00
     13.270  0.4283E-02  0.4795E+00
     13.343  0.2374E-02  0.4797E+00
     13.415  0.1464E-02  0.4798E+00
     13.488  0.7532E-04  0.4798E+00
     13.561  0.6415E-03  0.4798E+00
     13.634  0.1940E-02  0.4800E+00
     13.707  0.2701E-03  0.4800E+00
     13.780  0.1065E-05  0.4800E+00
     13.853  0.7909E-10  0.4800E+00
     13.925  0.9523E-16  0.4800E+00
     13.998  0.0000E+00  0.4800E+00
     14.071  0.0000E+00  0.4800E+00
     14.144  0.0000E+00  0.4800E+00
     14.217  0.0000E+00  0.4800E+00
     14.290  0.0000E+00  0.4800E+00
     14.363  0.0000E+00  0.4800E+00
     14.436  0.0000E+00  0.4800E+00
     14.508  0.0000E+00  0.4800E+00
     14.581  0.0000E+00  0.4800E+00
