       N       E                     dE             d eps       ncg     rms          rms(c)
DAV:   1    -0.152183102283E+03   -0.15218E+03   -0.10111E+02  4392   0.321E+01    0.237E+01
DAV:   2    -0.130173536883E+03    0.22010E+02   -0.71605E+01  4116   0.273E+01    0.751E+00
DAV:   3    -0.129662807124E+03    0.51073E+00   -0.86358E+00  4428   0.111E+01    0.453E+00
DAV:   4    -0.129627152694E+03    0.35654E-01   -0.10099E+00  4248   0.375E+00    0.170E+00
DAV:   5    -0.129589301764E+03    0.37851E-01   -0.16896E-01  4452   0.164E+00    0.304E-01
DAV:   6    -0.129590849970E+03   -0.15482E-02   -0.20146E-02  4500   0.556E-01    0.211E-01
DAV:   7    -0.129591275646E+03   -0.42568E-03   -0.85452E-04  4440   0.131E-01    0.941E-02
DAV:   8    -0.129591311867E+03   -0.36221E-04   -0.64904E-04  4440   0.100E-01    0.168E-02
DAV:   9    -0.129591313518E+03   -0.16506E-05   -0.26365E-05  3504   0.227E-02
   1 F= -.12959131E+03 E0= -.12959131E+03  d E =-.129591E+03
       N       E                     dE             d eps       ncg     rms          rms(c)
DAV:   1    -0.130429499731E+03   -0.83819E+00   -0.20356E+01  4188   0.201E+01    0.475E+00
DAV:   2    -0.129822163753E+03    0.60734E+00   -0.18510E+00  4212   0.472E+00    0.180E+00
DAV:   3    -0.129791516240E+03    0.30648E-01   -0.21389E-01  4488   0.151E+00    0.599E-01
DAV:   4    -0.129783265402E+03    0.82508E-02   -0.22223E-02  4356   0.482E-01    0.245E-01
DAV:   5    -0.129781665280E+03    0.16001E-02   -0.43409E-03  4548   0.220E-01    0.119E-01
DAV:   6    -0.129781394695E+03    0.27058E-03   -0.61483E-04  4356   0.875E-02    0.305E-02
DAV:   7    -0.129781396966E+03   -0.22716E-05   -0.89529E-05  4476   0.341E-02
   2 F= -.12978140E+03 E0= -.12978140E+03  d E =-.190083E+00
       N       E                     dE             d eps       ncg     rms          rms(c)
DAV:   1    -0.130104156293E+03   -0.32276E+00   -0.38659E+00  4128   0.909E+00    0.203E+00
DAV:   2    -0.129994746715E+03    0.10941E+00   -0.33081E-01  4272   0.200E+00    0.787E-01
DAV:   3    -0.129988660827E+03    0.60859E-02   -0.38622E-02  4476   0.658E-01    0.257E-01
DAV:   4    -0.129987230080E+03    0.14307E-02   -0.36274E-03  4368   0.201E-01    0.106E-01
DAV:   5    -0.129986988356E+03    0.24172E-03   -0.63806E-04  4524   0.862E-02    0.529E-02
DAV:   6    -0.129986959667E+03    0.28689E-04   -0.95208E-05  4356   0.343E-02    0.112E-02
DAV:   7    -0.129986958315E+03    0.13520E-05   -0.11342E-05  2712   0.132E-02
   3 F= -.12998696E+03 E0= -.12998696E+03  d E =-.395645E+00
       N       E                     dE             d eps       ncg     rms          rms(c)
DAV:   1    -0.129986963300E+03   -0.36327E-05   -0.58571E-05  4104   0.356E-02    0.968E-03
DAV:   2    -0.129986961378E+03    0.19217E-05   -0.64777E-06  2220   0.924E-03
   4 F= -.12998696E+03 E0= -.12998696E+03  d E =-.395648E+00
       N       E                     dE             d eps       ncg     rms          rms(c)
DAV:   1    -0.129986961433E+03    0.18669E-05   -0.29260E-06  2160   0.788E-03    0.244E-03
DAV:   2    -0.129986961591E+03   -0.15750E-06   -0.33442E-07  2124   0.234E-03
   5 F= -.12998696E+03 E0= -.12998696E+03  d E =-.395648E+00
       N       E                     dE             d eps       ncg     rms          rms(c)
DAV:   1    -0.129986962161E+03   -0.72829E-06   -0.19537E-06  2148   0.633E-03    0.136E-03
DAV:   2    -0.129986962125E+03    0.36011E-07   -0.17075E-07  2100   0.175E-03
   6 F= -.12998696E+03 E0= -.12998696E+03  d E =-.395649E+00
       N       E                     dE             d eps       ncg     rms          rms(c)
DAV:   1    -0.129987655063E+03   -0.69290E-03   -0.10810E-01  3888   0.150E+00    0.818E-02
DAV:   2    -0.129987466546E+03    0.18852E-03   -0.43463E-03  4848   0.287E-01    0.709E-02
DAV:   3    -0.129987384527E+03    0.82019E-04   -0.47974E-04  4488   0.941E-02    0.440E-02
DAV:   4    -0.129987341771E+03    0.42757E-04   -0.15719E-04  4704   0.481E-02    0.157E-02
DAV:   5    -0.129987337179E+03    0.45920E-05   -0.19347E-05  3492   0.245E-02
   7 F= -.12998734E+03 E0= -.12998734E+03  d E =-.375053E-03
       N       E                     dE             d eps       ncg     rms          rms(c)
DAV:   1    -0.129988178040E+03   -0.83627E-03   -0.22020E-02  3828   0.676E-01    0.374E-02
DAV:   2    -0.129988128582E+03    0.49458E-04   -0.84159E-04  4836   0.127E-01    0.320E-02
DAV:   3    -0.129988111572E+03    0.17010E-04   -0.10550E-04  4464   0.441E-02    0.195E-02
DAV:   4    -0.129988103885E+03    0.76869E-05   -0.27582E-05  3444   0.201E-02
   8 F= -.12998810E+03 E0= -.12998810E+03  d E =-.114176E-02
       N       E                     dE             d eps       ncg     rms          rms(c)
DAV:   1    -0.129988102436E+03    0.91364E-05   -0.72151E-06  2940   0.156E-02    0.354E-03
DAV:   2    -0.129988102416E+03    0.19305E-07   -0.35932E-06  2292   0.821E-03
   9 F= -.12998810E+03 E0= -.12998810E+03  d E =-.114029E-02
       N       E                     dE             d eps       ncg     rms          rms(c)
DAV:   1    -0.129988102637E+03   -0.20169E-06   -0.21648E-06  2088   0.700E-03    0.137E-03
DAV:   2    -0.129988102628E+03    0.88776E-08   -0.19597E-07  2064   0.200E-03
  10 F= -.12998810E+03 E0= -.12998810E+03  d E =-.114050E-02
       N       E                     dE             d eps       ncg     rms          rms(c)
DAV:   1    -0.129988252507E+03   -0.14987E-03   -0.86299E-03  3792   0.406E-01    0.173E-02
DAV:   2    -0.129988247988E+03    0.45197E-05   -0.21840E-04  4440   0.624E-02    0.121E-02
DAV:   3    -0.129988243179E+03    0.48088E-05   -0.10666E-05  2796   0.172E-02
  11 F= -.12998824E+03 E0= -.12998824E+03  d E =-.140550E-03
       N       E                     dE             d eps       ncg     rms          rms(c)
DAV:   1    -0.129988320644E+03   -0.72656E-04   -0.17120E-02  3780   0.573E-01    0.251E-02
DAV:   2    -0.129988308661E+03    0.11982E-04   -0.40198E-04  4476   0.850E-02    0.171E-02
DAV:   3    -0.129988299639E+03    0.90229E-05   -0.23001E-05  3504   0.241E-02
  12 F= -.12998830E+03 E0= -.12998830E+03  d E =-.197010E-03
