Al4C3 R-3m polymorph (findsym-output, fr
   1.00000000000000     
     3.2931481992616916    0.0000000000000000    0.0000000000000000
    -1.6465740996308458    2.8519499990242263    0.0000000000000000
     0.0000000000000000    0.0000000000000000   24.6195890617860442
   Al   C 
    12     9
Direct
 -0.0000000000000000 -0.0000000000000000  0.6297816238321677
 -0.0000000000000000  0.0000000000000000  0.3702183761678324
  0.6666666870000029  0.3333333429999996  0.9631149368321649
  0.6666666870000029  0.3333333429999996  0.7035516901678330
  0.3333333429999996  0.6666666870000029  0.2964482798321644
  0.3333333429999996  0.6666666870000029  0.0368850441678371
 -0.0000000000000000  0.0000000000000000  0.2063733476323614
 -0.0000000000000000  0.0000000000000000  0.7936266523676386
  0.6666666870000029  0.3333333429999996  0.5397066616323621
  0.6666666870000029  0.3333333429999996  0.1269599803676405
  0.3333333429999996  0.6666666870000029  0.8730400346323642
  0.3333333429999996  0.6666666870000029  0.4602933083676353
 -0.0000000000000000 -0.0000000000000000  0.7167372849464971
  0.0000000000000000  0.0000000000000000  0.2832627150535030
  0.6666666870000029  0.3333333429999996  0.0500706169464993
  0.6666666870000029  0.3333333429999996  0.6165960280535000
  0.3333333429999996  0.6666666870000029  0.3834039419464974
  0.3333333429999996  0.6666666870000029  0.9499294020534986
  0.0000000000000000 -0.0000000000000000  0.5000000000000000
  0.6666666870000029  0.3333333429999996  0.8333333129999971
  0.3333333429999996  0.6666666870000029  0.1666666719999981
 
  0.00000000E+00  0.00000000E+00  0.00000000E+00
  0.00000000E+00  0.00000000E+00  0.00000000E+00
  0.00000000E+00  0.00000000E+00  0.00000000E+00
  0.00000000E+00  0.00000000E+00  0.00000000E+00
  0.00000000E+00  0.00000000E+00  0.00000000E+00
  0.00000000E+00  0.00000000E+00  0.00000000E+00
  0.00000000E+00  0.00000000E+00  0.00000000E+00
  0.00000000E+00  0.00000000E+00  0.00000000E+00
  0.00000000E+00  0.00000000E+00  0.00000000E+00
  0.00000000E+00  0.00000000E+00  0.00000000E+00
  0.00000000E+00  0.00000000E+00  0.00000000E+00
  0.00000000E+00  0.00000000E+00  0.00000000E+00
  0.00000000E+00  0.00000000E+00  0.00000000E+00
  0.00000000E+00  0.00000000E+00  0.00000000E+00
  0.00000000E+00  0.00000000E+00  0.00000000E+00
  0.00000000E+00  0.00000000E+00  0.00000000E+00
  0.00000000E+00  0.00000000E+00  0.00000000E+00
  0.00000000E+00  0.00000000E+00  0.00000000E+00
  0.00000000E+00  0.00000000E+00  0.00000000E+00
  0.00000000E+00  0.00000000E+00  0.00000000E+00
  0.00000000E+00  0.00000000E+00  0.00000000E+00
