Al4C3 R-3m - H(P) scan @ 0 GPa (ISIF=8) 
           1
     3.293148    0.000000    0.000000
    -1.646574    2.851950    0.000000
     0.000000    0.000000   24.619589
   Al   C 
    12     9
Direct configuration=     1
   0.00000000  0.00000000  0.62978162
   0.00000000  0.00000000  0.37021838
   0.66666669  0.33333334  0.96311494
   0.66666669  0.33333334  0.70355169
   0.33333334  0.66666669  0.29644828
   0.33333334  0.66666669  0.03688504
   0.00000000  0.00000000  0.20637335
   0.00000000  0.00000000  0.79362665
   0.66666669  0.33333334  0.53970666
   0.66666669  0.33333334  0.12695998
   0.33333334  0.66666669  0.87304003
   0.33333334  0.66666669  0.46029331
   0.00000000  0.00000000  0.71673728
   0.00000000  0.00000000  0.28326272
   0.66666669  0.33333334  0.05007062
   0.66666669  0.33333334  0.61659603
   0.33333334  0.66666669  0.38340394
   0.33333334  0.66666669  0.94992940
   0.00000000  0.00000000  0.50000000
   0.66666669  0.33333334  0.83333331
   0.33333334  0.66666669  0.16666667
Al4C3 R-3m - H(P) scan @ 0 GPa (ISIF=8) 
           1
     3.402049    0.000000    0.000000
    -1.701024    2.946261    0.000000
     0.000000    0.000000   25.433731
   Al   C 
    12     9
Direct configuration=     2
   0.00000000  0.00000000  0.62980069
  -0.00000000 -0.00000000  0.37019931
   0.66666669  0.33333334  0.96313400
   0.66666669  0.33333334  0.70353263
   0.33333334  0.66666669  0.29646734
   0.33333334  0.66666669  0.03686598
  -0.00000000 -0.00000000  0.20637503
  -0.00000000 -0.00000000  0.79362497
   0.66666669  0.33333334  0.53970834
   0.66666669  0.33333334  0.12695830
   0.33333334  0.66666669  0.87304171
   0.33333334  0.66666669  0.46029163
   0.00000000  0.00000000  0.71672109
  -0.00000000  0.00000000  0.28327891
   0.66666669  0.33333334  0.05005442
   0.66666669  0.33333334  0.61661222
   0.33333334  0.66666669  0.38338775
   0.33333334  0.66666669  0.94994560
   0.00000000 -0.00000000  0.50000000
   0.66666669  0.33333334  0.83333331
   0.33333334  0.66666669  0.16666667
Al4C3 R-3m - H(P) scan @ 0 GPa (ISIF=8) 
           1
     3.355353    0.000000    0.000000
    -1.677676    2.905821    0.000000
     0.000000    0.000000   25.084631
   Al   C 
    12     9
Direct configuration=     3
   0.00000000  0.00000000  0.62979277
  -0.00000000 -0.00000000  0.37020723
   0.66666669  0.33333334  0.96312609
   0.66666669  0.33333334  0.70354054
   0.33333334  0.66666669  0.29645943
   0.33333334  0.66666669  0.03687389
  -0.00000000 -0.00000000  0.20637433
  -0.00000000 -0.00000000  0.79362567
   0.66666669  0.33333334  0.53970764
   0.66666669  0.33333334  0.12695900
   0.33333334  0.66666669  0.87304102
   0.33333334  0.66666669  0.46029233
   0.00000000  0.00000000  0.71672781
  -0.00000000  0.00000000  0.28327219
   0.66666669  0.33333334  0.05006114
   0.66666669  0.33333334  0.61660550
   0.33333334  0.66666669  0.38339447
   0.33333334  0.66666669  0.94993888
   0.00000000 -0.00000000  0.50000000
   0.66666669  0.33333334  0.83333331
   0.33333334  0.66666669  0.16666667
Al4C3 R-3m - H(P) scan @ 0 GPa (ISIF=8) 
           1
     3.355180    0.000000    0.000000
    -1.677590    2.905671    0.000000
     0.000000    0.000000   25.083336
   Al   C 
    12     9
Direct configuration=     4
   0.00000000  0.00000000  0.62979274
  -0.00000000 -0.00000000  0.37020726
   0.66666669  0.33333334  0.96312606
   0.66666669  0.33333334  0.70354057
   0.33333334  0.66666669  0.29645940
   0.33333334  0.66666669  0.03687392
  -0.00000000 -0.00000000  0.20637433
  -0.00000000 -0.00000000  0.79362567
   0.66666669  0.33333334  0.53970764
   0.66666669  0.33333334  0.12695900
   0.33333334  0.66666669  0.87304101
   0.33333334  0.66666669  0.46029233
   0.00000000  0.00000000  0.71672784
  -0.00000000  0.00000000  0.28327216
   0.66666669  0.33333334  0.05006117
   0.66666669  0.33333334  0.61660548
   0.33333334  0.66666669  0.38339449
   0.33333334  0.66666669  0.94993885
   0.00000000 -0.00000000  0.50000000
   0.66666669  0.33333334  0.83333331
   0.33333334  0.66666669  0.16666667
Al4C3 R-3m - H(P) scan @ 0 GPa (ISIF=8) 
           1
     3.355123    0.000000    0.000000
    -1.677561    2.905622    0.000000
     0.000000    0.000000   25.082911
   Al   C 
    12     9
Direct configuration=     5
   0.00000000  0.00000000  0.62979273
  -0.00000000 -0.00000000  0.37020727
   0.66666669  0.33333334  0.96312605
   0.66666669  0.33333334  0.70354058
   0.33333334  0.66666669  0.29645939
   0.33333334  0.66666669  0.03687393
  -0.00000000 -0.00000000  0.20637433
  -0.00000000 -0.00000000  0.79362567
   0.66666669  0.33333334  0.53970764
   0.66666669  0.33333334  0.12695900
   0.33333334  0.66666669  0.87304101
   0.33333334  0.66666669  0.46029233
   0.00000000  0.00000000  0.71672785
  -0.00000000  0.00000000  0.28327215
   0.66666669  0.33333334  0.05006118
   0.66666669  0.33333334  0.61660547
   0.33333334  0.66666669  0.38339450
   0.33333334  0.66666669  0.94993884
   0.00000000 -0.00000000  0.50000000
   0.66666669  0.33333334  0.83333331
   0.33333334  0.66666669  0.16666667
Al4C3 R-3m - H(P) scan @ 0 GPa (ISIF=8) 
           1
     3.355153    0.000000    0.000000
    -1.677576    2.905647    0.000000
     0.000000    0.000000   25.083134
   Al   C 
    12     9
Direct configuration=     6
   0.00000000  0.00000000  0.62979274
  -0.00000000 -0.00000000  0.37020726
   0.66666669  0.33333334  0.96312605
   0.66666669  0.33333334  0.70354057
   0.33333334  0.66666669  0.29645940
   0.33333334  0.66666669  0.03687393
  -0.00000000 -0.00000000  0.20637433
  -0.00000000 -0.00000000  0.79362567
   0.66666669  0.33333334  0.53970764
   0.66666669  0.33333334  0.12695900
   0.33333334  0.66666669  0.87304101
   0.33333334  0.66666669  0.46029233
   0.00000000  0.00000000  0.71672784
  -0.00000000  0.00000000  0.28327216
   0.66666669  0.33333334  0.05006117
   0.66666669  0.33333334  0.61660547
   0.33333334  0.66666669  0.38339450
   0.33333334  0.66666669  0.94993885
   0.00000000 -0.00000000  0.50000000
   0.66666669  0.33333334  0.83333331
   0.33333334  0.66666669  0.16666667
Al4C3 R-3m - H(P) scan @ 0 GPa (ISIF=8) 
           1
     3.355475    0.000000    0.000000
    -1.677737    2.905926    0.000000
     0.000000    0.000000   25.085542
   Al   C 
    12     9
Direct configuration=     7
   0.00000000  0.00000000  0.62984202
   0.00000000 -0.00000000  0.37015798
   0.66666669  0.33333334  0.96317533
   0.66666669  0.33333334  0.70349129
   0.33333334  0.66666669  0.29650868
   0.33333334  0.66666669  0.03682465
   0.00000000 -0.00000000  0.20656758
  -0.00000000 -0.00000000  0.79343242
   0.66666669  0.33333334  0.53990089
   0.66666669  0.33333334  0.12676575
   0.33333334  0.66666669  0.87323426
   0.33333334  0.66666669  0.46009908
   0.00000000  0.00000000  0.71681974
  -0.00000000  0.00000000  0.28318026
   0.66666669  0.33333334  0.05015308
   0.66666669  0.33333334  0.61651357
   0.33333334  0.66666669  0.38348640
   0.33333334  0.66666669  0.94984694
  -0.00000000 -0.00000000  0.50000000
   0.66666669  0.33333334  0.83333331
   0.33333334  0.66666669  0.16666667
Al4C3 R-3m - H(P) scan @ 0 GPa (ISIF=8) 
           1
     3.355329    0.000000    0.000000
    -1.677665    2.905800    0.000000
     0.000000    0.000000   25.084455
   Al   C 
    12     9
Direct configuration=     8
   0.00000000  0.00000000  0.62981978
   0.00000000 -0.00000000  0.37018022
   0.66666669  0.33333334  0.96315309
   0.66666669  0.33333334  0.70351353
   0.33333334  0.66666669  0.29648644
   0.33333334  0.66666669  0.03684689
  -0.00000000 -0.00000000  0.20648037
  -0.00000000 -0.00000000  0.79351963
   0.66666669  0.33333334  0.53981368
   0.66666669  0.33333334  0.12685296
   0.33333334  0.66666669  0.87314705
   0.33333334  0.66666669  0.46018629
   0.00000000  0.00000000  0.71677827
  -0.00000000  0.00000000  0.28322173
   0.66666669  0.33333334  0.05011160
   0.66666669  0.33333334  0.61655504
   0.33333334  0.66666669  0.38344493
   0.33333334  0.66666669  0.94988842
   0.00000000 -0.00000000  0.50000000
   0.66666669  0.33333334  0.83333331
   0.33333334  0.66666669  0.16666667
Al4C3 R-3m - H(P) scan @ 0 GPa (ISIF=8) 
           1
     3.355327    0.000000    0.000000
    -1.677663    2.905798    0.000000
     0.000000    0.000000   25.084438
   Al   C 
    12     9
Direct configuration=     9
   0.00000000  0.00000000  0.62981942
   0.00000000 -0.00000000  0.37018058
   0.66666669  0.33333334  0.96315274
   0.66666669  0.33333334  0.70351389
   0.33333334  0.66666669  0.29648608
   0.33333334  0.66666669  0.03684725
  -0.00000000 -0.00000000  0.20647896
  -0.00000000 -0.00000000  0.79352104
   0.66666669  0.33333334  0.53981228
   0.66666669  0.33333334  0.12685437
   0.33333334  0.66666669  0.87314565
   0.33333334  0.66666669  0.46018769
   0.00000000  0.00000000  0.71677760
  -0.00000000  0.00000000  0.28322240
   0.66666669  0.33333334  0.05011093
   0.66666669  0.33333334  0.61655571
   0.33333334  0.66666669  0.38344426
   0.33333334  0.66666669  0.94988908
   0.00000000 -0.00000000  0.50000000
   0.66666669  0.33333334  0.83333331
   0.33333334  0.66666669  0.16666667
Al4C3 R-3m - H(P) scan @ 0 GPa (ISIF=8) 
           1
     3.355328    0.000000    0.000000
    -1.677664    2.905799    0.000000
     0.000000    0.000000   25.084446
   Al   C 
    12     9
Direct configuration=    10
   0.00000000  0.00000000  0.62981960
   0.00000000 -0.00000000  0.37018040
   0.66666669  0.33333334  0.96315291
   0.66666669  0.33333334  0.70351372
   0.33333334  0.66666669  0.29648625
   0.33333334  0.66666669  0.03684707
  -0.00000000 -0.00000000  0.20647965
  -0.00000000 -0.00000000  0.79352035
   0.66666669  0.33333334  0.53981296
   0.66666669  0.33333334  0.12685368
   0.33333334  0.66666669  0.87314634
   0.33333334  0.66666669  0.46018701
   0.00000000  0.00000000  0.71677793
  -0.00000000  0.00000000  0.28322207
   0.66666669  0.33333334  0.05011126
   0.66666669  0.33333334  0.61655538
   0.33333334  0.66666669  0.38344459
   0.33333334  0.66666669  0.94988876
   0.00000000 -0.00000000  0.50000000
   0.66666669  0.33333334  0.83333331
   0.33333334  0.66666669  0.16666667
Al4C3 R-3m - H(P) scan @ 0 GPa (ISIF=8) 
           1
     3.355384    0.000000    0.000000
    -1.677692    2.905848    0.000000
     0.000000    0.000000   25.084866
   Al   C 
    12     9
Direct configuration=    11
   0.00000000 -0.00000000  0.62985055
  -0.00000000 -0.00000000  0.37014945
   0.66666669  0.33333334  0.96318386
   0.66666669  0.33333334  0.70348277
   0.33333334  0.66666669  0.29651720
   0.33333334  0.66666669  0.03681612
   0.00000000 -0.00000000  0.20649582
  -0.00000000  0.00000000  0.79350418
   0.66666669  0.33333334  0.53982914
   0.66666669  0.33333334  0.12683751
   0.33333334  0.66666669  0.87316251
   0.33333334  0.66666669  0.46017083
   0.00000000  0.00000000  0.71675013
  -0.00000000 -0.00000000  0.28324987
   0.66666669  0.33333334  0.05008346
   0.66666669  0.33333334  0.61658318
   0.33333334  0.66666669  0.38341679
   0.33333334  0.66666669  0.94991656
   0.00000000 -0.00000000  0.50000000
   0.66666669  0.33333334  0.83333331
   0.33333334  0.66666669  0.16666667
Al4C3 R-3m - H(P) scan @ 0 GPa (ISIF=8) 
           1
     3.355464    0.000000    0.000000
    -1.677732    2.905917    0.000000
     0.000000    0.000000   25.085461
   Al   C 
    12     9
Direct configuration=    12
   0.00000000 -0.00000000  0.62989450
  -0.00000000  0.00000000  0.37010550
   0.66666669  0.33333334  0.96322781
   0.66666669  0.33333334  0.70343882
   0.33333334  0.66666669  0.29656115
   0.33333334  0.66666669  0.03677217
   0.00000000 -0.00000000  0.20651879
  -0.00000000  0.00000000  0.79348121
   0.66666669  0.33333334  0.53985210
   0.66666669  0.33333334  0.12681454
   0.33333334  0.66666669  0.87318547
   0.33333334  0.66666669  0.46014787
   0.00000000  0.00000000  0.71671065
   0.00000000 -0.00000000  0.28328935
   0.66666669  0.33333334  0.05004398
   0.66666669  0.33333334  0.61662267
   0.33333334  0.66666669  0.38337730
   0.33333334  0.66666669  0.94995604
   0.00000000 -0.00000000  0.50000000
   0.66666669  0.33333334  0.83333331
   0.33333334  0.66666669  0.16666667
