  28  28   0   0
  0.8656588E+01  0.8703244E-09  0.2934905E-09  0.9489201E-09  0.5000000E-15
  1.000000000000000E-004
  CAR 
 Al4C3 Pnma (POSCAR.III) - relax @ 0 GPa 
     15.55470978     -6.74644736  301      8.86900871      1.00000000
     -6.746  0.0000E+00  0.0000E+00
     -6.672  0.0000E+00  0.0000E+00
     -6.598  0.0000E+00  0.0000E+00
     -6.523  0.0000E+00  0.0000E+00
     -6.449  0.0000E+00  0.0000E+00
     -6.375  0.0000E+00  0.0000E+00
     -6.300  0.0000E+00  0.0000E+00
     -6.226  0.0000E+00  0.0000E+00
     -6.152  0.0000E+00  0.0000E+00
     -6.077  0.0000E+00  0.0000E+00
     -6.003  0.5189E-18  0.3858E-19
     -5.929  0.1159E-11  0.8619E-13
     -5.854  0.4108E-07  0.3054E-08
     -5.780  0.3051E-04  0.2271E-05
     -5.706  0.9072E-03  0.6971E-04
     -5.631  0.3384E-02  0.3212E-03
     -5.557  0.5301E-02  0.7153E-03
     -5.483  0.6712E-02  0.1214E-02
     -5.408  0.7958E-02  0.1806E-02
     -5.334  0.9197E-02  0.2489E-02
     -5.260  0.1073E-01  0.3287E-02
     -5.185  0.1215E-01  0.4190E-02
     -5.111  0.1195E-01  0.5079E-02
     -5.037  0.1133E-01  0.5920E-02
     -4.962  0.1076E-01  0.6720E-02
     -4.888  0.1096E-01  0.7535E-02
     -4.814  0.1217E-01  0.8440E-02
     -4.739  0.1285E-01  0.9395E-02
     -4.665  0.1363E-01  0.1041E-01
     -4.591  0.1457E-01  0.1149E-01
     -4.516  0.1575E-01  0.1266E-01
     -4.442  0.1723E-01  0.1394E-01
     -4.368  0.1785E-01  0.1527E-01
     -4.293  0.1849E-01  0.1664E-01
     -4.219  0.1986E-01  0.1812E-01
     -4.145  0.1969E-01  0.1958E-01
     -4.070  0.1906E-01  0.2100E-01
     -3.996  0.1943E-01  0.2245E-01
     -3.922  0.1927E-01  0.2388E-01
     -3.847  0.1959E-01  0.2533E-01
     -3.773  0.2150E-01  0.2693E-01
     -3.699  0.2345E-01  0.2868E-01
     -3.624  0.2388E-01  0.3045E-01
     -3.550  0.2385E-01  0.3222E-01
     -3.476  0.2414E-01  0.3402E-01
     -3.401  0.2490E-01  0.3587E-01
     -3.327  0.2714E-01  0.3789E-01
     -3.253  0.2909E-01  0.4005E-01
     -3.178  0.2963E-01  0.4225E-01
     -3.104  0.3189E-01  0.4462E-01
     -3.030  0.3171E-01  0.4698E-01
     -2.955  0.3134E-01  0.4931E-01
     -2.881  0.3234E-01  0.5171E-01
     -2.807  0.3340E-01  0.5420E-01
     -2.732  0.3274E-01  0.5663E-01
     -2.658  0.3366E-01  0.5913E-01
     -2.584  0.3873E-01  0.6201E-01
     -2.509  0.4110E-01  0.6507E-01
     -2.435  0.3778E-01  0.6787E-01
     -2.361  0.3165E-01  0.7023E-01
     -2.286  0.3532E-01  0.7285E-01
     -2.212  0.5157E-01  0.7669E-01
     -2.138  0.5826E-01  0.8102E-01
     -2.063  0.6803E-01  0.8608E-01
     -1.989  0.6421E-01  0.9085E-01
     -1.915  0.4998E-01  0.9456E-01
     -1.840  0.4175E-01  0.9767E-01
     -1.766  0.3834E-01  0.1005E+00
     -1.692  0.3018E-01  0.1028E+00
     -1.617  0.2774E-01  0.1048E+00
     -1.543  0.2874E-01  0.1070E+00
     -1.469  0.3008E-01  0.1092E+00
     -1.394  0.2978E-01  0.1114E+00
     -1.320  0.2616E-01  0.1134E+00
     -1.245  0.2539E-01  0.1152E+00
     -1.171  0.2671E-01  0.1172E+00
     -1.097  0.2351E-01  0.1190E+00
     -1.022  0.1223E-01  0.1199E+00
     -0.948  0.1546E-02  0.1200E+00
     -0.874  0.1413E-04  0.1200E+00
     -0.799  0.3650E-08  0.1200E+00
     -0.725  0.1716E-13  0.1200E+00
     -0.651  0.0000E+00  0.1200E+00
     -0.576  0.0000E+00  0.1200E+00
     -0.502  0.0000E+00  0.1200E+00
     -0.428  0.0000E+00  0.1200E+00
     -0.353  0.0000E+00  0.1200E+00
     -0.279  0.0000E+00  0.1200E+00
     -0.205  0.0000E+00  0.1200E+00
     -0.130  0.0000E+00  0.1200E+00
     -0.056  0.0000E+00  0.1200E+00
      0.018  0.0000E+00  0.1200E+00
      0.093  0.0000E+00  0.1200E+00
      0.167  0.0000E+00  0.1200E+00
      0.241  0.0000E+00  0.1200E+00
      0.316  0.0000E+00  0.1200E+00
      0.390  0.0000E+00  0.1200E+00
      0.464  0.0000E+00  0.1200E+00
      0.539  0.0000E+00  0.1200E+00
      0.613  0.0000E+00  0.1200E+00
      0.687  0.1432E-15  0.1200E+00
      0.762  0.8987E-10  0.1200E+00
      0.836  0.9671E-06  0.1200E+00
      0.910  0.2550E-03  0.1200E+00
      0.985  0.3784E-02  0.1203E+00
      1.059  0.1119E-01  0.1211E+00
      1.133  0.1658E-01  0.1224E+00
      1.208  0.1866E-01  0.1238E+00
      1.282  0.2045E-01  0.1253E+00
      1.356  0.2357E-01  0.1270E+00
      1.431  0.2762E-01  0.1291E+00
      1.505  0.3344E-01  0.1316E+00
      1.579  0.3674E-01  0.1343E+00
      1.654  0.3391E-01  0.1368E+00
      1.728  0.3243E-01  0.1392E+00
      1.802  0.3347E-01  0.1417E+00
      1.877  0.3966E-01  0.1447E+00
      1.951  0.5008E-01  0.1484E+00
      2.025  0.5480E-01  0.1525E+00
      2.100  0.5409E-01  0.1565E+00
      2.174  0.5275E-01  0.1604E+00
      2.248  0.4947E-01  0.1641E+00
      2.323  0.4426E-01  0.1674E+00
      2.397  0.4228E-01  0.1705E+00
      2.471  0.4540E-01  0.1739E+00
      2.546  0.5211E-01  0.1778E+00
      2.620  0.4831E-01  0.1814E+00
      2.694  0.4115E-01  0.1844E+00
      2.769  0.3752E-01  0.1872E+00
      2.843  0.3974E-01  0.1902E+00
      2.917  0.4210E-01  0.1933E+00
      2.992  0.4346E-01  0.1965E+00
      3.066  0.4552E-01  0.1999E+00
      3.140  0.4583E-01  0.2033E+00
      3.215  0.4442E-01  0.2066E+00
      3.289  0.4102E-01  0.2097E+00
      3.363  0.3846E-01  0.2125E+00
      3.438  0.3583E-01  0.2152E+00
      3.512  0.3414E-01  0.2177E+00
      3.586  0.3532E-01  0.2203E+00
      3.661  0.3688E-01  0.2231E+00
      3.735  0.3646E-01  0.2258E+00
      3.809  0.3478E-01  0.2284E+00
      3.884  0.3845E-01  0.2312E+00
      3.958  0.4269E-01  0.2344E+00
      4.032  0.4465E-01  0.2377E+00
      4.107  0.4414E-01  0.2410E+00
      4.181  0.4382E-01  0.2443E+00
      4.255  0.4492E-01  0.2476E+00
      4.330  0.4628E-01  0.2511E+00
      4.404  0.4860E-01  0.2547E+00
      4.478  0.5025E-01  0.2584E+00
      4.553  0.4558E-01  0.2618E+00
      4.627  0.4283E-01  0.2650E+00
      4.701  0.4216E-01  0.2681E+00
      4.776  0.4318E-01  0.2713E+00
      4.850  0.4702E-01  0.2748E+00
      4.924  0.4944E-01  0.2785E+00
      4.999  0.4967E-01  0.2822E+00
      5.073  0.5166E-01  0.2860E+00
      5.148  0.5082E-01  0.2898E+00
      5.222  0.5047E-01  0.2935E+00
      5.296  0.4715E-01  0.2971E+00
      5.371  0.4796E-01  0.3006E+00
      5.445  0.4893E-01  0.3043E+00
      5.519  0.4898E-01  0.3079E+00
      5.594  0.5162E-01  0.3117E+00
      5.668  0.5300E-01  0.3157E+00
      5.742  0.4957E-01  0.3194E+00
      5.817  0.4898E-01  0.3230E+00
      5.891  0.5506E-01  0.3271E+00
      5.965  0.5393E-01  0.3311E+00
      6.040  0.5643E-01  0.3353E+00
      6.114  0.5967E-01  0.3397E+00
      6.188  0.6108E-01  0.3443E+00
      6.263  0.6508E-01  0.3491E+00
      6.337  0.6888E-01  0.3542E+00
      6.411  0.6776E-01  0.3593E+00
      6.486  0.6885E-01  0.3644E+00
      6.560  0.6852E-01  0.3695E+00
      6.634  0.6240E-01  0.3741E+00
      6.709  0.6319E-01  0.3788E+00
      6.783  0.6293E-01  0.3835E+00
      6.857  0.6235E-01  0.3881E+00
      6.932  0.6615E-01  0.3930E+00
      7.006  0.7219E-01  0.3984E+00
      7.080  0.8020E-01  0.4044E+00
      7.155  0.8223E-01  0.4105E+00
      7.229  0.7519E-01  0.4161E+00
      7.303  0.6351E-01  0.4208E+00
      7.378  0.5912E-01  0.4252E+00
      7.452  0.5672E-01  0.4294E+00
      7.526  0.6453E-01  0.4342E+00
      7.601  0.7605E-01  0.4399E+00
      7.675  0.7140E-01  0.4452E+00
      7.749  0.6351E-01  0.4499E+00
      7.824  0.5756E-01  0.4542E+00
      7.898  0.4867E-01  0.4578E+00
      7.972  0.4090E-01  0.4608E+00
      8.047  0.3615E-01  0.4635E+00
      8.121  0.3757E-01  0.4663E+00
      8.195  0.4517E-01  0.4697E+00
      8.270  0.4498E-01  0.4730E+00
      8.344  0.3325E-01  0.4755E+00
      8.418  0.2454E-01  0.4773E+00
      8.493  0.1845E-01  0.4787E+00
      8.567  0.1141E-01  0.4795E+00
      8.641  0.5065E-02  0.4799E+00
      8.716  0.1294E-02  0.4800E+00
      8.790  0.5280E-04  0.4800E+00
      8.864  0.9254E-07  0.4800E+00
      8.939  0.3529E-11  0.4800E+00
      9.013  0.2211E-17  0.4800E+00
      9.087  0.0000E+00  0.4800E+00
      9.162  0.0000E+00  0.4800E+00
      9.236  0.0000E+00  0.4800E+00
      9.310  0.0000E+00  0.4800E+00
      9.385  0.0000E+00  0.4800E+00
      9.459  0.0000E+00  0.4800E+00
      9.533  0.0000E+00  0.4800E+00
      9.608  0.0000E+00  0.4800E+00
      9.682  0.0000E+00  0.4800E+00
      9.756  0.0000E+00  0.4800E+00
      9.831  0.1082E-19  0.4800E+00
      9.905  0.6871E-13  0.4800E+00
      9.979  0.6335E-08  0.4800E+00
     10.054  0.1146E-04  0.4800E+00
     10.128  0.7472E-03  0.4801E+00
     10.202  0.5843E-02  0.4805E+00
     10.277  0.1580E-01  0.4817E+00
     10.351  0.2234E-01  0.4833E+00
     10.425  0.1971E-01  0.4848E+00
     10.500  0.2025E-01  0.4863E+00
     10.574  0.2427E-01  0.4881E+00
     10.648  0.2568E-01  0.4900E+00
     10.723  0.2187E-01  0.4916E+00
     10.797  0.1809E-01  0.4930E+00
     10.871  0.1818E-01  0.4943E+00
     10.946  0.1930E-01  0.4958E+00
     11.020  0.2066E-01  0.4973E+00
     11.094  0.2841E-01  0.4994E+00
     11.169  0.3513E-01  0.5020E+00
     11.243  0.3539E-01  0.5047E+00
     11.317  0.3717E-01  0.5074E+00
     11.392  0.4072E-01  0.5104E+00
     11.466  0.4097E-01  0.5135E+00
     11.541  0.3861E-01  0.5164E+00
     11.615  0.3673E-01  0.5191E+00
     11.689  0.3811E-01  0.5219E+00
     11.764  0.3863E-01  0.5248E+00
     11.838  0.3930E-01  0.5277E+00
     11.912  0.4479E-01  0.5310E+00
     11.987  0.5064E-01  0.5348E+00
     12.061  0.5124E-01  0.5386E+00
     12.135  0.4765E-01  0.5422E+00
     12.210  0.4443E-01  0.5455E+00
     12.284  0.4493E-01  0.5488E+00
     12.358  0.4478E-01  0.5521E+00
     12.433  0.4679E-01  0.5556E+00
     12.507  0.5499E-01  0.5597E+00
     12.581  0.5827E-01  0.5640E+00
     12.656  0.5914E-01  0.5684E+00
     12.730  0.5808E-01  0.5727E+00
     12.804  0.5683E-01  0.5770E+00
     12.879  0.5364E-01  0.5810E+00
     12.953  0.4887E-01  0.5846E+00
     13.027  0.4562E-01  0.5880E+00
     13.102  0.4531E-01  0.5914E+00
     13.176  0.4416E-01  0.5946E+00
     13.250  0.4266E-01  0.5978E+00
     13.325  0.4122E-01  0.6009E+00
     13.399  0.4027E-01  0.6039E+00
     13.473  0.3716E-01  0.6066E+00
     13.548  0.3899E-01  0.6095E+00
     13.622  0.4535E-01  0.6129E+00
     13.696  0.4805E-01  0.6165E+00
     13.771  0.4723E-01  0.6200E+00
     13.845  0.4400E-01  0.6232E+00
     13.919  0.4189E-01  0.6264E+00
     13.994  0.4058E-01  0.6294E+00
     14.068  0.3736E-01  0.6322E+00
     14.142  0.3330E-01  0.6346E+00
     14.217  0.2828E-01  0.6367E+00
     14.291  0.2292E-01  0.6384E+00
     14.365  0.1462E-01  0.6395E+00
     14.440  0.5160E-02  0.6399E+00
     14.514  0.1032E-02  0.6400E+00
     14.588  0.2006E-03  0.6400E+00
     14.663  0.8528E-05  0.6400E+00
     14.737  0.1449E-07  0.6400E+00
     14.811  0.5127E-12  0.6400E+00
     14.886  0.2828E-18  0.6400E+00
     14.960  0.0000E+00  0.6400E+00
     15.034  0.0000E+00  0.6400E+00
     15.109  0.0000E+00  0.6400E+00
     15.183  0.0000E+00  0.6400E+00
     15.257  0.0000E+00  0.6400E+00
     15.332  0.0000E+00  0.6400E+00
     15.406  0.0000E+00  0.6400E+00
     15.480  0.0000E+00  0.6400E+00
     15.555  0.0000E+00  0.6400E+00
