       N       E                     dE             d eps       ncg     rms          rms(c)
DAV:   1     0.335199327134E+03    0.33520E+03   -0.47013E+04738816   0.152E+03
DAV:   2    -0.158008185967E+03   -0.49321E+03   -0.46673E+03938992   0.246E+02
DAV:   3    -0.190717217409E+03   -0.32709E+02   -0.32385E+02896776   0.610E+01
DAV:   4    -0.191312224657E+03   -0.59501E+00   -0.59287E+00887384   0.901E+00
DAV:   5    -0.191324682883E+03   -0.12458E-01   -0.12448E-01872368   0.130E+00    0.283E+01
DAV:   6    -0.163071249056E+03    0.28253E+02   -0.87310E+01850576   0.271E+01    0.938E+00
DAV:   7    -0.162302938656E+03    0.76831E+00   -0.66677E+00896568   0.790E+00    0.578E+00
DAV:   8    -0.162177118284E+03    0.12582E+00   -0.42719E-01874568   0.263E+00    0.822E-01
DAV:   9    -0.162162271669E+03    0.14847E-01   -0.94363E-02871904   0.113E+00    0.454E-01
DAV:  10    -0.162161545912E+03    0.72576E-03   -0.24517E-02883280   0.557E-01    0.200E-01
DAV:  11    -0.162161642175E+03   -0.96264E-04   -0.22711E-03871296   0.178E-01    0.131E-01
DAV:  12    -0.162161654609E+03   -0.12434E-04   -0.63472E-04872664   0.814E-02    0.377E-02
DAV:  13    -0.162161632893E+03    0.21716E-04   -0.15908E-04868896   0.431E-02    0.952E-03
DAV:  14    -0.162161633824E+03   -0.93090E-06   -0.12526E-05502872   0.145E-02
   1 F= -.16216163E+03 E0= -.16216163E+03  d E =-.162162E+03
       N       E                     dE             d eps       ncg     rms          rms(c)
DAV:   1    -0.175461311838E+03   -0.13300E+02   -0.34645E+02838544   0.664E+01    0.201E+01
DAV:   2    -0.165054137753E+03    0.10407E+02   -0.36527E+01869600   0.178E+01    0.704E+00
DAV:   3    -0.164746309119E+03    0.30783E+00   -0.32288E+00899472   0.506E+00    0.261E+00
DAV:   4    -0.164609604047E+03    0.13671E+00   -0.45432E-01876376   0.180E+00    0.106E+00
DAV:   5    -0.164582579137E+03    0.27025E-01   -0.13308E-01873832   0.965E-01    0.433E-01
DAV:   6    -0.164578785337E+03    0.37938E-02   -0.10008E-02868776   0.325E-01    0.287E-01
DAV:   7    -0.164578193626E+03    0.59171E-03   -0.34188E-03876960   0.176E-01    0.681E-02
DAV:   8    -0.164578093683E+03    0.99944E-04   -0.41597E-04878184   0.743E-02    0.207E-02
DAV:   9    -0.164578103001E+03   -0.93184E-05   -0.18272E-04880224   0.382E-02    0.204E-02
DAV:  10    -0.164578095633E+03    0.73684E-05   -0.51937E-05802968   0.203E-02
   2 F= -.16457810E+03 E0= -.16457810E+03  d E =-.241646E+01
       N       E                     dE             d eps       ncg     rms          rms(c)
DAV:   1    -0.171468296495E+03   -0.68902E+01   -0.91214E+01820408   0.391E+01    0.957E+00
DAV:   2    -0.169208347952E+03    0.22599E+01   -0.73308E+00862600   0.826E+00    0.383E+00
DAV:   3    -0.169077246921E+03    0.13110E+00   -0.72494E-01867336   0.260E+00    0.127E+00
DAV:   4    -0.169045352787E+03    0.31894E-01   -0.67191E-02874952   0.756E-01    0.537E-01
DAV:   5    -0.169039533925E+03    0.58189E-02   -0.13369E-02866032   0.344E-01    0.259E-01
DAV:   6    -0.169039012242E+03    0.52168E-03   -0.15388E-03862480   0.123E-01    0.122E-01
DAV:   7    -0.169038950778E+03    0.61464E-04   -0.59318E-04871552   0.789E-02    0.188E-02
DAV:   8    -0.169038950414E+03    0.36417E-06   -0.72505E-05844648   0.344E-02
   3 F= -.16903895E+03 E0= -.16903895E+03  d E =-.687732E+01
       N       E                     dE             d eps       ncg     rms          rms(c)
DAV:   1    -0.169041807969E+03   -0.28572E-02   -0.25285E-02839736   0.635E-01    0.164E-01
DAV:   2    -0.169041143636E+03    0.66433E-03   -0.21358E-03864272   0.141E-01    0.642E-02
DAV:   3    -0.169041116398E+03    0.27238E-04   -0.21135E-04870968   0.436E-02    0.213E-02
DAV:   4    -0.169041110954E+03    0.54445E-05   -0.19049E-05501200   0.133E-02
   4 F= -.16904111E+03 E0= -.16904111E+03  d E =-.687948E+01
       N       E                     dE             d eps       ncg     rms          rms(c)
DAV:   1    -0.169041246022E+03   -0.12962E-03   -0.17022E-03842728   0.167E-01    0.423E-02
DAV:   2    -0.169041204458E+03    0.41565E-04   -0.13729E-04866992   0.359E-02    0.156E-02
DAV:   3    -0.169041203580E+03    0.87760E-06   -0.12351E-05490752   0.111E-02
   5 F= -.16904120E+03 E0= -.16904120E+03  d E =-.687957E+01
       N       E                     dE             d eps       ncg     rms          rms(c)
DAV:   1    -0.169242875010E+03   -0.20167E+00   -0.12126E+01738928   0.144E+01    0.616E-01
DAV:   2    -0.169239500161E+03    0.33748E-02   -0.21307E-01896888   0.178E+00    0.428E-01
DAV:   3    -0.169235603002E+03    0.38972E-02   -0.26348E-02890816   0.615E-01    0.205E-01
DAV:   4    -0.169235340401E+03    0.26260E-03   -0.61641E-03934720   0.250E-01    0.884E-02
DAV:   5    -0.169235265609E+03    0.74792E-04   -0.11310E-03880640   0.126E-01    0.341E-02
DAV:   6    -0.169235259015E+03    0.65936E-05   -0.27784E-04913424   0.593E-02    0.247E-02
DAV:   7    -0.169235261653E+03   -0.26380E-05   -0.32762E-05666672   0.206E-02
   6 F= -.16923526E+03 E0= -.16923526E+03  d E =-.194058E+00
       N       E                     dE             d eps       ncg     rms          rms(c)
DAV:   1    -0.169271157348E+03   -0.35898E-01   -0.45650E+00739800   0.883E+00    0.381E-01
DAV:   2    -0.169269644682E+03    0.15127E-02   -0.78911E-02899240   0.109E+00    0.258E-01
DAV:   3    -0.169268301376E+03    0.13433E-02   -0.98759E-03892432   0.377E-01    0.128E-01
DAV:   4    -0.169268198976E+03    0.10240E-03   -0.23276E-03941608   0.155E-01    0.561E-02
DAV:   5    -0.169268171049E+03    0.27927E-04   -0.45165E-04880168   0.801E-02    0.213E-02
DAV:   6    -0.169268168973E+03    0.20764E-05   -0.11425E-04892392   0.375E-02    0.154E-02
DAV:   7    -0.169268170139E+03   -0.11666E-05   -0.10552E-05500352   0.123E-02
   7 F= -.16926817E+03 E0= -.16926817E+03  d E =-.226967E+00
       N       E                     dE             d eps       ncg     rms          rms(c)
DAV:   1    -0.169369819065E+03   -0.10165E+00   -0.11300E+01738816   0.135E+01    0.618E-01
DAV:   2    -0.169372499517E+03   -0.26805E-02   -0.28818E-01883744   0.195E+00    0.445E-01
DAV:   3    -0.169366563392E+03    0.59361E-02   -0.17586E-02890392   0.535E-01    0.200E-01
DAV:   4    -0.169366645721E+03   -0.82328E-04   -0.82374E-03890568   0.281E-01    0.851E-02
DAV:   5    -0.169366633040E+03    0.12680E-04   -0.33109E-04******   0.758E-02    0.430E-02
DAV:   6    -0.169366651333E+03   -0.18293E-04   -0.15132E-04838456   0.395E-02    0.188E-02
DAV:   7    -0.169366648749E+03    0.25845E-05   -0.19031E-05537912   0.186E-02
   8 F= -.16936665E+03 E0= -.16936665E+03  d E =-.984786E-01
       N       E                     dE             d eps       ncg     rms          rms(c)
DAV:   1    -0.169368966853E+03   -0.23155E-02   -0.31821E-01751496   0.227E+00    0.104E-01
DAV:   2    -0.169369020955E+03   -0.54101E-04   -0.81145E-03883456   0.324E-01    0.744E-02
DAV:   3    -0.169368856927E+03    0.16403E-03   -0.49295E-04892328   0.899E-02    0.338E-02
DAV:   4    -0.169368859950E+03   -0.30226E-05   -0.23034E-04866432   0.468E-02    0.149E-02
DAV:   5    -0.169368859741E+03    0.20891E-06   -0.74267E-06496880   0.127E-02
   9 F= -.16936886E+03 E0= -.16936886E+03  d E =-.100690E+00
       N       E                     dE             d eps       ncg     rms          rms(c)
DAV:   1    -0.169391341532E+03   -0.22482E-01   -0.26404E+00739480   0.667E+00    0.266E-01
DAV:   2    -0.169393324785E+03   -0.19833E-02   -0.51903E-02913616   0.822E-01    0.192E-01
DAV:   3    -0.169392194249E+03    0.11305E-02   -0.19205E-03885648   0.192E-01    0.104E-01
DAV:   4    -0.169391992005E+03    0.20224E-03   -0.23135E-03891296   0.161E-01    0.421E-02
DAV:   5    -0.169391990287E+03    0.17180E-05   -0.26643E-04900936   0.618E-02    0.284E-02
DAV:   6    -0.169391992426E+03   -0.21390E-05   -0.10532E-04863328   0.339E-02    0.116E-02
DAV:   7    -0.169391991165E+03    0.12613E-05   -0.14694E-05490352   0.150E-02
  10 F= -.16939199E+03 E0= -.16939199E+03  d E =-.231314E-01
       N       E                     dE             d eps       ncg     rms          rms(c)
DAV:   1    -0.169394460285E+03   -0.24679E-02   -0.60584E-01741120   0.320E+00    0.128E-01
DAV:   2    -0.169394895302E+03   -0.43502E-03   -0.11935E-02914504   0.393E-01    0.920E-02
DAV:   3    -0.169394635111E+03    0.26019E-03   -0.44517E-04885960   0.927E-02    0.497E-02
DAV:   4    -0.169394590704E+03    0.44407E-04   -0.53392E-04892168   0.772E-02    0.198E-02
DAV:   5    -0.169394589987E+03    0.71681E-06   -0.57905E-05662824   0.296E-02
  11 F= -.16939459E+03 E0= -.16939459E+03  d E =-.257302E-01
       N       E                     dE             d eps       ncg     rms          rms(c)
DAV:   1    -0.169405481011E+03   -0.10890E-01   -0.49657E-01740960   0.296E+00    0.129E-01
DAV:   2    -0.169406072041E+03   -0.59103E-03   -0.11463E-02925480   0.384E-01    0.971E-02
DAV:   3    -0.169405962370E+03    0.10967E-03   -0.59252E-04916304   0.954E-02    0.609E-02
DAV:   4    -0.169405947146E+03    0.15224E-04   -0.33087E-04892736   0.619E-02    0.261E-02
DAV:   5    -0.169405948705E+03   -0.15592E-05   -0.30626E-05643016   0.239E-02
  12 F= -.16940595E+03 E0= -.16940595E+03  d E =-.113587E-01
       N       E                     dE             d eps       ncg     rms          rms(c)
DAV:   1    -0.169407550438E+03   -0.16033E-02   -0.16633E-01748704   0.171E+00    0.748E-02
DAV:   2    -0.169407760715E+03   -0.21028E-03   -0.38517E-03926280   0.222E-01    0.561E-02
DAV:   3    -0.169407726066E+03    0.34649E-04   -0.19261E-04919680   0.547E-02    0.355E-02
DAV:   4    -0.169407722374E+03    0.36928E-05   -0.11390E-04867616   0.363E-02    0.153E-02
DAV:   5    -0.169407723173E+03   -0.79960E-06   -0.93468E-06499304   0.138E-02
  13 F= -.16940772E+03 E0= -.16940772E+03  d E =-.131332E-01
       N       E                     dE             d eps       ncg     rms          rms(c)
DAV:   1    -0.169415571240E+03   -0.78489E-02   -0.49178E-01739680   0.290E+00    0.150E-01
DAV:   2    -0.169416946632E+03   -0.13754E-02   -0.18634E-02909768   0.486E-01    0.125E-01
DAV:   3    -0.169416697509E+03    0.24912E-03   -0.71667E-04******   0.113E-01    0.825E-02
DAV:   4    -0.169416648781E+03    0.48728E-04   -0.67929E-04884784   0.897E-02    0.320E-02
DAV:   5    -0.169416652665E+03   -0.38844E-05   -0.66637E-05836992   0.313E-02
  14 F= -.16941665E+03 E0= -.16941665E+03  d E =-.892949E-02
       N       E                     dE             d eps       ncg     rms          rms(c)
DAV:   1    -0.169417348068E+03   -0.69929E-03   -0.91443E-02743504   0.125E+00    0.670E-02
DAV:   2    -0.169417633502E+03   -0.28543E-03   -0.36649E-03912208   0.214E-01    0.552E-02
DAV:   3    -0.169417584538E+03    0.48963E-04   -0.12874E-04988912   0.488E-02    0.369E-02
DAV:   4    -0.169417575220E+03    0.93180E-05   -0.14705E-04873248   0.416E-02    0.140E-02
DAV:   5    -0.169417576281E+03   -0.10604E-05   -0.13067E-05512328   0.143E-02
  15 F= -.16941758E+03 E0= -.16941758E+03  d E =-.985311E-02
       N       E                     dE             d eps       ncg     rms          rms(c)
DAV:   1    -0.169419523792E+03   -0.19486E-02   -0.40388E-01739504   0.255E+00    0.113E-01
DAV:   2    -0.169419524671E+03   -0.87983E-06   -0.94850E-03895960   0.357E-01    0.850E-02
DAV:   3    -0.169419378344E+03    0.14633E-03   -0.67087E-04897456   0.105E-01    0.421E-02
DAV:   4    -0.169419378580E+03   -0.23578E-06   -0.27735E-04887056   0.507E-02    0.126E-02
DAV:   5    -0.169419379976E+03   -0.13955E-05   -0.15623E-05537768   0.168E-02
  16 F= -.16941938E+03 E0= -.16941938E+03  d E =-.180369E-02
       N       E                     dE             d eps       ncg     rms          rms(c)
DAV:   1    -0.169419529625E+03   -0.15105E-03   -0.18405E-02743456   0.545E-01    0.237E-02
DAV:   2    -0.169419525524E+03    0.41019E-05   -0.43330E-04893784   0.762E-02    0.183E-02
DAV:   3    -0.169419518168E+03    0.73557E-05   -0.33252E-05779896   0.235E-02
  17 F= -.16941952E+03 E0= -.16941952E+03  d E =-.194189E-02
       N       E                     dE             d eps       ncg     rms          rms(c)
DAV:   1    -0.169420681331E+03   -0.11558E-02   -0.67113E-02740744   0.109E+00    0.573E-02
DAV:   2    -0.169420665539E+03    0.15792E-04   -0.10814E-03907352   0.118E-01    0.335E-02
DAV:   3    -0.169420653736E+03    0.11803E-04   -0.88607E-05887192   0.338E-02    0.168E-02
DAV:   4    -0.169420653599E+03    0.13684E-06   -0.20639E-05579048   0.142E-02
  18 F= -.16942065E+03 E0= -.16942065E+03  d E =-.113543E-02
       N       E                     dE             d eps       ncg     rms          rms(c)
DAV:   1    -0.169420757586E+03   -0.10385E-03   -0.10707E-02744888   0.436E-01    0.238E-02
DAV:   2    -0.169420755007E+03    0.25790E-05   -0.17727E-04912240   0.479E-02    0.140E-02
DAV:   3    -0.169420752958E+03    0.20493E-05   -0.12411E-05533192   0.136E-02
  19 F= -.16942075E+03 E0= -.16942075E+03  d E =-.123479E-02
       N       E                     dE             d eps       ncg     rms          rms(c)
DAV:   1    -0.169421478599E+03   -0.72359E-03   -0.15355E-01739760   0.163E+00    0.637E-02
DAV:   2    -0.169421569097E+03   -0.90498E-04   -0.29338E-03892936   0.196E-01    0.468E-02
DAV:   3    -0.169421517803E+03    0.51294E-04   -0.16535E-04955784   0.559E-02    0.236E-02
DAV:   4    -0.169421517478E+03    0.32543E-06   -0.87822E-05802240   0.313E-02
  20 F= -.16942152E+03 E0= -.16942152E+03  d E =-.764520E-03
       N       E                     dE             d eps       ncg     rms          rms(c)
DAV:   1    -0.169421520770E+03   -0.29669E-05   -0.43104E-04807864   0.876E-02    0.620E-03
DAV:   2    -0.169421521553E+03   -0.78263E-06   -0.83431E-06504968   0.107E-02
  21 F= -.16942152E+03 E0= -.16942152E+03  d E =-.768595E-03
       N       E                     dE             d eps       ncg     rms          rms(c)
DAV:   1    -0.169421777249E+03   -0.25648E-03   -0.47205E-02740392   0.880E-01    0.337E-02
DAV:   2    -0.169421806072E+03   -0.28823E-04   -0.89121E-04891576   0.105E-01    0.265E-02
DAV:   3    -0.169421786870E+03    0.19202E-04   -0.40216E-05798576   0.288E-02    0.135E-02
DAV:   4    -0.169421785973E+03    0.89685E-06   -0.32078E-05597264   0.192E-02
  22 F= -.16942179E+03 E0= -.16942179E+03  d E =-.264421E-03
       N       E                     dE             d eps       ncg     rms          rms(c)
DAV:   1    -0.169421795591E+03   -0.87203E-05   -0.19388E-03748784   0.178E-01    0.826E-03
DAV:   2    -0.169421796582E+03   -0.99103E-06   -0.35116E-05730440   0.213E-02
  23 F= -.16942180E+03 E0= -.16942180E+03  d E =-.275029E-03
       N       E                     dE             d eps       ncg     rms          rms(c)
DAV:   1    -0.169421854200E+03   -0.58609E-04   -0.19298E-02740896   0.577E-01    0.229E-02
DAV:   2    -0.169421857538E+03   -0.33385E-05   -0.31073E-04898864   0.656E-02    0.162E-02
DAV:   3    -0.169421850634E+03    0.69043E-05   -0.19418E-05582224   0.185E-02
  24 F= -.16942185E+03 E0= -.16942185E+03  d E =-.540525E-04
       N       E                     dE             d eps       ncg     rms          rms(c)
DAV:   1    -0.169421851498E+03    0.60401E-05   -0.32373E-04751800   0.736E-02    0.330E-03
DAV:   2    -0.169421852192E+03   -0.69414E-06   -0.10140E-05426136   0.111E-02
  25 F= -.16942185E+03 E0= -.16942185E+03  d E =-.556108E-04
