  28  28   0   0
  0.9237919E+01  0.8893859E-09  0.2999184E-09  0.9697031E-09  0.5000000E-15
  1.000000000000000E-004
  CAR 
 Al4C3 Pnma-III - r2SCAN H(P) scan @ 30 G
     19.44200005     -7.18234967  301     10.48401572      1.00000000
     -7.182  0.0000E+00  0.0000E+00
     -7.094  0.0000E+00  0.0000E+00
     -7.005  0.0000E+00  0.0000E+00
     -6.916  0.0000E+00  0.0000E+00
     -6.827  0.0000E+00  0.0000E+00
     -6.739  0.0000E+00  0.0000E+00
     -6.650  0.0000E+00  0.0000E+00
     -6.561  0.0000E+00  0.0000E+00
     -6.472  0.0000E+00  0.0000E+00
     -6.384  0.0000E+00  0.0000E+00
     -6.295  0.0000E+00  0.0000E+00
     -6.206  0.1168E-13  0.1036E-14
     -6.117  0.1280E-07  0.1136E-08
     -6.029  0.3530E-04  0.3134E-05
     -5.940  0.6110E-03  0.5736E-04
     -5.851  0.2715E-02  0.2983E-03
     -5.762  0.5299E-02  0.7685E-03
     -5.674  0.5643E-02  0.1269E-02
     -5.585  0.4784E-02  0.1694E-02
     -5.496  0.6635E-02  0.2283E-02
     -5.407  0.1109E-01  0.3267E-02
     -5.319  0.1198E-01  0.4330E-02
     -5.230  0.5350E-02  0.4805E-02
     -5.141  0.7441E-02  0.5465E-02
     -5.052  0.1366E-01  0.6677E-02
     -4.964  0.1444E-01  0.7958E-02
     -4.875  0.5282E-02  0.8427E-02
     -4.786  0.1307E-01  0.9587E-02
     -4.697  0.1627E-01  0.1103E-01
     -4.609  0.1686E-01  0.1253E-01
     -4.520  0.8201E-02  0.1325E-01
     -4.431  0.1651E-01  0.1472E-01
     -4.342  0.1467E-01  0.1602E-01
     -4.254  0.2143E-01  0.1792E-01
     -4.165  0.1424E-01  0.1919E-01
     -4.076  0.1305E-01  0.2035E-01
     -3.987  0.1336E-01  0.2153E-01
     -3.899  0.2252E-01  0.2353E-01
     -3.810  0.1762E-01  0.2509E-01
     -3.721  0.2389E-01  0.2721E-01
     -3.632  0.1866E-01  0.2887E-01
     -3.544  0.8576E-02  0.2963E-01
     -3.455  0.1976E-01  0.3138E-01
     -3.366  0.3266E-01  0.3428E-01
     -3.277  0.1944E-01  0.3601E-01
     -3.189  0.1111E-01  0.3699E-01
     -3.100  0.2447E-01  0.3917E-01
     -3.011  0.2925E-01  0.4176E-01
     -2.922  0.2473E-01  0.4396E-01
     -2.834  0.2843E-01  0.4648E-01
     -2.745  0.2687E-01  0.4887E-01
     -2.656  0.3411E-01  0.5189E-01
     -2.567  0.2908E-01  0.5447E-01
     -2.479  0.1937E-01  0.5619E-01
     -2.390  0.2945E-01  0.5881E-01
     -2.301  0.2580E-01  0.6110E-01
     -2.212  0.2739E-01  0.6353E-01
     -2.124  0.4550E-01  0.6756E-01
     -2.035  0.3433E-01  0.7061E-01
     -1.946  0.3123E-01  0.7338E-01
     -1.857  0.3204E-01  0.7623E-01
     -1.769  0.5083E-01  0.8074E-01
     -1.680  0.5002E-01  0.8518E-01
     -1.591  0.5266E-01  0.8985E-01
     -1.502  0.5359E-01  0.9461E-01
     -1.414  0.3768E-01  0.9795E-01
     -1.325  0.2850E-01  0.1005E+00
     -1.236  0.2899E-01  0.1031E+00
     -1.147  0.1901E-01  0.1047E+00
     -1.059  0.2711E-01  0.1071E+00
     -0.970  0.2545E-01  0.1094E+00
     -0.881  0.2304E-01  0.1114E+00
     -0.793  0.2218E-01  0.1134E+00
     -0.704  0.1924E-01  0.1151E+00
     -0.615  0.1980E-01  0.1169E+00
     -0.526  0.1592E-01  0.1183E+00
     -0.438  0.1595E-01  0.1197E+00
     -0.349  0.3189E-02  0.1200E+00
     -0.260  0.7486E-04  0.1200E+00
     -0.171  0.1587E-07  0.1200E+00
     -0.083  0.1018E-13  0.1200E+00
      0.006  0.0000E+00  0.1200E+00
      0.095  0.0000E+00  0.1200E+00
      0.184  0.0000E+00  0.1200E+00
      0.272  0.0000E+00  0.1200E+00
      0.361  0.0000E+00  0.1200E+00
      0.450  0.0000E+00  0.1200E+00
      0.539  0.0000E+00  0.1200E+00
      0.627  0.0000E+00  0.1200E+00
      0.716  0.0000E+00  0.1200E+00
      0.805  0.0000E+00  0.1200E+00
      0.894  0.0000E+00  0.1200E+00
      0.982  0.0000E+00  0.1200E+00
      1.071  0.0000E+00  0.1200E+00
      1.160  0.0000E+00  0.1200E+00
      1.249  0.1422E-18  0.1200E+00
      1.337  0.7902E-11  0.1200E+00
      1.426  0.9275E-06  0.1200E+00
      1.515  0.3192E-03  0.1200E+00
      1.604  0.1116E-02  0.1201E+00
      1.692  0.4266E-02  0.1205E+00
      1.781  0.8434E-02  0.1213E+00
      1.870  0.1943E-01  0.1230E+00
      1.959  0.1696E-01  0.1245E+00
      2.047  0.1241E-01  0.1256E+00
      2.136  0.1730E-01  0.1271E+00
      2.225  0.2705E-01  0.1295E+00
      2.314  0.3355E-01  0.1325E+00
      2.402  0.4101E-01  0.1361E+00
      2.491  0.2881E-01  0.1387E+00
      2.580  0.2544E-01  0.1410E+00
      2.669  0.4297E-01  0.1448E+00
      2.757  0.5231E-01  0.1494E+00
      2.846  0.4022E-01  0.1530E+00
      2.935  0.3851E-01  0.1564E+00
      3.024  0.4188E-01  0.1601E+00
      3.112  0.3781E-01  0.1635E+00
      3.201  0.3880E-01  0.1669E+00
      3.290  0.4223E-01  0.1707E+00
      3.379  0.3362E-01  0.1736E+00
      3.467  0.3865E-01  0.1771E+00
      3.556  0.4522E-01  0.1811E+00
      3.645  0.4416E-01  0.1850E+00
      3.734  0.5177E-01  0.1896E+00
      3.822  0.3782E-01  0.1930E+00
      3.911  0.2975E-01  0.1956E+00
      4.000  0.4648E-01  0.1997E+00
      4.089  0.3272E-01  0.2026E+00
      4.177  0.2493E-01  0.2048E+00
      4.266  0.3082E-01  0.2076E+00
      4.355  0.2406E-01  0.2097E+00
      4.444  0.3999E-01  0.2133E+00
      4.532  0.4650E-01  0.2174E+00
      4.621  0.4291E-01  0.2212E+00
      4.710  0.3818E-01  0.2246E+00
      4.799  0.3255E-01  0.2275E+00
      4.887  0.2895E-01  0.2300E+00
      4.976  0.3662E-01  0.2333E+00
      5.065  0.3497E-01  0.2364E+00
      5.154  0.3327E-01  0.2393E+00
      5.242  0.3697E-01  0.2426E+00
      5.331  0.3873E-01  0.2461E+00
      5.420  0.4594E-01  0.2501E+00
      5.509  0.5095E-01  0.2547E+00
      5.597  0.5074E-01  0.2592E+00
      5.686  0.3729E-01  0.2625E+00
      5.775  0.3330E-01  0.2654E+00
      5.864  0.6530E-01  0.2712E+00
      5.952  0.3295E-01  0.2741E+00
      6.041  0.3446E-01  0.2772E+00
      6.130  0.2735E-01  0.2796E+00
      6.219  0.5361E-01  0.2844E+00
      6.307  0.3562E-01  0.2876E+00
      6.396  0.3760E-01  0.2909E+00
      6.485  0.5177E-01  0.2955E+00
      6.574  0.4703E-01  0.2997E+00
      6.662  0.3440E-01  0.3027E+00
      6.751  0.4034E-01  0.3063E+00
      6.840  0.4178E-01  0.3100E+00
      6.929  0.4597E-01  0.3141E+00
      7.017  0.5504E-01  0.3190E+00
      7.106  0.5568E-01  0.3239E+00
      7.195  0.3841E-01  0.3273E+00
      7.284  0.3617E-01  0.3305E+00
      7.372  0.4406E-01  0.3344E+00
      7.461  0.4636E-01  0.3385E+00
      7.550  0.5746E-01  0.3436E+00
      7.639  0.4379E-01  0.3475E+00
      7.727  0.5532E-01  0.3524E+00
      7.816  0.5592E-01  0.3574E+00
      7.905  0.6339E-01  0.3630E+00
      7.994  0.5959E-01  0.3683E+00
      8.082  0.6751E-01  0.3743E+00
      8.171  0.6684E-01  0.3802E+00
      8.260  0.5879E-01  0.3855E+00
      8.349  0.5056E-01  0.3899E+00
      8.437  0.5496E-01  0.3948E+00
      8.526  0.6722E-01  0.4008E+00
      8.615  0.6973E-01  0.4070E+00
      8.704  0.5961E-01  0.4123E+00
      8.792  0.4746E-01  0.4165E+00
      8.881  0.5955E-01  0.4218E+00
      8.970  0.5342E-01  0.4265E+00
      9.059  0.5838E-01  0.4317E+00
      9.147  0.5786E-01  0.4368E+00
      9.236  0.6238E-01  0.4424E+00
      9.325  0.6112E-01  0.4478E+00
      9.413  0.5747E-01  0.4529E+00
      9.502  0.5065E-01  0.4574E+00
      9.591  0.4029E-01  0.4610E+00
      9.680  0.3936E-01  0.4644E+00
      9.768  0.5159E-01  0.4690E+00
      9.857  0.3065E-01  0.4717E+00
      9.946  0.2888E-01  0.4743E+00
     10.035  0.2055E-01  0.4761E+00
     10.123  0.2207E-01  0.4781E+00
     10.212  0.1426E-01  0.4794E+00
     10.301  0.6798E-02  0.4800E+00
     10.390  0.4543E-03  0.4800E+00
     10.478  0.4914E-06  0.4800E+00
     10.567  0.2540E-11  0.4800E+00
     10.656  0.0000E+00  0.4800E+00
     10.745  0.0000E+00  0.4800E+00
     10.833  0.0000E+00  0.4800E+00
     10.922  0.0000E+00  0.4800E+00
     11.011  0.0000E+00  0.4800E+00
     11.100  0.0000E+00  0.4800E+00
     11.188  0.0000E+00  0.4800E+00
     11.277  0.0000E+00  0.4800E+00
     11.366  0.0000E+00  0.4800E+00
     11.455  0.0000E+00  0.4800E+00
     11.543  0.0000E+00  0.4800E+00
     11.632  0.0000E+00  0.4800E+00
     11.721  0.0000E+00  0.4800E+00
     11.810  0.0000E+00  0.4800E+00
     11.898  0.0000E+00  0.4800E+00
     11.987  0.0000E+00  0.4800E+00
     12.076  0.0000E+00  0.4800E+00
     12.165  0.1899E-12  0.4800E+00
     12.253  0.1248E-06  0.4800E+00
     12.342  0.2134E-03  0.4800E+00
     12.431  0.2612E-02  0.4803E+00
     12.520  0.3114E-02  0.4805E+00
     12.608  0.8892E-02  0.4813E+00
     12.697  0.1132E-01  0.4823E+00
     12.786  0.1059E-01  0.4833E+00
     12.875  0.1793E-01  0.4849E+00
     12.963  0.2183E-01  0.4868E+00
     13.052  0.2060E-01  0.4886E+00
     13.141  0.1684E-01  0.4901E+00
     13.230  0.2467E-01  0.4923E+00
     13.318  0.3139E-01  0.4951E+00
     13.407  0.1600E-01  0.4965E+00
     13.496  0.2633E-01  0.4988E+00
     13.585  0.3081E-01  0.5016E+00
     13.673  0.3685E-01  0.5048E+00
     13.762  0.3087E-01  0.5076E+00
     13.851  0.3598E-01  0.5108E+00
     13.940  0.5378E-01  0.5156E+00
     14.028  0.3037E-01  0.5183E+00
     14.117  0.2663E-01  0.5206E+00
     14.206  0.2281E-01  0.5226E+00
     14.295  0.1867E-01  0.5243E+00
     14.383  0.3620E-01  0.5275E+00
     14.472  0.4914E-01  0.5319E+00
     14.561  0.5238E-01  0.5365E+00
     14.650  0.3443E-01  0.5396E+00
     14.738  0.3085E-01  0.5423E+00
     14.827  0.2908E-01  0.5449E+00
     14.916  0.3866E-01  0.5483E+00
     15.005  0.4140E-01  0.5520E+00
     15.093  0.4064E-01  0.5556E+00
     15.182  0.3955E-01  0.5591E+00
     15.271  0.3736E-01  0.5624E+00
     15.360  0.4040E-01  0.5660E+00
     15.448  0.4139E-01  0.5697E+00
     15.537  0.3207E-01  0.5725E+00
     15.626  0.4240E-01  0.5763E+00
     15.715  0.4995E-01  0.5807E+00
     15.803  0.4709E-01  0.5849E+00
     15.892  0.3124E-01  0.5877E+00
     15.981  0.4414E-01  0.5916E+00
     16.070  0.4914E-01  0.5960E+00
     16.158  0.3259E-01  0.5989E+00
     16.247  0.3561E-01  0.6020E+00
     16.336  0.4865E-01  0.6063E+00
     16.425  0.4122E-01  0.6100E+00
     16.513  0.3624E-01  0.6132E+00
     16.602  0.4284E-01  0.6170E+00
     16.691  0.3454E-01  0.6201E+00
     16.780  0.3755E-01  0.6234E+00
     16.868  0.4515E-01  0.6274E+00
     16.957  0.3781E-01  0.6308E+00
     17.046  0.2729E-01  0.6332E+00
     17.135  0.2816E-01  0.6357E+00
     17.223  0.3580E-01  0.6389E+00
     17.312  0.3775E-01  0.6422E+00
     17.401  0.3321E-01  0.6452E+00
     17.490  0.3624E-01  0.6484E+00
     17.578  0.4063E-01  0.6520E+00
     17.667  0.2614E-01  0.6543E+00
     17.756  0.1596E-01  0.6557E+00
     17.845  0.2002E-01  0.6575E+00
     17.933  0.1590E-01  0.6589E+00
     18.022  0.5612E-02  0.6594E+00
     18.111  0.4383E-02  0.6598E+00
     18.200  0.1258E-02  0.6599E+00
     18.288  0.9868E-03  0.6600E+00
     18.377  0.7052E-04  0.6600E+00
     18.466  0.2560E-07  0.6600E+00
     18.555  0.2335E-13  0.6600E+00
     18.643  0.0000E+00  0.6600E+00
     18.732  0.0000E+00  0.6600E+00
     18.821  0.0000E+00  0.6600E+00
     18.910  0.0000E+00  0.6600E+00
     18.998  0.0000E+00  0.6600E+00
     19.087  0.0000E+00  0.6600E+00
     19.176  0.0000E+00  0.6600E+00
     19.265  0.0000E+00  0.6600E+00
     19.353  0.0000E+00  0.6600E+00
     19.442  0.0000E+00  0.6600E+00
