       N       E                     dE             d eps       ncg     rms          rms(c)
DAV:   1    -0.264595167181E+03   -0.26460E+03   -0.10723E+02  8280   0.284E+01    0.298E+01
DAV:   2    -0.225962737389E+03    0.38632E+02   -0.63908E+01  7944   0.226E+01    0.116E+01
DAV:   3    -0.226303637725E+03   -0.34090E+00   -0.63615E+00  8250   0.822E+00    0.816E+00
DAV:   4    -0.226632733663E+03   -0.32910E+00   -0.40440E-01  8688   0.226E+00    0.547E+00
DAV:   5    -0.226758632682E+03   -0.12590E+00   -0.24958E-01  7896   0.229E+00    0.104E+00
DAV:   6    -0.226755684769E+03    0.29479E-02   -0.21065E-02  8136   0.536E-01    0.273E-01
DAV:   7    -0.226756924387E+03   -0.12396E-02   -0.24637E-03  9018   0.210E-01    0.187E-01
DAV:   8    -0.226757743175E+03   -0.81879E-03   -0.11309E-03  7896   0.142E-01    0.760E-02
DAV:   9    -0.226757866635E+03   -0.12346E-03   -0.10835E-04  8736   0.515E-02    0.436E-02
DAV:  10    -0.226757894921E+03   -0.28286E-04   -0.87613E-05  7776   0.409E-02    0.173E-02
DAV:  11    -0.226757895152E+03   -0.23090E-06   -0.39132E-06  4386   0.850E-03
   1 F= -.17832473E+03 E0= -.17832473E+03  d E =-.178325E+03
       N       E                     dE             d eps       ncg     rms          rms(c)
DAV:   1    -0.225181485251E+03    0.15764E+01   -0.35368E+00  7572   0.795E+00    0.169E+00
DAV:   2    -0.225145792300E+03    0.35693E-01   -0.18735E-01  8604   0.147E+00    0.932E-01
DAV:   3    -0.225145407213E+03    0.38509E-03   -0.30050E-02  8352   0.528E-01    0.346E-01
DAV:   4    -0.225145829420E+03   -0.42221E-03   -0.10626E-03  8490   0.142E-01    0.185E-01
DAV:   5    -0.225145933838E+03   -0.10442E-03   -0.23042E-04  8370   0.646E-02    0.134E-01
DAV:   6    -0.225145962070E+03   -0.28232E-04   -0.96501E-05  8298   0.466E-02    0.313E-02
DAV:   7    -0.225145961991E+03    0.78706E-07   -0.22805E-05  4428   0.174E-02
   2 F= -.17826579E+03 E0= -.17826579E+03  d E =0.589441E-01
       N       E                     dE             d eps       ncg     rms          rms(c)
DAV:   1    -0.226192138884E+03   -0.10462E+01   -0.12648E+00  7608   0.469E+00    0.102E+00
DAV:   2    -0.226180939090E+03    0.11200E-01   -0.69036E-02  8622   0.886E-01    0.560E-01
DAV:   3    -0.226181018526E+03   -0.79436E-04   -0.10950E-02  8382   0.317E-01    0.209E-01
DAV:   4    -0.226181208006E+03   -0.18948E-03   -0.38943E-04  8454   0.863E-02    0.111E-01
DAV:   5    -0.226181243074E+03   -0.35068E-04   -0.90539E-05  8232   0.402E-02    0.800E-02
DAV:   6    -0.226181243131E+03   -0.57044E-07   -0.36834E-05  7104   0.284E-02
   3 F= -.17836885E+03 E0= -.17836885E+03  d E =-.441195E-01
       N       E                     dE             d eps       ncg     rms          rms(c)
DAV:   1    -0.226173134207E+03    0.81089E-02   -0.79565E-05  7626   0.396E-02    0.161E-02
DAV:   2    -0.226173128981E+03    0.52261E-05   -0.65766E-06  4098   0.926E-03
   4 F= -.17836884E+03 E0= -.17836884E+03  d E =-.441100E-01
       N       E                     dE             d eps       ncg     rms          rms(c)
DAV:   1    -0.226175140708E+03   -0.20065E-02   -0.12292E-05  4050   0.139E-02    0.275E-03
DAV:   2    -0.226175140490E+03    0.21885E-06   -0.89528E-07  3930   0.408E-03
   5 F= -.17836884E+03 E0= -.17836884E+03  d E =-.441089E-01
       N       E                     dE             d eps       ncg     rms          rms(c)
DAV:   1    -0.226176991165E+03   -0.18505E-02   -0.43465E-06  3876   0.927E-03    0.203E-03
DAV:   2    -0.226176991313E+03   -0.14728E-06   -0.32998E-07  3870   0.256E-03
   6 F= -.17836884E+03 E0= -.17836884E+03  d E =-.441092E-01
       N       E                     dE             d eps       ncg     rms          rms(c)
DAV:   1    -0.226187690244E+03   -0.10699E-01   -0.46813E-02  7158   0.895E-01    0.434E-02
DAV:   2    -0.226187755136E+03   -0.64892E-04   -0.13827E-03  8808   0.137E-01    0.380E-02
DAV:   3    -0.226187730078E+03    0.25058E-04   -0.51023E-05  8094   0.324E-02    0.246E-02
DAV:   4    -0.226187719644E+03    0.10435E-04   -0.57910E-05  7992   0.289E-02    0.898E-03
DAV:   5    -0.226187718161E+03    0.14822E-05   -0.76817E-06  4380   0.106E-02
   7 F= -.17836967E+03 E0= -.17836967E+03  d E =-.825723E-03
       N       E                     dE             d eps       ncg     rms          rms(c)
DAV:   1    -0.226189965381E+03   -0.22457E-02   -0.23500E-03  7284   0.201E-01    0.104E-02
DAV:   2    -0.226189967913E+03   -0.25321E-05   -0.75486E-05  8844   0.320E-02
   8 F= -.17836969E+03 E0= -.17836969E+03  d E =-.854711E-03
       N       E                     dE             d eps       ncg     rms          rms(c)
DAV:   1    -0.226204860222E+03   -0.14895E-01   -0.49004E-02  7128   0.905E-01    0.462E-02
DAV:   2    -0.226204846633E+03    0.13589E-04   -0.76449E-04  8784   0.111E-01    0.305E-02
DAV:   3    -0.226204833981E+03    0.12652E-04   -0.64973E-05  8586   0.316E-02    0.172E-02
DAV:   4    -0.226204827936E+03    0.60451E-05   -0.18603E-05  4602   0.165E-02
   9 F= -.17837013E+03 E0= -.17837013E+03  d E =-.436291E-03
       N       E                     dE             d eps       ncg     rms          rms(c)
DAV:   1    -0.226206655402E+03   -0.18214E-02   -0.77962E-04  7308   0.114E-01    0.724E-03
DAV:   2    -0.226206655124E+03    0.27797E-06   -0.91693E-06  5874   0.134E-02
  10 F= -.17837014E+03 E0= -.17837014E+03  d E =-.442302E-03
       N       E                     dE             d eps       ncg     rms          rms(c)
DAV:   1    -0.226208288290E+03   -0.16329E-02   -0.25481E-02  7128   0.664E-01    0.290E-02
DAV:   2    -0.226208303660E+03   -0.15370E-04   -0.35586E-04  8946   0.717E-02    0.204E-02
DAV:   3    -0.226208297814E+03    0.58465E-05   -0.12575E-05  5340   0.166E-02
  11 F= -.17837050E+03 E0= -.17837050E+03  d E =-.359947E-03
       N       E                     dE             d eps       ncg     rms          rms(c)
DAV:   1    -0.226209039841E+03   -0.73618E-03   -0.74699E-03  7158   0.359E-01    0.182E-02
DAV:   2    -0.226209040860E+03   -0.10195E-05   -0.89806E-05  8964   0.366E-02
  12 F= -.17837054E+03 E0= -.17837054E+03  d E =-.402465E-03
       N       E                     dE             d eps       ncg     rms          rms(c)
DAV:   1    -0.226206182505E+03    0.28573E-02   -0.23706E-02  7140   0.631E-01    0.299E-02
DAV:   2    -0.226206215702E+03   -0.33197E-04   -0.57697E-04  8754   0.916E-02    0.251E-02
DAV:   3    -0.226206207026E+03    0.86762E-05   -0.23007E-05  6426   0.234E-02
  13 F= -.17837064E+03 E0= -.17837064E+03  d E =-.970654E-04
       N       E                     dE             d eps       ncg     rms          rms(c)
DAV:   1    -0.226206823219E+03   -0.60752E-03   -0.11691E-03  7176   0.140E-01    0.721E-03
DAV:   2    -0.226206822574E+03    0.64517E-06   -0.51732E-05  7608   0.273E-02
  14 F= -.17837064E+03 E0= -.17837064E+03  d E =-.103838E-03
       N       E                     dE             d eps       ncg     rms          rms(c)
DAV:   1    -0.226206968816E+03   -0.14560E-03   -0.59720E-05  6660   0.324E-02    0.439E-03
DAV:   2    -0.226206967266E+03    0.15500E-05   -0.14207E-06  3678   0.582E-03
  15 F= -.17837064E+03 E0= -.17837064E+03  d E =-.101577E-03
       N       E                     dE             d eps       ncg     rms          rms(c)
DAV:   1    -0.226208317018E+03   -0.13482E-02   -0.64116E-03  7134   0.326E-01    0.142E-02
DAV:   2    -0.226208315839E+03    0.11785E-05   -0.93438E-05  8688   0.369E-02
  16 F= -.17837069E+03 E0= -.17837069E+03  d E =-.452122E-04
