Al4C3 Pnma-III - r2SCAN H(P) scan @ 30 G
           1
     8.893859    0.000000    0.000000
     0.000000    2.999184    0.000000
     0.000000    0.000000    9.697031
   Al   C 
    16    12
Direct configuration=     1
   0.73862842  0.25000000  0.71510522
   0.76137158  0.75000000  0.21510522
   0.26137158  0.75000000  0.28489478
   0.23862842  0.25000000  0.78489478
   0.60694933  0.25000000  0.47271254
   0.89305067  0.75000000  0.97271254
   0.39305067  0.75000000  0.52728746
   0.10694933  0.25000000  0.02728746
   0.13590126  0.25000000  0.51790586
   0.36409874  0.75000000  0.01790586
   0.86409874  0.75000000  0.48209414
   0.63590126  0.25000000  0.98209414
   0.99089628  0.25000000  0.28055629
   0.50910372  0.75000000  0.78055629
   0.00910372  0.75000000  0.71944371
   0.49089628  0.25000000  0.21944371
   0.92865735  0.25000000  0.61977712
   0.57134265  0.75000000  0.11977712
   0.07134265  0.75000000  0.38022288
   0.42865735  0.25000000  0.88022288
   0.39319544  0.25000000  0.40101235
   0.10680456  0.75000000  0.90101235
   0.60680456  0.75000000  0.59898765
   0.89319544  0.25000000  0.09898765
   0.77457076  0.25000000  0.35546730
   0.72542924  0.75000000  0.85546730
   0.22542924  0.75000000  0.64453270
   0.27457076  0.25000000  0.14453270
Al4C3 Pnma-III - r2SCAN H(P) scan @ 30 G
           1
     8.797766    0.000000    0.000000
     0.000000    2.966779    0.000000
     0.000000    0.000000    9.592259
   Al   C 
    16    12
Direct configuration=     2
   0.73879039  0.25000000  0.71529460
   0.76120961  0.75000000  0.21529460
   0.26120961  0.75000000  0.28470540
   0.23879039  0.25000000  0.78470540
   0.60698361  0.25000000  0.47326997
   0.89301639  0.75000000  0.97326997
   0.39301639  0.75000000  0.52673003
   0.10698361  0.25000000  0.02673003
   0.13569119  0.25000000  0.51815638
   0.36430881  0.75000000  0.01815638
   0.86430881  0.75000000  0.48184362
   0.63569119  0.25000000  0.98184362
   0.99051110  0.25000000  0.28121997
   0.50948890  0.75000000  0.78121997
   0.00948890  0.75000000  0.71878003
   0.49051110  0.25000000  0.21878003
   0.92878636  0.25000000  0.62046547
   0.57121364  0.75000000  0.12046547
   0.07121364  0.75000000  0.37953453
   0.42878636  0.25000000  0.87953453
   0.39385647  0.25000000  0.40150832
   0.10614353  0.75000000  0.90150832
   0.60614353  0.75000000  0.59849168
   0.89385647  0.25000000  0.09849168
   0.77432091  0.25000000  0.35557740
   0.72567909  0.75000000  0.85557740
   0.22567909  0.75000000  0.64442260
   0.27432091  0.25000000  0.14442260
Al4C3 Pnma-III - r2SCAN H(P) scan @ 30 G
           1
     8.855698    0.000000    0.000000
     0.000000    2.986315    0.000000
     0.000000    0.000000    9.655423
   Al   C 
    16    12
Direct configuration=     3
   0.73869168  0.25000000  0.71517918
   0.76130832  0.75000000  0.21517918
   0.26130832  0.75000000  0.28482082
   0.23869168  0.25000000  0.78482082
   0.60696272  0.25000000  0.47293024
   0.89303728  0.75000000  0.97293024
   0.39303728  0.75000000  0.52706976
   0.10696272  0.25000000  0.02706976
   0.13581922  0.25000000  0.51800370
   0.36418078  0.75000000  0.01800370
   0.86418078  0.75000000  0.48199630
   0.63581922  0.25000000  0.98199630
   0.99074585  0.25000000  0.28081549
   0.50925415  0.75000000  0.78081549
   0.00925415  0.75000000  0.71918451
   0.49074585  0.25000000  0.21918451
   0.92870774  0.25000000  0.62004594
   0.57129226  0.75000000  0.12004594
   0.07129226  0.75000000  0.37995406
   0.42870774  0.25000000  0.87995406
   0.39345360  0.25000000  0.40120604
   0.10654640  0.75000000  0.90120604
   0.60654640  0.75000000  0.59879396
   0.89345360  0.25000000  0.09879396
   0.77447318  0.25000000  0.35551030
   0.72552682  0.75000000  0.85551030
   0.22552682  0.75000000  0.64448970
   0.27447318  0.25000000  0.14448970
Al4C3 Pnma-III - r2SCAN H(P) scan @ 30 G
           1
     8.855198    0.000000    0.000000
     0.000000    2.986147    0.000000
     0.000000    0.000000    9.654878
   Al   C 
    16    12
Direct configuration=     4
   0.73869252  0.25000000  0.71518017
   0.76130748  0.75000000  0.21518017
   0.26130748  0.75000000  0.28481983
   0.23869252  0.25000000  0.78481983
   0.60696290  0.25000000  0.47293316
   0.89303710  0.75000000  0.97293316
   0.39303710  0.75000000  0.52706684
   0.10696290  0.25000000  0.02706684
   0.13581812  0.25000000  0.51800501
   0.36418188  0.75000000  0.01800501
   0.86418188  0.75000000  0.48199499
   0.63581812  0.25000000  0.98199499
   0.99074384  0.25000000  0.28081896
   0.50925616  0.75000000  0.78081896
   0.00925616  0.75000000  0.71918104
   0.49074384  0.25000000  0.21918104
   0.92870841  0.25000000  0.62004954
   0.57129159  0.75000000  0.12004954
   0.07129159  0.75000000  0.37995046
   0.42870841  0.25000000  0.87995046
   0.39345706  0.25000000  0.40120864
   0.10654294  0.75000000  0.90120864
   0.60654294  0.75000000  0.59879136
   0.89345706  0.25000000  0.09879136
   0.77447188  0.25000000  0.35551087
   0.72552812  0.75000000  0.85551087
   0.22552812  0.75000000  0.64448913
   0.27447188  0.25000000  0.14448913
Al4C3 Pnma-III - r2SCAN H(P) scan @ 30 G
           1
     8.855322    0.000000    0.000000
     0.000000    2.986189    0.000000
     0.000000    0.000000    9.655013
   Al   C 
    16    12
Direct configuration=     5
   0.73869231  0.25000000  0.71517992
   0.76130769  0.75000000  0.21517992
   0.26130769  0.75000000  0.28482008
   0.23869231  0.25000000  0.78482008
   0.60696286  0.25000000  0.47293243
   0.89303714  0.75000000  0.97293243
   0.39303714  0.75000000  0.52706757
   0.10696286  0.25000000  0.02706757
   0.13581839  0.25000000  0.51800468
   0.36418161  0.75000000  0.01800468
   0.86418161  0.75000000  0.48199532
   0.63581839  0.25000000  0.98199532
   0.99074434  0.25000000  0.28081809
   0.50925566  0.75000000  0.78081809
   0.00925566  0.75000000  0.71918191
   0.49074434  0.25000000  0.21918191
   0.92870824  0.25000000  0.62004865
   0.57129176  0.75000000  0.12004865
   0.07129176  0.75000000  0.37995135
   0.42870824  0.25000000  0.87995135
   0.39345620  0.25000000  0.40120799
   0.10654380  0.75000000  0.90120799
   0.60654380  0.75000000  0.59879201
   0.89345620  0.25000000  0.09879201
   0.77447220  0.25000000  0.35551073
   0.72552780  0.75000000  0.85551073
   0.22552780  0.75000000  0.64448927
   0.27447220  0.25000000  0.14448927
Al4C3 Pnma-III - r2SCAN H(P) scan @ 30 G
           1
     8.855436    0.000000    0.000000
     0.000000    2.986227    0.000000
     0.000000    0.000000    9.655138
   Al   C 
    16    12
Direct configuration=     6
   0.73869212  0.25000000  0.71517970
   0.76130788  0.75000000  0.21517970
   0.26130788  0.75000000  0.28482030
   0.23869212  0.25000000  0.78482030
   0.60696282  0.25000000  0.47293177
   0.89303718  0.75000000  0.97293177
   0.39303718  0.75000000  0.52706823
   0.10696282  0.25000000  0.02706823
   0.13581864  0.25000000  0.51800438
   0.36418136  0.75000000  0.01800438
   0.86418136  0.75000000  0.48199562
   0.63581864  0.25000000  0.98199562
   0.99074480  0.25000000  0.28081730
   0.50925520  0.75000000  0.78081730
   0.00925520  0.75000000  0.71918270
   0.49074480  0.25000000  0.21918270
   0.92870809  0.25000000  0.62004783
   0.57129191  0.75000000  0.12004783
   0.07129191  0.75000000  0.37995217
   0.42870809  0.25000000  0.87995217
   0.39345541  0.25000000  0.40120740
   0.10654459  0.75000000  0.90120740
   0.60654459  0.75000000  0.59879260
   0.89345541  0.25000000  0.09879260
   0.77447250  0.25000000  0.35551060
   0.72552750  0.75000000  0.85551060
   0.22552750  0.75000000  0.64448940
   0.27447250  0.25000000  0.14448940
Al4C3 Pnma-III - r2SCAN H(P) scan @ 30 G
           1
     8.856047    0.000000    0.000000
     0.000000    2.986433    0.000000
     0.000000    0.000000    9.655804
   Al   C 
    16    12
Direct configuration=     7
   0.73863065  0.25000000  0.71530409
   0.76136935  0.75000000  0.21530409
   0.26136935  0.75000000  0.28469591
   0.23863065  0.25000000  0.78469591
   0.60693416  0.25000000  0.47309612
   0.89306584  0.75000000  0.97309612
   0.39306584  0.75000000  0.52690388
   0.10693416  0.25000000  0.02690388
   0.13593329  0.25000000  0.51804270
   0.36406671  0.75000000  0.01804270
   0.86406671  0.75000000  0.48195730
   0.63593329  0.25000000  0.98195730
   0.99048818  0.25000000  0.28082094
   0.50951182  0.75000000  0.78082094
   0.00951182  0.75000000  0.71917906
   0.49048818  0.25000000  0.21917906
   0.92879187  0.25000000  0.62016585
   0.57120813  0.75000000  0.12016585
   0.07120813  0.75000000  0.37983415
   0.42879187  0.25000000  0.87983415
   0.39359295  0.25000000  0.40116394
   0.10640705  0.75000000  0.90116394
   0.60640705  0.75000000  0.59883606
   0.89359295  0.25000000  0.09883606
   0.77436094  0.25000000  0.35552480
   0.72563906  0.75000000  0.85552480
   0.22563906  0.75000000  0.64447520
   0.27436094  0.25000000  0.14447520
Al4C3 Pnma-III - r2SCAN H(P) scan @ 30 G
           1
     8.856185    0.000000    0.000000
     0.000000    2.986480    0.000000
     0.000000    0.000000    9.655954
   Al   C 
    16    12
Direct configuration=     8
   0.73861686  0.25000000  0.71533198
   0.76138314  0.75000000  0.21533198
   0.26138314  0.75000000  0.28466802
   0.23861686  0.25000000  0.78466802
   0.60692773  0.25000000  0.47313298
   0.89307227  0.75000000  0.97313298
   0.39307227  0.75000000  0.52686702
   0.10692773  0.25000000  0.02686702
   0.13595900  0.25000000  0.51805130
   0.36404100  0.75000000  0.01805130
   0.86404100  0.75000000  0.48194870
   0.63595900  0.25000000  0.98194870
   0.99043063  0.25000000  0.28082176
   0.50956937  0.75000000  0.78082176
   0.00956937  0.75000000  0.71917824
   0.49043063  0.25000000  0.21917824
   0.92881066  0.25000000  0.62019232
   0.57118934  0.75000000  0.12019232
   0.07118934  0.75000000  0.37980768
   0.42881066  0.25000000  0.87980768
   0.39362379  0.25000000  0.40115419
   0.10637621  0.75000000  0.90115419
   0.60637621  0.75000000  0.59884581
   0.89362379  0.25000000  0.09884581
   0.77433593  0.25000000  0.35552799
   0.72566407  0.75000000  0.85552799
   0.22566407  0.75000000  0.64447201
   0.27433593  0.25000000  0.14447201
Al4C3 Pnma-III - r2SCAN H(P) scan @ 30 G
           1
     8.857075    0.000000    0.000000
     0.000000    2.986780    0.000000
     0.000000    0.000000    9.656925
   Al   C 
    16    12
Direct configuration=     9
   0.73879922  0.25000000  0.71542138
   0.76120078  0.75000000  0.21542138
   0.26120078  0.75000000  0.28457862
   0.23879922  0.25000000  0.78457862
   0.60696214  0.25000000  0.47324465
   0.89303786  0.75000000  0.97324465
   0.39303786  0.75000000  0.52675535
   0.10696214  0.25000000  0.02675535
   0.13596659  0.25000000  0.51795908
   0.36403341  0.75000000  0.01795908
   0.86403341  0.75000000  0.48204092
   0.63596659  0.25000000  0.98204092
   0.99030472  0.25000000  0.28093541
   0.50969528  0.75000000  0.78093541
   0.00969528  0.75000000  0.71906459
   0.49030472  0.25000000  0.21906459
   0.92882992  0.25000000  0.62031236
   0.57117008  0.75000000  0.12031236
   0.07117008  0.75000000  0.37968764
   0.42882992  0.25000000  0.87968764
   0.39370330  0.25000000  0.40110028
   0.10629670  0.75000000  0.90110028
   0.60629670  0.75000000  0.59889972
   0.89370330  0.25000000  0.09889972
   0.77418158  0.25000000  0.35562927
   0.72581842  0.75000000  0.85562927
   0.22581842  0.75000000  0.64437073
   0.27418158  0.25000000  0.14437073
Al4C3 Pnma-III - r2SCAN H(P) scan @ 30 G
           1
     8.857187    0.000000    0.000000
     0.000000    2.986818    0.000000
     0.000000    0.000000    9.657047
   Al   C 
    16    12
Direct configuration=    10
   0.73882224  0.25000000  0.71543266
   0.76117776  0.75000000  0.21543266
   0.26117776  0.75000000  0.28456734
   0.23882224  0.25000000  0.78456734
   0.60696649  0.25000000  0.47325874
   0.89303351  0.75000000  0.97325874
   0.39303351  0.75000000  0.52674126
   0.10696649  0.25000000  0.02674126
   0.13596754  0.25000000  0.51794744
   0.36403246  0.75000000  0.01794744
   0.86403246  0.75000000  0.48205256
   0.63596754  0.25000000  0.98205256
   0.99028882  0.25000000  0.28094976
   0.50971118  0.75000000  0.78094976
   0.00971118  0.75000000  0.71905024
   0.49028882  0.25000000  0.21905024
   0.92883235  0.25000000  0.62032751
   0.57116765  0.75000000  0.12032751
   0.07116765  0.75000000  0.37967249
   0.42883235  0.25000000  0.87967249
   0.39371334  0.25000000  0.40109348
   0.10628666  0.75000000  0.90109348
   0.60628666  0.75000000  0.59890652
   0.89371334  0.25000000  0.09890652
   0.77416209  0.25000000  0.35564206
   0.72583791  0.75000000  0.85564206
   0.22583791  0.75000000  0.64435794
   0.27416209  0.25000000  0.14435794
Al4C3 Pnma-III - r2SCAN H(P) scan @ 30 G
           1
     8.857266    0.000000    0.000000
     0.000000    2.986844    0.000000
     0.000000    0.000000    9.657133
   Al   C 
    16    12
Direct configuration=    11
   0.73901150  0.25000000  0.71557026
   0.76098850  0.75000000  0.21557026
   0.26098850  0.75000000  0.28442974
   0.23901150  0.25000000  0.78442974
   0.60690740  0.25000000  0.47338017
   0.89309260  0.75000000  0.97338017
   0.39309260  0.75000000  0.52661983
   0.10690740  0.25000000  0.02661983
   0.13597817  0.25000000  0.51781653
   0.36402183  0.75000000  0.01781653
   0.86402183  0.75000000  0.48218347
   0.63597817  0.25000000  0.98218347
   0.99012881  0.25000000  0.28098521
   0.50987119  0.75000000  0.78098521
   0.00987119  0.75000000  0.71901479
   0.49012881  0.25000000  0.21901479
   0.92889606  0.25000000  0.62029195
   0.57110394  0.75000000  0.12029195
   0.07110394  0.75000000  0.37970805
   0.42889606  0.25000000  0.87970805
   0.39369661  0.25000000  0.40097113
   0.10630339  0.75000000  0.90097113
   0.60630339  0.75000000  0.59902887
   0.89369661  0.25000000  0.09902887
   0.77415429  0.25000000  0.35572666
   0.72584571  0.75000000  0.85572666
   0.22584571  0.75000000  0.64427334
   0.27415429  0.25000000  0.14427334
Al4C3 Pnma-III - r2SCAN H(P) scan @ 30 G
           1
     8.857310    0.000000    0.000000
     0.000000    2.986859    0.000000
     0.000000    0.000000    9.657181
   Al   C 
    16    12
Direct configuration=    12
   0.73911486  0.25000000  0.71564541
   0.76088514  0.75000000  0.21564541
   0.26088514  0.75000000  0.28435459
   0.23911486  0.25000000  0.78435459
   0.60687513  0.25000000  0.47344648
   0.89312487  0.75000000  0.97344648
   0.39312487  0.75000000  0.52655352
   0.10687513  0.25000000  0.02655352
   0.13598397  0.25000000  0.51774504
   0.36401603  0.75000000  0.01774504
   0.86401603  0.75000000  0.48225496
   0.63598397  0.25000000  0.98225496
   0.99004142  0.25000000  0.28100457
   0.50995858  0.75000000  0.78100457
   0.00995858  0.75000000  0.71899543
   0.49004142  0.25000000  0.21899543
   0.92893085  0.25000000  0.62027252
   0.57106915  0.75000000  0.12027252
   0.07106915  0.75000000  0.37972748
   0.42893085  0.25000000  0.87972748
   0.39368746  0.25000000  0.40090432
   0.10631254  0.75000000  0.90090432
   0.60631254  0.75000000  0.59909568
   0.89368746  0.25000000  0.09909568
   0.77415003  0.25000000  0.35577285
   0.72584997  0.75000000  0.85577285
   0.22584997  0.75000000  0.64422715
   0.27415003  0.25000000  0.14422715
Al4C3 Pnma-III - r2SCAN H(P) scan @ 30 G
           1
     8.857129    0.000000    0.000000
     0.000000    2.986798    0.000000
     0.000000    0.000000    9.656983
   Al   C 
    16    12
Direct configuration=    13
   0.73920537  0.25000000  0.71579258
   0.76079463  0.75000000  0.21579258
   0.26079463  0.75000000  0.28420742
   0.23920537  0.25000000  0.78420742
   0.60693957  0.25000000  0.47345541
   0.89306043  0.75000000  0.97345541
   0.39306043  0.75000000  0.52654459
   0.10693957  0.25000000  0.02654459
   0.13604145  0.25000000  0.51768916
   0.36395855  0.75000000  0.01768916
   0.86395855  0.75000000  0.48231084
   0.63604145  0.25000000  0.98231084
   0.98994015  0.25000000  0.28102743
   0.51005985  0.75000000  0.78102743
   0.01005985  0.75000000  0.71897257
   0.48994015  0.25000000  0.21897257
   0.92900761  0.25000000  0.62022715
   0.57099239  0.75000000  0.12022715
   0.07099239  0.75000000  0.37977285
   0.42900761  0.25000000  0.87977285
   0.39360584  0.25000000  0.40091606
   0.10639416  0.75000000  0.90091606
   0.60639416  0.75000000  0.59908394
   0.89360584  0.25000000  0.09908394
   0.77412059  0.25000000  0.35587754
   0.72587941  0.75000000  0.85587754
   0.22587941  0.75000000  0.64412246
   0.27412059  0.25000000  0.14412246
Al4C3 Pnma-III - r2SCAN H(P) scan @ 30 G
           1
     8.857166    0.000000    0.000000
     0.000000    2.986811    0.000000
     0.000000    0.000000    9.657024
   Al   C 
    16    12
Direct configuration=    14
   0.73918657  0.25000000  0.71576201
   0.76081343  0.75000000  0.21576201
   0.26081343  0.75000000  0.28423799
   0.23918657  0.25000000  0.78423799
   0.60692619  0.25000000  0.47345355
   0.89307381  0.75000000  0.97345355
   0.39307381  0.75000000  0.52654645
   0.10692619  0.25000000  0.02654645
   0.13602951  0.25000000  0.51770077
   0.36397049  0.75000000  0.01770077
   0.86397049  0.75000000  0.48229923
   0.63602951  0.25000000  0.98229923
   0.98996118  0.25000000  0.28102268
   0.51003882  0.75000000  0.78102268
   0.01003882  0.75000000  0.71897732
   0.48996118  0.25000000  0.21897732
   0.92899166  0.25000000  0.62023658
   0.57100834  0.75000000  0.12023658
   0.07100834  0.75000000  0.37976342
   0.42899166  0.25000000  0.87976342
   0.39362279  0.25000000  0.40091362
   0.10637721  0.75000000  0.90091362
   0.60637721  0.75000000  0.59908638
   0.89362279  0.25000000  0.09908638
   0.77412671  0.25000000  0.35585579
   0.72587329  0.75000000  0.85585579
   0.22587329  0.75000000  0.64414421
   0.27412671  0.25000000  0.14414421
Al4C3 Pnma-III - r2SCAN H(P) scan @ 30 G
           1
     8.857175    0.000000    0.000000
     0.000000    2.986814    0.000000
     0.000000    0.000000    9.657034
   Al   C 
    16    12
Direct configuration=    15
   0.73918203  0.25000000  0.71575463
   0.76081797  0.75000000  0.21575463
   0.26081797  0.75000000  0.28424537
   0.23918203  0.25000000  0.78424537
   0.60692296  0.25000000  0.47345310
   0.89307704  0.75000000  0.97345310
   0.39307704  0.75000000  0.52654690
   0.10692296  0.25000000  0.02654690
   0.13602663  0.25000000  0.51770357
   0.36397337  0.75000000  0.01770357
   0.86397337  0.75000000  0.48229643
   0.63602663  0.25000000  0.98229643
   0.98996626  0.25000000  0.28102153
   0.51003374  0.75000000  0.78102153
   0.01003374  0.75000000  0.71897847
   0.48996626  0.25000000  0.21897847
   0.92898781  0.25000000  0.62023885
   0.57101219  0.75000000  0.12023885
   0.07101219  0.75000000  0.37976115
   0.42898781  0.25000000  0.87976115
   0.39362688  0.25000000  0.40091303
   0.10637312  0.75000000  0.90091303
   0.60637312  0.75000000  0.59908697
   0.89362688  0.25000000  0.09908697
   0.77412818  0.25000000  0.35585054
   0.72587182  0.75000000  0.85585054
   0.22587182  0.75000000  0.64414946
   0.27412818  0.25000000  0.14414946
Al4C3 Pnma-III - r2SCAN H(P) scan @ 30 G
           1
     8.857256    0.000000    0.000000
     0.000000    2.986841    0.000000
     0.000000    0.000000    9.657122
   Al   C 
    16    12
Direct configuration=    16
   0.73922196  0.25000000  0.71579024
   0.76077804  0.75000000  0.21579024
   0.26077804  0.75000000  0.28420976
   0.23922196  0.25000000  0.78420976
   0.60690159  0.25000000  0.47345587
   0.89309841  0.75000000  0.97345587
   0.39309841  0.75000000  0.52654413
   0.10690159  0.25000000  0.02654413
   0.13606810  0.25000000  0.51767550
   0.36393190  0.75000000  0.01767550
   0.86393190  0.75000000  0.48232450
   0.63606810  0.25000000  0.98232450
   0.98993941  0.25000000  0.28102645
   0.51006059  0.75000000  0.78102645
   0.01006059  0.75000000  0.71897355
   0.48993941  0.25000000  0.21897355
   0.92900582  0.25000000  0.62027731
   0.57099418  0.75000000  0.12027731
   0.07099418  0.75000000  0.37972269
   0.42900582  0.25000000  0.87972269
   0.39356448  0.25000000  0.40095676
   0.10643552  0.75000000  0.90095676
   0.60643552  0.75000000  0.59904324
   0.89356448  0.25000000  0.09904324
   0.77414033  0.25000000  0.35585455
   0.72585967  0.75000000  0.85585455
   0.22585967  0.75000000  0.64414545
   0.27414033  0.25000000  0.14414545
