Al4C3 Pnma (POSCAR.III, symmetrized via 
   1.00000000000000     
     8.5506772341461570    0.0000000000000000    0.0000000000000000
     0.0000000000000000    2.8834564432487202    0.0000000000000000
     0.0000000000000000    0.0000000000000000    9.3228573195194802
   Al   C 
    16    12
Direct
  0.7363344687594264  0.2500000000000000  0.7125993991850231
  0.7636655312405736  0.7500000000000000  0.2125993991850230
  0.2636655312405735  0.7500000000000000  0.2874006008149770
  0.2363344687594265  0.2500000000000000  0.7874006008149769
  0.6057761113177320  0.2500000000000000  0.4692604094104544
  0.8942238886822680  0.7500000000000000  0.9692604094104543
  0.3942238886822678  0.7500000000000000  0.5307395905895457
  0.1057761113177322  0.2500000000000000  0.0307395905895457
  0.1386261238701379  0.2500000000000000  0.5177586409277600
  0.3613738761298620  0.7500000000000000  0.0177586409277600
  0.8613738761298620  0.7500000000000000  0.4822413590722399
  0.6386261238701380  0.2500000000000000  0.9822413590722400
  0.9949983944949194  0.2500000000000000  0.2786382866233534
  0.5050016055050806  0.7500000000000000  0.7786382866233535
  0.0050016055050804  0.7500000000000000  0.7213617133766465
  0.4949983944949197  0.2500000000000000  0.2213617133766465
  0.9286429251277986  0.2500000000000000  0.6179551202235034
  0.5713570748722014  0.7500000000000000  0.1179551202235035
  0.0713570748722085  0.7500000000000000  0.3820448797764964
  0.4286429251277987  0.2500000000000000  0.8820448797764966
  0.3895903206576174  0.2500000000000000  0.4026317711896891
  0.1104096793423826  0.7500000000000000  0.9026317711896819
  0.6104096793423827  0.7500000000000000  0.5973682288103181
  0.8895903206576173  0.2500000000000000  0.0973682288103180
  0.7743171435462901  0.2500000000000000  0.3527894833622033
  0.7256828564537099  0.7500000000000000  0.8527894833622035
  0.2256828564537103  0.7500000000000000  0.6472105166377965
  0.2743171435462898  0.2500000000000000  0.1472105166377966
 
  0.00000000E+00  0.00000000E+00  0.00000000E+00
  0.00000000E+00  0.00000000E+00  0.00000000E+00
  0.00000000E+00  0.00000000E+00  0.00000000E+00
  0.00000000E+00  0.00000000E+00  0.00000000E+00
  0.00000000E+00  0.00000000E+00  0.00000000E+00
  0.00000000E+00  0.00000000E+00  0.00000000E+00
  0.00000000E+00  0.00000000E+00  0.00000000E+00
  0.00000000E+00  0.00000000E+00  0.00000000E+00
  0.00000000E+00  0.00000000E+00  0.00000000E+00
  0.00000000E+00  0.00000000E+00  0.00000000E+00
  0.00000000E+00  0.00000000E+00  0.00000000E+00
  0.00000000E+00  0.00000000E+00  0.00000000E+00
  0.00000000E+00  0.00000000E+00  0.00000000E+00
  0.00000000E+00  0.00000000E+00  0.00000000E+00
  0.00000000E+00  0.00000000E+00  0.00000000E+00
  0.00000000E+00  0.00000000E+00  0.00000000E+00
  0.00000000E+00  0.00000000E+00  0.00000000E+00
  0.00000000E+00  0.00000000E+00  0.00000000E+00
  0.00000000E+00  0.00000000E+00  0.00000000E+00
  0.00000000E+00  0.00000000E+00  0.00000000E+00
  0.00000000E+00  0.00000000E+00  0.00000000E+00
  0.00000000E+00  0.00000000E+00  0.00000000E+00
  0.00000000E+00  0.00000000E+00  0.00000000E+00
  0.00000000E+00  0.00000000E+00  0.00000000E+00
  0.00000000E+00  0.00000000E+00  0.00000000E+00
  0.00000000E+00  0.00000000E+00  0.00000000E+00
  0.00000000E+00  0.00000000E+00  0.00000000E+00
  0.00000000E+00  0.00000000E+00  0.00000000E+00
