Al4C3 Pnma-III - H(P) scan @ 80 GPa (ISI
           1
     8.550677    0.000000    0.000000
     0.000000    2.883456    0.000000
     0.000000    0.000000    9.322857
   Al   C 
    16    12
Direct configuration=     1
   0.73633447  0.25000000  0.71259940
   0.76366553  0.75000000  0.21259940
   0.26366553  0.75000000  0.28740060
   0.23633447  0.25000000  0.78740060
   0.60577611  0.25000000  0.46926041
   0.89422389  0.75000000  0.96926041
   0.39422389  0.75000000  0.53073959
   0.10577611  0.25000000  0.03073959
   0.13862612  0.25000000  0.51775864
   0.36137388  0.75000000  0.01775864
   0.86137388  0.75000000  0.48224136
   0.63862612  0.25000000  0.98224136
   0.99499839  0.25000000  0.27863829
   0.50500161  0.75000000  0.77863829
   0.00500161  0.75000000  0.72136171
   0.49499839  0.25000000  0.22136171
   0.92864293  0.25000000  0.61795512
   0.57135707  0.75000000  0.11795512
   0.07135707  0.75000000  0.38204488
   0.42864293  0.25000000  0.88204488
   0.38959032  0.25000000  0.40263177
   0.11040968  0.75000000  0.90263177
   0.61040968  0.75000000  0.59736823
   0.88959032  0.25000000  0.09736823
   0.77431714  0.25000000  0.35278948
   0.72568286  0.75000000  0.85278948
   0.22568286  0.75000000  0.64721052
   0.27431714  0.25000000  0.14721052
Al4C3 Pnma-III - H(P) scan @ 80 GPa (ISI
           1
     8.339811    0.000000    0.000000
     0.000000    2.812348    0.000000
     0.000000    0.000000    9.092949
   Al   C 
    16    12
Direct configuration=     2
   0.73632587  0.25000000  0.71260939
   0.76367413  0.75000000  0.21260939
   0.26367413  0.75000000  0.28739061
   0.23632587  0.25000000  0.78739061
   0.60578271  0.25000000  0.46926256
   0.89421729  0.75000000  0.96926256
   0.39421729  0.75000000  0.53073744
   0.10578271  0.25000000  0.03073744
   0.13861962  0.25000000  0.51778227
   0.36138038  0.75000000  0.01778227
   0.86138038  0.75000000  0.48221773
   0.63861962  0.25000000  0.98221773
   0.99501188  0.25000000  0.27865026
   0.50498812  0.75000000  0.77865026
   0.00498812  0.75000000  0.72134974
   0.49501188  0.25000000  0.22134974
   0.92865086  0.25000000  0.61792256
   0.57134914  0.75000000  0.11792256
   0.07134914  0.75000000  0.38207744
   0.42865086  0.25000000  0.88207744
   0.38959027  0.25000000  0.40263677
   0.11040973  0.75000000  0.90263677
   0.61040973  0.75000000  0.59736323
   0.88959027  0.25000000  0.09736323
   0.77432900  0.25000000  0.35280083
   0.72567100  0.75000000  0.85280083
   0.22567100  0.75000000  0.64719917
   0.27432900  0.25000000  0.14719917
Al4C3 Pnma-III - H(P) scan @ 80 GPa (ISI
           1
     8.486903    0.000000    0.000000
     0.000000    2.861951    0.000000
     0.000000    0.000000    9.253324
   Al   C 
    16    12
Direct configuration=     3
   0.73633202  0.25000000  0.71260224
   0.76366798  0.75000000  0.21260224
   0.26366798  0.75000000  0.28739776
   0.23633202  0.25000000  0.78739776
   0.60577799  0.25000000  0.46926102
   0.89422201  0.75000000  0.96926102
   0.39422201  0.75000000  0.53073898
   0.10577799  0.25000000  0.03073898
   0.13862427  0.25000000  0.51776537
   0.36137573  0.75000000  0.01776537
   0.86137573  0.75000000  0.48223463
   0.63862427  0.25000000  0.98223463
   0.99500224  0.25000000  0.27864170
   0.50499776  0.75000000  0.77864170
   0.00499776  0.75000000  0.72135830
   0.49500224  0.25000000  0.22135830
   0.92864518  0.25000000  0.61794585
   0.57135482  0.75000000  0.11794585
   0.07135482  0.75000000  0.38205415
   0.42864518  0.25000000  0.88205415
   0.38959031  0.25000000  0.40263320
   0.11040969  0.75000000  0.90263320
   0.61040969  0.75000000  0.59736680
   0.88959031  0.25000000  0.09736680
   0.77432052  0.25000000  0.35279272
   0.72567948  0.75000000  0.85279272
   0.22567948  0.75000000  0.64720728
   0.27432052  0.25000000  0.14720728
Al4C3 Pnma-III - H(P) scan @ 80 GPa (ISI
           1
     8.485801    0.000000    0.000000
     0.000000    2.861579    0.000000
     0.000000    0.000000    9.252122
   Al   C 
    16    12
Direct configuration=     4
   0.73633198  0.25000000  0.71260230
   0.76366802  0.75000000  0.21260230
   0.26366802  0.75000000  0.28739770
   0.23633198  0.25000000  0.78739770
   0.60577803  0.25000000  0.46926103
   0.89422197  0.75000000  0.96926103
   0.39422197  0.75000000  0.53073897
   0.10577803  0.25000000  0.03073897
   0.13862424  0.25000000  0.51776550
   0.36137576  0.75000000  0.01776550
   0.86137576  0.75000000  0.48223450
   0.63862424  0.25000000  0.98223450
   0.99500231  0.25000000  0.27864176
   0.50499769  0.75000000  0.77864176
   0.00499769  0.75000000  0.72135824
   0.49500231  0.25000000  0.22135824
   0.92864523  0.25000000  0.61794567
   0.57135477  0.75000000  0.11794567
   0.07135477  0.75000000  0.38205433
   0.42864523  0.25000000  0.88205433
   0.38959031  0.25000000  0.40263322
   0.11040969  0.75000000  0.90263322
   0.61040969  0.75000000  0.59736678
   0.88959031  0.25000000  0.09736678
   0.77432058  0.25000000  0.35279278
   0.72567942  0.75000000  0.85279278
   0.22567942  0.75000000  0.64720722
   0.27432058  0.25000000  0.14720722
Al4C3 Pnma-III - H(P) scan @ 80 GPa (ISI
           1
     8.485644    0.000000    0.000000
     0.000000    2.861526    0.000000
     0.000000    0.000000    9.251951
   Al   C 
    16    12
Direct configuration=     5
   0.73633197  0.25000000  0.71260230
   0.76366803  0.75000000  0.21260230
   0.26366803  0.75000000  0.28739770
   0.23633197  0.25000000  0.78739770
   0.60577803  0.25000000  0.46926103
   0.89422197  0.75000000  0.96926103
   0.39422197  0.75000000  0.53073897
   0.10577803  0.25000000  0.03073897
   0.13862423  0.25000000  0.51776551
   0.36137577  0.75000000  0.01776551
   0.86137577  0.75000000  0.48223449
   0.63862423  0.25000000  0.98223449
   0.99500232  0.25000000  0.27864177
   0.50499768  0.75000000  0.77864177
   0.00499768  0.75000000  0.72135823
   0.49500232  0.25000000  0.22135823
   0.92864523  0.25000000  0.61794565
   0.57135477  0.75000000  0.11794565
   0.07135477  0.75000000  0.38205435
   0.42864523  0.25000000  0.88205435
   0.38959031  0.25000000  0.40263323
   0.11040969  0.75000000  0.90263323
   0.61040969  0.75000000  0.59736677
   0.88959031  0.25000000  0.09736677
   0.77432059  0.25000000  0.35279278
   0.72567941  0.75000000  0.85279278
   0.22567941  0.75000000  0.64720722
   0.27432059  0.25000000  0.14720722
Al4C3 Pnma-III - H(P) scan @ 80 GPa (ISI
           1
     8.485714    0.000000    0.000000
     0.000000    2.861549    0.000000
     0.000000    0.000000    9.252027
   Al   C 
    16    12
Direct configuration=     6
   0.73633197  0.25000000  0.71260230
   0.76366803  0.75000000  0.21260230
   0.26366803  0.75000000  0.28739770
   0.23633197  0.25000000  0.78739770
   0.60577803  0.25000000  0.46926103
   0.89422197  0.75000000  0.96926103
   0.39422197  0.75000000  0.53073897
   0.10577803  0.25000000  0.03073897
   0.13862423  0.25000000  0.51776551
   0.36137577  0.75000000  0.01776551
   0.86137577  0.75000000  0.48223449
   0.63862423  0.25000000  0.98223449
   0.99500231  0.25000000  0.27864177
   0.50499769  0.75000000  0.77864177
   0.00499769  0.75000000  0.72135823
   0.49500231  0.25000000  0.22135823
   0.92864523  0.25000000  0.61794566
   0.57135477  0.75000000  0.11794566
   0.07135477  0.75000000  0.38205434
   0.42864523  0.25000000  0.88205434
   0.38959031  0.25000000  0.40263322
   0.11040969  0.75000000  0.90263322
   0.61040969  0.75000000  0.59736678
   0.88959031  0.25000000  0.09736678
   0.77432059  0.25000000  0.35279278
   0.72567941  0.75000000  0.85279278
   0.22567941  0.75000000  0.64720722
   0.27432059  0.25000000  0.14720722
Al4C3 Pnma-III - H(P) scan @ 80 GPa (ISI
           1
     8.484292    0.000000    0.000000
     0.000000    2.861070    0.000000
     0.000000    0.000000    9.250477
   Al   C 
    16    12
Direct configuration=     7
   0.73610856  0.25000000  0.71255940
   0.76389144  0.75000000  0.21255940
   0.26389144  0.75000000  0.28744060
   0.23610856  0.25000000  0.78744060
   0.60563203  0.25000000  0.46899102
   0.89436797  0.75000000  0.96899102
   0.39436797  0.75000000  0.53100898
   0.10563203  0.25000000  0.03100898
   0.13898730  0.25000000  0.51762383
   0.36101270  0.75000000  0.01762383
   0.86101270  0.75000000  0.48237617
   0.63898730  0.25000000  0.98237617
   0.99530558  0.25000000  0.27823498
   0.50469442  0.75000000  0.77823498
   0.00469442  0.75000000  0.72176502
   0.49530558  0.25000000  0.22176502
   0.92869804  0.25000000  0.61759759
   0.57130196  0.75000000  0.11759759
   0.07130196  0.75000000  0.38240241
   0.42869804  0.25000000  0.88240241
   0.38910300  0.25000000  0.40249698
   0.11089700  0.75000000  0.90249698
   0.61089700  0.75000000  0.59750302
   0.88910300  0.25000000  0.09750302
   0.77437188  0.25000000  0.35264022
   0.72562812  0.75000000  0.85264022
   0.22562812  0.75000000  0.64735978
   0.27437188  0.25000000  0.14735978
Al4C3 Pnma-III - H(P) scan @ 80 GPa (ISI
           1
     8.484467    0.000000    0.000000
     0.000000    2.861129    0.000000
     0.000000    0.000000    9.250668
   Al   C 
    16    12
Direct configuration=     8
   0.73613613  0.25000000  0.71256470
   0.76386387  0.75000000  0.21256470
   0.26386387  0.75000000  0.28743530
   0.23613613  0.25000000  0.78743530
   0.60565005  0.25000000  0.46902434
   0.89434995  0.75000000  0.96902434
   0.39434995  0.75000000  0.53097566
   0.10565005  0.25000000  0.03097566
   0.13894250  0.25000000  0.51764132
   0.36105750  0.75000000  0.01764132
   0.86105750  0.75000000  0.48235868
   0.63894250  0.25000000  0.98235868
   0.99526816  0.25000000  0.27828518
   0.50473184  0.75000000  0.77828518
   0.00473184  0.75000000  0.72171482
   0.49526816  0.25000000  0.22171482
   0.92869152  0.25000000  0.61764054
   0.57130848  0.75000000  0.11764054
   0.07130848  0.75000000  0.38235946
   0.42869152  0.25000000  0.88235946
   0.38916314  0.25000000  0.40251380
   0.11083686  0.75000000  0.90251380
   0.61083686  0.75000000  0.59748620
   0.88916314  0.25000000  0.09748620
   0.77436555  0.25000000  0.35265904
   0.72563445  0.75000000  0.85265904
   0.22563445  0.75000000  0.64734096
   0.27436555  0.25000000  0.14734096
Al4C3 Pnma-III - H(P) scan @ 80 GPa (ISI
           1
     8.484128    0.000000    0.000000
     0.000000    2.861015    0.000000
     0.000000    0.000000    9.250299
   Al   C 
    16    12
Direct configuration=     9
   0.73614781  0.25000000  0.71244876
   0.76385219  0.75000000  0.21244876
   0.26385219  0.75000000  0.28755124
   0.23614781  0.25000000  0.78755124
   0.60556403  0.25000000  0.46882287
   0.89443597  0.75000000  0.96882287
   0.39443597  0.75000000  0.53117713
   0.10556403  0.25000000  0.03117713
   0.13917495  0.25000000  0.51753484
   0.36082505  0.75000000  0.01753484
   0.86082505  0.75000000  0.48246516
   0.63917495  0.25000000  0.98246516
   0.99582388  0.25000000  0.27830736
   0.50417612  0.75000000  0.77830736
   0.00417612  0.75000000  0.72169264
   0.49582388  0.25000000  0.22169264
   0.92872049  0.25000000  0.61761318
   0.57127951  0.75000000  0.11761318
   0.07127951  0.75000000  0.38238682
   0.42872049  0.25000000  0.88238682
   0.38881475  0.25000000  0.40282132
   0.11118525  0.75000000  0.90282132
   0.61118525  0.75000000  0.59717868
   0.88881475  0.25000000  0.09717868
   0.77427907  0.25000000  0.35255313
   0.72572093  0.75000000  0.85255313
   0.22572093  0.75000000  0.64744687
   0.27427907  0.25000000  0.14744687
Al4C3 Pnma-III - H(P) scan @ 80 GPa (ISI
           1
     8.484212    0.000000    0.000000
     0.000000    2.861043    0.000000
     0.000000    0.000000    9.250390
   Al   C 
    16    12
Direct configuration=    10
   0.73614493  0.25000000  0.71247736
   0.76385507  0.75000000  0.21247736
   0.26385507  0.75000000  0.28752264
   0.23614493  0.25000000  0.78752264
   0.60558525  0.25000000  0.46887256
   0.89441475  0.75000000  0.96887256
   0.39441475  0.75000000  0.53112744
   0.10558525  0.25000000  0.03112744
   0.13911762  0.25000000  0.51756110
   0.36088238  0.75000000  0.01756110
   0.86088238  0.75000000  0.48243890
   0.63911762  0.25000000  0.98243890
   0.99568682  0.25000000  0.27830189
   0.50431318  0.75000000  0.77830189
   0.00431318  0.75000000  0.72169811
   0.49568682  0.25000000  0.22169811
   0.92871334  0.25000000  0.61761993
   0.57128666  0.75000000  0.11761993
   0.07128666  0.75000000  0.38238007
   0.42871334  0.25000000  0.88238007
   0.38890068  0.25000000  0.40274547
   0.11109932  0.75000000  0.90274547
   0.61109932  0.75000000  0.59725453
   0.88890068  0.25000000  0.09725453
   0.77430040  0.25000000  0.35257925
   0.72569960  0.75000000  0.85257925
   0.22569960  0.75000000  0.64742075
   0.27430040  0.25000000  0.14742075
Al4C3 Pnma-III - H(P) scan @ 80 GPa (ISI
           1
     8.483702    0.000000    0.000000
     0.000000    2.860871    0.000000
     0.000000    0.000000    9.249834
   Al   C 
    16    12
Direct configuration=    11
   0.73607288  0.25000000  0.71241814
   0.76392712  0.75000000  0.21241814
   0.26392712  0.75000000  0.28758186
   0.23607288  0.25000000  0.78758186
   0.60551429  0.25000000  0.46884106
   0.89448571  0.75000000  0.96884106
   0.39448571  0.75000000  0.53115894
   0.10551429  0.25000000  0.03115894
   0.13916891  0.25000000  0.51764816
   0.36083109  0.75000000  0.01764816
   0.86083109  0.75000000  0.48235184
   0.63916891  0.25000000  0.98235184
   0.99569936  0.25000000  0.27827279
   0.50430064  0.75000000  0.77827279
   0.00430064  0.75000000  0.72172721
   0.49569936  0.25000000  0.22172721
   0.92872994  0.25000000  0.61764034
   0.57127006  0.75000000  0.11764034
   0.07127006  0.75000000  0.38235966
   0.42872994  0.25000000  0.88235966
   0.38891815  0.25000000  0.40286262
   0.11108185  0.75000000  0.90286262
   0.61108185  0.75000000  0.59713738
   0.88891815  0.25000000  0.09713738
   0.77430752  0.25000000  0.35246854
   0.72569248  0.75000000  0.85246854
   0.22569248  0.75000000  0.64753146
   0.27430752  0.25000000  0.14753146
Al4C3 Pnma-III - H(P) scan @ 80 GPa (ISI
           1
     8.483688    0.000000    0.000000
     0.000000    2.860866    0.000000
     0.000000    0.000000    9.249819
   Al   C 
    16    12
Direct configuration=    12
   0.73607091  0.25000000  0.71241652
   0.76392909  0.75000000  0.21241652
   0.26392909  0.75000000  0.28758348
   0.23607091  0.25000000  0.78758348
   0.60551235  0.25000000  0.46884020
   0.89448765  0.75000000  0.96884020
   0.39448765  0.75000000  0.53115980
   0.10551235  0.25000000  0.03115980
   0.13917031  0.25000000  0.51765055
   0.36082969  0.75000000  0.01765055
   0.86082969  0.75000000  0.48234945
   0.63917031  0.25000000  0.98234945
   0.99569970  0.25000000  0.27827199
   0.50430030  0.75000000  0.77827199
   0.00430030  0.75000000  0.72172801
   0.49569970  0.25000000  0.22172801
   0.92873040  0.25000000  0.61764090
   0.57126960  0.75000000  0.11764090
   0.07126960  0.75000000  0.38235910
   0.42873040  0.25000000  0.88235910
   0.38891863  0.25000000  0.40286583
   0.11108137  0.75000000  0.90286583
   0.61108137  0.75000000  0.59713417
   0.88891863  0.25000000  0.09713417
   0.77430772  0.25000000  0.35246551
   0.72569228  0.75000000  0.85246551
   0.22569228  0.75000000  0.64753449
   0.27430772  0.25000000  0.14753449
Al4C3 Pnma-III - H(P) scan @ 80 GPa (ISI
           1
     8.484032    0.000000    0.000000
     0.000000    2.860982    0.000000
     0.000000    0.000000    9.250194
   Al   C 
    16    12
Direct configuration=    13
   0.73602047  0.25000000  0.71229842
   0.76397953  0.75000000  0.21229842
   0.26397953  0.75000000  0.28770158
   0.23602047  0.25000000  0.78770158
   0.60555841  0.25000000  0.46873769
   0.89444159  0.75000000  0.96873769
   0.39444159  0.75000000  0.53126231
   0.10555841  0.25000000  0.03126231
   0.13917432  0.25000000  0.51773355
   0.36082568  0.75000000  0.01773355
   0.86082568  0.75000000  0.48226645
   0.63917432  0.25000000  0.98226645
   0.99569754  0.25000000  0.27823959
   0.50430246  0.75000000  0.77823959
   0.00430246  0.75000000  0.72176041
   0.49569754  0.25000000  0.22176041
   0.92871767  0.25000000  0.61764144
   0.57128233  0.75000000  0.11764144
   0.07128233  0.75000000  0.38235856
   0.42871767  0.25000000  0.88235856
   0.38893286  0.25000000  0.40292551
   0.11106714  0.75000000  0.90292551
   0.61106714  0.75000000  0.59707449
   0.88893286  0.25000000  0.09707449
   0.77426001  0.25000000  0.35238735
   0.72573999  0.75000000  0.85238735
   0.22573999  0.75000000  0.64761265
   0.27426001  0.25000000  0.14761265
Al4C3 Pnma-III - H(P) scan @ 80 GPa (ISI
           1
     8.484061    0.000000    0.000000
     0.000000    2.860992    0.000000
     0.000000    0.000000    9.250226
   Al   C 
    16    12
Direct configuration=    14
   0.73601619  0.25000000  0.71228840
   0.76398381  0.75000000  0.21228840
   0.26398381  0.75000000  0.28771160
   0.23601619  0.25000000  0.78771160
   0.60556232  0.25000000  0.46872899
   0.89443768  0.75000000  0.96872899
   0.39443768  0.75000000  0.53127101
   0.10556232  0.25000000  0.03127101
   0.13917466  0.25000000  0.51774060
   0.36082534  0.75000000  0.01774060
   0.86082534  0.75000000  0.48225940
   0.63917466  0.25000000  0.98225940
   0.99569736  0.25000000  0.27823683
   0.50430264  0.75000000  0.77823683
   0.00430264  0.75000000  0.72176317
   0.49569736  0.25000000  0.22176317
   0.92871659  0.25000000  0.61764149
   0.57128341  0.75000000  0.11764149
   0.07128341  0.75000000  0.38235851
   0.42871659  0.25000000  0.88235851
   0.38893407  0.25000000  0.40293058
   0.11106593  0.75000000  0.90293058
   0.61106593  0.75000000  0.59706942
   0.88893407  0.25000000  0.09706942
   0.77425596  0.25000000  0.35238071
   0.72574404  0.75000000  0.85238071
   0.22574404  0.75000000  0.64761929
   0.27425596  0.25000000  0.14761929
Al4C3 Pnma-III - H(P) scan @ 80 GPa (ISI
           1
     8.483844    0.000000    0.000000
     0.000000    2.860919    0.000000
     0.000000    0.000000    9.249989
   Al   C 
    16    12
Direct configuration=    15
   0.73600680  0.25000000  0.71218306
   0.76399320  0.75000000  0.21218306
   0.26399320  0.75000000  0.28781694
   0.23600680  0.25000000  0.78781694
   0.60555780  0.25000000  0.46869209
   0.89444220  0.75000000  0.96869209
   0.39444220  0.75000000  0.53130791
   0.10555780  0.25000000  0.03130791
   0.13911469  0.25000000  0.51776413
   0.36088531  0.75000000  0.01776413
   0.86088531  0.75000000  0.48223587
   0.63911469  0.25000000  0.98223587
   0.99571165  0.25000000  0.27825402
   0.50428835  0.75000000  0.77825402
   0.00428835  0.75000000  0.72174598
   0.49571165  0.25000000  0.22174598
   0.92871444  0.25000000  0.61760876
   0.57128556  0.75000000  0.11760876
   0.07128556  0.75000000  0.38239124
   0.42871444  0.25000000  0.88239124
   0.38893002  0.25000000  0.40293886
   0.11106998  0.75000000  0.90293886
   0.61106998  0.75000000  0.59706114
   0.88893002  0.25000000  0.09706114
   0.77427280  0.25000000  0.35231086
   0.72572720  0.75000000  0.85231086
   0.22572720  0.75000000  0.64768914
   0.27427280  0.25000000  0.14768914
