  28  28   0   0
  0.7323079E+01  0.5896812E-09  0.5896812E-09  0.5896812E-09  0.5000000E-15
  1.000000000000000E-004
  CAR 
 Al4C3 I-43d - H(P) scan @ 100 GPa (ISIF=
     22.97625993     -5.04615552  301     14.48196525      1.00000000
     -5.046  0.0000E+00  0.0000E+00
     -4.953  0.0000E+00  0.0000E+00
     -4.859  0.0000E+00  0.0000E+00
     -4.766  0.0000E+00  0.0000E+00
     -4.673  0.0000E+00  0.0000E+00
     -4.579  0.0000E+00  0.0000E+00
     -4.486  0.0000E+00  0.0000E+00
     -4.392  0.0000E+00  0.0000E+00
     -4.299  0.0000E+00  0.0000E+00
     -4.205  0.0000E+00  0.0000E+00
     -4.112  0.0000E+00  0.0000E+00
     -4.019  0.8126E-15  0.7590E-16
     -3.925  0.3810E-08  0.3559E-09
     -3.832  0.2298E-04  0.2147E-05
     -3.738  0.4503E-03  0.4421E-04
     -3.645  0.2229E-02  0.2524E-03
     -3.552  0.4329E-02  0.6568E-03
     -3.458  0.4201E-02  0.1049E-02
     -3.365  0.3113E-02  0.1340E-02
     -3.271  0.4593E-02  0.1769E-02
     -3.178  0.1058E-01  0.2757E-02
     -3.085  0.9906E-02  0.3683E-02
     -2.991  0.9781E-03  0.3774E-02
     -2.898  0.4963E-02  0.4237E-02
     -2.804  0.1177E-01  0.5337E-02
     -2.711  0.1137E-01  0.6399E-02
     -2.618  0.1053E-01  0.7383E-02
     -2.524  0.7331E-02  0.8067E-02
     -2.431  0.6056E-02  0.8633E-02
     -2.337  0.1348E-01  0.9892E-02
     -2.244  0.1783E-01  0.1156E-01
     -2.151  0.9922E-03  0.1165E-01
     -2.057  0.4148E-02  0.1204E-01
     -1.964  0.2033E-01  0.1394E-01
     -1.870  0.1718E-01  0.1554E-01
     -1.777  0.1216E-01  0.1668E-01
     -1.683  0.1111E-01  0.1771E-01
     -1.590  0.1868E-01  0.1946E-01
     -1.497  0.1542E-01  0.2090E-01
     -1.403  0.4763E-02  0.2134E-01
     -1.310  0.5655E-02  0.2187E-01
     -1.216  0.1215E-01  0.2301E-01
     -1.123  0.2147E-01  0.2501E-01
     -1.030  0.2760E-01  0.2759E-01
     -0.936  0.1115E-01  0.2863E-01
     -0.843  0.1029E-01  0.2959E-01
     -0.749  0.3036E-01  0.3243E-01
     -0.656  0.1830E-01  0.3414E-01
     -0.563  0.2167E-02  0.3434E-01
     -0.469  0.1011E-01  0.3529E-01
     -0.376  0.2408E-01  0.3753E-01
     -0.282  0.2350E-01  0.3973E-01
     -0.189  0.2202E-01  0.4179E-01
     -0.096  0.1257E-01  0.4296E-01
     -0.002  0.2139E-01  0.4496E-01
      0.091  0.2403E-01  0.4720E-01
      0.185  0.5171E-02  0.4769E-01
      0.278  0.3082E-01  0.5057E-01
      0.372  0.4055E-01  0.5435E-01
      0.465  0.1908E-01  0.5614E-01
      0.558  0.1904E-01  0.5791E-01
      0.652  0.2856E-01  0.6058E-01
      0.745  0.2194E-01  0.6263E-01
      0.839  0.1696E-01  0.6422E-01
      0.932  0.3540E-01  0.6752E-01
      1.025  0.2115E-01  0.6950E-01
      1.119  0.4649E-01  0.7384E-01
      1.212  0.6353E-01  0.7977E-01
      1.306  0.2059E-01  0.8170E-01
      1.399  0.6811E-02  0.8233E-01
      1.492  0.1673E-01  0.8390E-01
      1.586  0.1980E-01  0.8575E-01
      1.679  0.8302E-02  0.8652E-01
      1.773  0.8739E-03  0.8660E-01
      1.866  0.8750E-02  0.8742E-01
      1.959  0.1455E-01  0.8878E-01
      2.053  0.1603E-01  0.9028E-01
      2.146  0.4827E-01  0.9479E-01
      2.240  0.2850E-01  0.9745E-01
      2.333  0.2932E-01  0.1002E+00
      2.426  0.2394E-01  0.1024E+00
      2.520  0.2173E-01  0.1045E+00
      2.613  0.4553E-01  0.1087E+00
      2.707  0.4562E-01  0.1130E+00
      2.800  0.2561E-01  0.1154E+00
      2.894  0.4069E-02  0.1157E+00
      2.987  0.1013E-02  0.1158E+00
      3.080  0.1454E-01  0.1172E+00
      3.174  0.1177E-01  0.1183E+00
      3.267  0.5375E-02  0.1188E+00
      3.361  0.9683E-02  0.1197E+00
      3.454  0.1242E-02  0.1198E+00
      3.547  0.2573E-03  0.1198E+00
      3.641  0.1597E-02  0.1200E+00
      3.734  0.1290E-03  0.1200E+00
      3.828  0.3216E-07  0.1200E+00
      3.921  0.1481E-12  0.1200E+00
      4.014  0.3142E-06  0.1200E+00
      4.108  0.9635E-03  0.1201E+00
      4.201  0.1250E-01  0.1213E+00
      4.295  0.1808E-01  0.1229E+00
      4.388  0.2764E-01  0.1255E+00
      4.481  0.1998E-01  0.1274E+00
      4.575  0.3287E-01  0.1305E+00
      4.668  0.2935E-01  0.1332E+00
      4.762  0.1590E-01  0.1347E+00
      4.855  0.2805E-01  0.1373E+00
      4.949  0.1589E-01  0.1388E+00
      5.042  0.3852E-01  0.1424E+00
      5.135  0.3206E-01  0.1454E+00
      5.229  0.2788E-01  0.1480E+00
      5.322  0.2169E-01  0.1500E+00
      5.416  0.4024E-01  0.1538E+00
      5.509  0.3188E-01  0.1568E+00
      5.602  0.1780E-01  0.1584E+00
      5.696  0.3226E-01  0.1614E+00
      5.789  0.2526E-01  0.1638E+00
      5.883  0.1249E-01  0.1650E+00
      5.976  0.1790E-01  0.1666E+00
      6.069  0.6173E-01  0.1724E+00
      6.163  0.7439E-01  0.1793E+00
      6.256  0.3308E-01  0.1824E+00
      6.350  0.2907E-01  0.1851E+00
      6.443  0.1313E-01  0.1864E+00
      6.536  0.1335E-02  0.1865E+00
      6.630  0.2989E-01  0.1893E+00
      6.723  0.5610E-01  0.1945E+00
      6.817  0.4351E-01  0.1986E+00
      6.910  0.3902E-01  0.2022E+00
      7.003  0.1926E-01  0.2040E+00
      7.097  0.5333E-01  0.2090E+00
      7.190  0.4253E-01  0.2130E+00
      7.284  0.2327E-01  0.2152E+00
      7.377  0.2479E-01  0.2175E+00
      7.471  0.1975E-01  0.2193E+00
      7.564  0.3052E-01  0.2222E+00
      7.657  0.1265E-01  0.2234E+00
      7.751  0.2110E-01  0.2253E+00
      7.844  0.5659E-01  0.2306E+00
      7.938  0.5386E-01  0.2356E+00
      8.031  0.2541E-01  0.2380E+00
      8.124  0.3123E-01  0.2409E+00
      8.218  0.2180E-01  0.2430E+00
      8.311  0.1983E-01  0.2448E+00
      8.405  0.2629E-01  0.2473E+00
      8.498  0.5761E-01  0.2527E+00
      8.591  0.5194E-01  0.2575E+00
      8.685  0.3846E-01  0.2611E+00
      8.778  0.2869E-01  0.2638E+00
      8.872  0.4756E-01  0.2682E+00
      8.965  0.8648E-01  0.2763E+00
      9.058  0.3582E-01  0.2797E+00
      9.152  0.4083E-01  0.2835E+00
      9.245  0.2742E-01  0.2860E+00
      9.339  0.3030E-01  0.2889E+00
      9.432  0.2455E-01  0.2912E+00
      9.526  0.2931E-01  0.2939E+00
      9.619  0.2697E-01  0.2964E+00
      9.712  0.3071E-01  0.2993E+00
      9.806  0.4306E-01  0.3033E+00
      9.899  0.4474E-01  0.3075E+00
      9.993  0.2758E-01  0.3101E+00
     10.086  0.4354E-01  0.3141E+00
     10.179  0.4266E-01  0.3181E+00
     10.273  0.3675E-01  0.3215E+00
     10.366  0.2461E-01  0.3238E+00
     10.460  0.4250E-01  0.3278E+00
     10.553  0.3757E-01  0.3313E+00
     10.646  0.2916E-01  0.3340E+00
     10.740  0.2349E-01  0.3362E+00
     10.833  0.3775E-01  0.3398E+00
     10.927  0.5612E-01  0.3450E+00
     11.020  0.7716E-01  0.3522E+00
     11.113  0.3265E-01  0.3553E+00
     11.207  0.3666E-01  0.3587E+00
     11.300  0.3496E-01  0.3620E+00
     11.394  0.4200E-01  0.3659E+00
     11.487  0.5165E-01  0.3707E+00
     11.580  0.4235E-01  0.3747E+00
     11.674  0.5982E-02  0.3752E+00
     11.767  0.3846E-01  0.3788E+00
     11.861  0.7531E-01  0.3858E+00
     11.954  0.9190E-01  0.3944E+00
     12.048  0.6283E-01  0.4003E+00
     12.141  0.1952E-01  0.4021E+00
     12.234  0.2324E-01  0.4043E+00
     12.328  0.5517E-01  0.4094E+00
     12.421  0.5140E-01  0.4142E+00
     12.515  0.3381E-01  0.4174E+00
     12.608  0.3709E-01  0.4209E+00
     12.701  0.2431E-01  0.4231E+00
     12.795  0.4949E-01  0.4278E+00
     12.888  0.4211E-01  0.4317E+00
     12.982  0.3576E-01  0.4350E+00
     13.075  0.5688E-01  0.4403E+00
     13.168  0.3512E-01  0.4436E+00
     13.262  0.6800E-01  0.4500E+00
     13.355  0.1163E+00  0.4608E+00
     13.449  0.7132E-01  0.4675E+00
     13.542  0.5933E-01  0.4730E+00
     13.635  0.2234E-01  0.4751E+00
     13.729  0.1375E-01  0.4764E+00
     13.822  0.1617E-01  0.4779E+00
     13.916  0.8965E-02  0.4788E+00
     14.009  0.5604E-02  0.4793E+00
     14.102  0.1385E-02  0.4794E+00
     14.196  0.4622E-02  0.4798E+00
     14.289  0.1346E-02  0.4800E+00
     14.383  0.3185E-03  0.4800E+00
     14.476  0.4438E-06  0.4800E+00
     14.570  0.9218E-12  0.4800E+00
     14.663  0.0000E+00  0.4800E+00
     14.756  0.0000E+00  0.4800E+00
     14.850  0.0000E+00  0.4800E+00
     14.943  0.0000E+00  0.4800E+00
     15.037  0.0000E+00  0.4800E+00
     15.130  0.0000E+00  0.4800E+00
     15.223  0.0000E+00  0.4800E+00
     15.317  0.0000E+00  0.4800E+00
     15.410  0.0000E+00  0.4800E+00
     15.504  0.0000E+00  0.4800E+00
     15.597  0.0000E+00  0.4800E+00
     15.690  0.0000E+00  0.4800E+00
     15.784  0.0000E+00  0.4800E+00
     15.877  0.0000E+00  0.4800E+00
     15.971  0.0000E+00  0.4800E+00
     16.064  0.0000E+00  0.4800E+00
     16.157  0.0000E+00  0.4800E+00
     16.251  0.0000E+00  0.4800E+00
     16.344  0.0000E+00  0.4800E+00
     16.438  0.0000E+00  0.4800E+00
     16.531  0.2447E-11  0.4800E+00
     16.625  0.1180E-05  0.4800E+00
     16.718  0.8485E-03  0.4801E+00
     16.811  0.3426E-02  0.4804E+00
     16.905  0.9162E-02  0.4813E+00
     16.998  0.1331E-01  0.4825E+00
     17.092  0.5314E-01  0.4875E+00
     17.185  0.6745E-01  0.4938E+00
     17.278  0.2879E-01  0.4965E+00
     17.372  0.3956E-01  0.5001E+00
     17.465  0.6241E-01  0.5060E+00
     17.559  0.3449E-01  0.5092E+00
     17.652  0.2164E-01  0.5112E+00
     17.745  0.2628E-01  0.5137E+00
     17.839  0.5093E-01  0.5184E+00
     17.932  0.4231E-01  0.5224E+00
     18.026  0.2767E-01  0.5250E+00
     18.119  0.3238E-01  0.5280E+00
     18.212  0.4237E-01  0.5320E+00
     18.306  0.5502E-01  0.5371E+00
     18.399  0.4893E-01  0.5417E+00
     18.493  0.6050E-01  0.5473E+00
     18.586  0.4804E-01  0.5518E+00
     18.679  0.5710E-01  0.5571E+00
     18.773  0.2385E-01  0.5594E+00
     18.866  0.3278E-01  0.5624E+00
     18.960  0.6753E-01  0.5687E+00
     19.053  0.5058E-01  0.5735E+00
     19.147  0.4924E-01  0.5781E+00
     19.240  0.5331E-01  0.5830E+00
     19.333  0.5445E-01  0.5881E+00
     19.427  0.7816E-01  0.5954E+00
     19.520  0.3645E-01  0.5988E+00
     19.614  0.2757E-01  0.6014E+00
     19.707  0.3712E-01  0.6049E+00
     19.800  0.2567E-01  0.6073E+00
     19.894  0.4312E-01  0.6113E+00
     19.987  0.4202E-01  0.6152E+00
     20.081  0.8068E-02  0.6160E+00
     20.174  0.3195E-01  0.6190E+00
     20.267  0.6336E-01  0.6249E+00
     20.361  0.2902E-01  0.6276E+00
     20.454  0.2106E-01  0.6296E+00
     20.548  0.1248E-01  0.6307E+00
     20.641  0.2416E-01  0.6330E+00
     20.734  0.2761E-01  0.6356E+00
     20.828  0.3203E-01  0.6385E+00
     20.921  0.3884E-01  0.6422E+00
     21.015  0.1869E-01  0.6439E+00
     21.108  0.3166E-01  0.6469E+00
     21.202  0.6716E-01  0.6532E+00
     21.295  0.2806E-01  0.6558E+00
     21.388  0.1920E-01  0.6576E+00
     21.482  0.2356E-02  0.6578E+00
     21.575  0.9256E-02  0.6587E+00
     21.669  0.1081E-01  0.6597E+00
     21.762  0.3487E-02  0.6600E+00
     21.855  0.1418E-03  0.6600E+00
     21.949  0.2289E-07  0.6600E+00
     22.042  0.4876E-14  0.6600E+00
     22.136  0.0000E+00  0.6600E+00
     22.229  0.0000E+00  0.6600E+00
     22.322  0.0000E+00  0.6600E+00
     22.416  0.0000E+00  0.6600E+00
     22.509  0.0000E+00  0.6600E+00
     22.603  0.0000E+00  0.6600E+00
     22.696  0.0000E+00  0.6600E+00
     22.789  0.0000E+00  0.6600E+00
     22.883  0.0000E+00  0.6600E+00
     22.976  0.0000E+00  0.6600E+00
