       N       E                     dE             d eps       ncg     rms          rms(c)
DAV:   1    -0.145373296613E+03   -0.14537E+03   -0.57373E-05  2508   0.653E-02    0.103E-02
DAV:   2    -0.145373298935E+03   -0.23213E-05   -0.45451E-07  1404   0.458E-03
   1 F= -.17393581E+02 E0= -.17393581E+02  d E =-.173936E+02
       N       E                     dE             d eps       ncg     rms          rms(c)
DAV:   1    -0.136743428990E+03    0.86299E+01   -0.11084E+01  2886   0.143E+01    0.359E+00
DAV:   2    -0.136510357968E+03    0.23307E+00   -0.58262E-01  3054   0.256E+00    0.173E+00
DAV:   3    -0.136489066009E+03    0.21292E-01   -0.80681E-02  3060   0.882E-01    0.500E-01
DAV:   4    -0.136486107803E+03    0.29582E-02   -0.46454E-03  3048   0.212E-01    0.161E-01
DAV:   5    -0.136485715653E+03    0.39215E-03   -0.60176E-04  3012   0.814E-02    0.110E-01
DAV:   6    -0.136485689061E+03    0.26592E-04   -0.73262E-05  2940   0.270E-02    0.842E-03
DAV:   7    -0.136485686421E+03    0.26405E-05   -0.94389E-06  1548   0.102E-02
   2 F= -.16764916E+02 E0= -.16764916E+02  d E =0.628665E+00
       N       E                     dE             d eps       ncg     rms          rms(c)
DAV:   1    -0.143205461414E+03   -0.67198E+01   -0.54242E+00  2892   0.973E+00    0.255E+00
DAV:   2    -0.143085565343E+03    0.11990E+00   -0.30296E-01  3096   0.182E+00    0.121E+00
DAV:   3    -0.143075090300E+03    0.10475E-01   -0.39619E-02  3042   0.609E-01    0.358E-01
DAV:   4    -0.143073371251E+03    0.17190E-02   -0.25759E-03  3060   0.154E-01    0.112E-01
DAV:   5    -0.143073074122E+03    0.29713E-03   -0.41750E-04  3006   0.652E-02    0.752E-02
DAV:   6    -0.143073040287E+03    0.33835E-04   -0.54294E-05  2784   0.227E-02    0.756E-03
DAV:   7    -0.143073041210E+03   -0.92290E-06   -0.62535E-06  1536   0.829E-03
   3 F= -.17518394E+02 E0= -.17518394E+02  d E =-.124813E+00
       N       E                     dE             d eps       ncg     rms          rms(c)
DAV:   1    -0.143034432686E+03    0.38608E-01   -0.22443E-04  2856   0.626E-02    0.151E-02
DAV:   2    -0.143034430875E+03    0.18111E-05   -0.97386E-06  1500   0.107E-02
   4 F= -.17518429E+02 E0= -.17518429E+02  d E =-.124848E+00
       N       E                     dE             d eps       ncg     rms          rms(c)
DAV:   1    -0.143029794416E+03    0.46383E-02   -0.15081E-06  1440   0.497E-03    0.404E-03
DAV:   2    -0.143029795000E+03   -0.58412E-06   -0.23422E-07  1404   0.150E-03
   5 F= -.17518431E+02 E0= -.17518431E+02  d E =-.124850E+00
       N       E                     dE             d eps       ncg     rms          rms(c)
DAV:   1    -0.143031671107E+03   -0.18767E-02   -0.61780E-07  1386   0.343E-03    0.731E-04
DAV:   2    -0.143031671112E+03   -0.53305E-08   -0.31289E-08  1356   0.727E-04
   6 F= -.17518432E+02 E0= -.17518432E+02  d E =-.124851E+00
       N       E                     dE             d eps       ncg     rms          rms(c)
DAV:   1    -0.143010656866E+03    0.21014E-01   -0.14690E-02  2682   0.470E-01    0.493E-02
DAV:   2    -0.143010609260E+03    0.47605E-04   -0.32934E-04  3204   0.682E-02    0.230E-02
DAV:   3    -0.143010601817E+03    0.74439E-05   -0.25383E-05  2028   0.179E-02
   7 F= -.17519996E+02 E0= -.17519996E+02  d E =-.156443E-02
       N       E                     dE             d eps       ncg     rms          rms(c)
DAV:   1    -0.142998054668E+03    0.12555E-01   -0.46552E-03  2688   0.264E-01    0.286E-02
DAV:   2    -0.142998039630E+03    0.15038E-04   -0.10282E-04  3240   0.381E-02    0.143E-02
DAV:   3    -0.142998037081E+03    0.25485E-05   -0.80726E-06  1626   0.102E-02
   8 F= -.17520206E+02 E0= -.17520206E+02  d E =-.177460E-02
