Al4C3 I-43d - H(P) scan @ 100 GPa (ISIF=
           1
     5.896811    0.000000    0.000000
     0.000000    5.896811    0.000000
     0.000000    0.000000    5.896811
   Al   C 
    16    12
Direct configuration=     1
   0.31585300  0.31585300  0.31585300
   0.18414700  0.68414700  0.81585300
   0.68414700  0.81585300  0.18414700
   0.81585300  0.18414700  0.68414700
   0.56585300  0.56585300  0.56585300
   0.93414700  0.43414700  0.06585300
   0.06585300  0.93414700  0.43414700
   0.43414700  0.06585300  0.93414700
   0.81585300  0.81585300  0.81585300
   0.68414700  0.18414700  0.31585300
   0.18414700  0.31585300  0.68414700
   0.31585300  0.68414700  0.18414700
   0.06585300  0.06585300  0.06585300
   0.43414700  0.93414700  0.56585300
   0.56585300  0.43414700  0.93414700
   0.93414700  0.56585300  0.43414700
   0.37500000  0.00000000  0.25000000
   0.12500000  0.00000000  0.75000000
   0.62500000  0.50000000  0.25000000
   0.87500000  0.50000000  0.75000000
   0.25000000  0.37500000  0.00000000
   0.75000000  0.12500000  0.00000000
   0.25000000  0.62500000  0.50000000
   0.75000000  0.87500000  0.50000000
   0.00000000  0.25000000  0.37500000
   0.00000000  0.75000000  0.12500000
   0.50000000  0.25000000  0.62500000
   0.50000000  0.75000000  0.87500000
Al4C3 I-43d - H(P) scan @ 100 GPa (ISIF=
           1
     5.767134    0.000000    0.000000
     0.000000    5.767134    0.000000
     0.000000    0.000000    5.767134
   Al   C 
    16    12
Direct configuration=     2
   0.31585347  0.31585347  0.31585347
   0.18414653  0.68414653  0.81585347
   0.68414653  0.81585347  0.18414653
   0.81585347  0.18414653  0.68414653
   0.56585347  0.56585347  0.56585347
   0.93414653  0.43414653  0.06585347
   0.06585347  0.93414653  0.43414653
   0.43414653  0.06585347  0.93414653
   0.81585347  0.81585347  0.81585347
   0.68414653  0.18414653  0.31585347
   0.18414653  0.31585347  0.68414653
   0.31585347  0.68414653  0.18414653
   0.06585347  0.06585347  0.06585347
   0.43414653  0.93414653  0.56585347
   0.56585347  0.43414653  0.93414653
   0.93414653  0.56585347  0.43414653
   0.37500000 -0.00000000  0.25000000
   0.12500000 -0.00000000  0.75000000
   0.62500000  0.50000000  0.25000000
   0.87500000  0.50000000  0.75000000
   0.25000000  0.37500000  0.00000000
   0.75000000  0.12500000  0.00000000
   0.25000000  0.62500000  0.50000000
   0.75000000  0.87500000  0.50000000
   0.00000000  0.25000000  0.37500000
   0.00000000  0.75000000  0.12500000
   0.50000000  0.25000000  0.62500000
   0.50000000  0.75000000  0.87500000
Al4C3 I-43d - H(P) scan @ 100 GPa (ISIF=
           1
     5.859328    0.000000    0.000000
     0.000000    5.859328    0.000000
     0.000000    0.000000    5.859328
   Al   C 
    16    12
Direct configuration=     3
   0.31585312  0.31585312  0.31585312
   0.18414688  0.68414688  0.81585312
   0.68414688  0.81585312  0.18414688
   0.81585312  0.18414688  0.68414688
   0.56585312  0.56585312  0.56585312
   0.93414688  0.43414688  0.06585312
   0.06585312  0.93414688  0.43414688
   0.43414688  0.06585312  0.93414688
   0.81585312  0.81585312  0.81585312
   0.68414688  0.18414688  0.31585312
   0.18414688  0.31585312  0.68414688
   0.31585312  0.68414688  0.18414688
   0.06585312  0.06585312  0.06585312
   0.43414688  0.93414688  0.56585312
   0.56585312  0.43414688  0.93414688
   0.93414688  0.56585312  0.43414688
   0.37500000 -0.00000000  0.25000000
   0.12500000 -0.00000000  0.75000000
   0.62500000  0.50000000  0.25000000
   0.87500000  0.50000000  0.75000000
   0.25000000  0.37500000  0.00000000
   0.75000000  0.12500000  0.00000000
   0.25000000  0.62500000  0.50000000
   0.75000000  0.87500000  0.50000000
   0.00000000  0.25000000  0.37500000
   0.00000000  0.75000000  0.12500000
   0.50000000  0.25000000  0.62500000
   0.50000000  0.75000000  0.87500000
Al4C3 I-43d - H(P) scan @ 100 GPa (ISIF=
           1
     5.858727    0.000000    0.000000
     0.000000    5.858727    0.000000
     0.000000    0.000000    5.858727
   Al   C 
    16    12
Direct configuration=     4
   0.31585313  0.31585313  0.31585313
   0.18414687  0.68414687  0.81585313
   0.68414687  0.81585313  0.18414687
   0.81585313  0.18414687  0.68414687
   0.56585313  0.56585313  0.56585313
   0.93414687  0.43414687  0.06585313
   0.06585313  0.93414687  0.43414687
   0.43414687  0.06585313  0.93414687
   0.81585313  0.81585313  0.81585313
   0.68414687  0.18414687  0.31585313
   0.18414687  0.31585313  0.68414687
   0.31585313  0.68414687  0.18414687
   0.06585313  0.06585313  0.06585313
   0.43414687  0.93414687  0.56585313
   0.56585313  0.43414687  0.93414687
   0.93414687  0.56585313  0.43414687
   0.37500000 -0.00000000  0.25000000
   0.12500000 -0.00000000  0.75000000
   0.62500000  0.50000000  0.25000000
   0.87500000  0.50000000  0.75000000
   0.25000000  0.37500000  0.00000000
   0.75000000  0.12500000  0.00000000
   0.25000000  0.62500000  0.50000000
   0.75000000  0.87500000  0.50000000
   0.00000000  0.25000000  0.37500000
   0.00000000  0.75000000  0.12500000
   0.50000000  0.25000000  0.62500000
   0.50000000  0.75000000  0.87500000
Al4C3 I-43d - H(P) scan @ 100 GPa (ISIF=
           1
     5.858654    0.000000    0.000000
     0.000000    5.858654    0.000000
     0.000000    0.000000    5.858654
   Al   C 
    16    12
Direct configuration=     5
   0.31585313  0.31585313  0.31585313
   0.18414687  0.68414687  0.81585313
   0.68414687  0.81585313  0.18414687
   0.81585313  0.18414687  0.68414687
   0.56585313  0.56585313  0.56585313
   0.93414687  0.43414687  0.06585313
   0.06585313  0.93414687  0.43414687
   0.43414687  0.06585313  0.93414687
   0.81585313  0.81585313  0.81585313
   0.68414687  0.18414687  0.31585313
   0.18414687  0.31585313  0.68414687
   0.31585313  0.68414687  0.18414687
   0.06585313  0.06585313  0.06585313
   0.43414687  0.93414687  0.56585313
   0.56585313  0.43414687  0.93414687
   0.93414687  0.56585313  0.43414687
   0.37500000 -0.00000000  0.25000000
   0.12500000 -0.00000000  0.75000000
   0.62500000  0.50000000  0.25000000
   0.87500000  0.50000000  0.75000000
   0.25000000  0.37500000  0.00000000
   0.75000000  0.12500000  0.00000000
   0.25000000  0.62500000  0.50000000
   0.75000000  0.87500000  0.50000000
   0.00000000  0.25000000  0.37500000
   0.00000000  0.75000000  0.12500000
   0.50000000  0.25000000  0.62500000
   0.50000000  0.75000000  0.87500000
Al4C3 I-43d - H(P) scan @ 100 GPa (ISIF=
           1
     5.858684    0.000000    0.000000
     0.000000    5.858684    0.000000
     0.000000    0.000000    5.858684
   Al   C 
    16    12
Direct configuration=     6
   0.31585313  0.31585313  0.31585313
   0.18414687  0.68414687  0.81585313
   0.68414687  0.81585313  0.18414687
   0.81585313  0.18414687  0.68414687
   0.56585313  0.56585313  0.56585313
   0.93414687  0.43414687  0.06585313
   0.06585313  0.93414687  0.43414687
   0.43414687  0.06585313  0.93414687
   0.81585313  0.81585313  0.81585313
   0.68414687  0.18414687  0.31585313
   0.18414687  0.31585313  0.68414687
   0.31585313  0.68414687  0.18414687
   0.06585313  0.06585313  0.06585313
   0.43414687  0.93414687  0.56585313
   0.56585313  0.43414687  0.93414687
   0.93414687  0.56585313  0.43414687
   0.37500000 -0.00000000  0.25000000
   0.12500000 -0.00000000  0.75000000
   0.62500000  0.50000000  0.25000000
   0.87500000  0.50000000  0.75000000
   0.25000000  0.37500000  0.00000000
   0.75000000  0.12500000  0.00000000
   0.25000000  0.62500000  0.50000000
   0.75000000  0.87500000  0.50000000
   0.00000000  0.25000000  0.37500000
   0.00000000  0.75000000  0.12500000
   0.50000000  0.25000000  0.62500000
   0.50000000  0.75000000  0.87500000
Al4C3 I-43d - H(P) scan @ 100 GPa (ISIF=
           1
     5.858331    0.000000    0.000000
     0.000000    5.858331    0.000000
     0.000000    0.000000    5.858331
   Al   C 
    16    12
Direct configuration=     7
   0.31609391  0.31609391  0.31609391
   0.18390609  0.68390609  0.81609391
   0.68390609  0.81609391  0.18390609
   0.81609391  0.18390609  0.68390609
   0.56609391  0.56609391  0.56609391
   0.93390609  0.43390609  0.06609391
   0.06609391  0.93390609  0.43390609
   0.43390609  0.06609391  0.93390609
   0.81609391  0.81609391  0.81609391
   0.68390609  0.18390609  0.31609391
   0.18390609  0.31609391  0.68390609
   0.31609391  0.68390609  0.18390609
   0.06609391  0.06609391  0.06609391
   0.43390609  0.93390609  0.56609391
   0.56609391  0.43390609  0.93390609
   0.93390609  0.56609391  0.43390609
   0.37500000  0.00000000  0.25000000
   0.12500000  0.00000000  0.75000000
   0.62500000  0.50000000  0.25000000
   0.87500000  0.50000000  0.75000000
   0.25000000  0.37500000  0.00000000
   0.75000000  0.12500000  0.00000000
   0.25000000  0.62500000  0.50000000
   0.75000000  0.87500000  0.50000000
   0.00000000  0.25000000  0.37500000
   0.00000000  0.75000000  0.12500000
   0.50000000  0.25000000  0.62500000
   0.50000000  0.75000000  0.87500000
Al4C3 I-43d - H(P) scan @ 100 GPa (ISIF=
           1
     5.858133    0.000000    0.000000
     0.000000    5.858133    0.000000
     0.000000    0.000000    5.858133
   Al   C 
    16    12
Direct configuration=     8
   0.31622983  0.31622983  0.31622983
   0.18377017  0.68377017  0.81622983
   0.68377017  0.81622983  0.18377017
   0.81622983  0.18377017  0.68377017
   0.56622983  0.56622983  0.56622983
   0.93377017  0.43377017  0.06622983
   0.06622983  0.93377017  0.43377017
   0.43377017  0.06622983  0.93377017
   0.81622983  0.81622983  0.81622983
   0.68377017  0.18377017  0.31622983
   0.18377017  0.31622983  0.68377017
   0.31622983  0.68377017  0.18377017
   0.06622983  0.06622983  0.06622983
   0.43377017  0.93377017  0.56622983
   0.56622983  0.43377017  0.93377017
   0.93377017  0.56622983  0.43377017
   0.37500000  0.00000000  0.25000000
   0.12500000  0.00000000  0.75000000
   0.62500000  0.50000000  0.25000000
   0.87500000  0.50000000  0.75000000
   0.25000000  0.37500000  0.00000000
   0.75000000  0.12500000  0.00000000
   0.25000000  0.62500000  0.50000000
   0.75000000  0.87500000  0.50000000
   0.00000000  0.25000000  0.37500000
   0.00000000  0.75000000  0.12500000
   0.50000000  0.25000000  0.62500000
   0.50000000  0.75000000  0.87500000
