Al4C3 Pnma (POSCAR.III, symmetrized via 
   1.00000000000000     
     8.4221150255777495    0.0000000000000000    0.0000000000000000
     0.0000000000000000    2.8401027393836626    0.0000000000000000
     0.0000000000000000    0.0000000000000000    9.1826851326452932
   Al   C 
    16    12
Direct
  0.7357437845473702  0.2500000000000000  0.7118131380010458
  0.7642562154526298  0.7500000000000000  0.2118131380010458
  0.2642562154526298  0.7500000000000000  0.2881868619989542
  0.2357437845473702  0.2500000000000000  0.7881868619989542
  0.6053545528187668  0.2500000000000000  0.4681854258962233
  0.8946454471812332  0.7500000000000000  0.9681854258962235
  0.3946454471812332  0.7500000000000000  0.5318145741037765
  0.1053545528187667  0.2500000000000000  0.0318145741037767
  0.1395601557669523  0.2500000000000000  0.5177679760273961
  0.3604398442330477  0.7500000000000000  0.0177679760273960
  0.8604398442330475  0.7500000000000000  0.4822320239726040
  0.6395601557669525  0.2500000000000000  0.9822320239726039
  0.9963284803150506  0.2500000000000000  0.2778991745191798
  0.5036715196849494  0.7500000000000000  0.7778991745191800
  0.0036715196849494  0.7500000000000000  0.7221008254808200
  0.4963284803150507  0.2500000000000000  0.2221008254808201
  0.9288081587120415  0.2500000000000000  0.6172950460758380
  0.5711918412879585  0.7500000000000000  0.1172950460758380
  0.0711918412879658  0.7500000000000000  0.3827049539241619
  0.4288081587120415  0.2500000000000000  0.8827049539241620
  0.3883227702664757  0.2500000000000000  0.4032210319876479
  0.1116772297335242  0.7500000000000000  0.9032210319876407
  0.6116772297335241  0.7500000000000000  0.5967789680123593
  0.8883227702664759  0.2500000000000000  0.0967789680123593
  0.7742350242880310  0.2500000000000000  0.3518776209518439
  0.7257649757119690  0.7500000000000000  0.8518776209518441
  0.2257649757119688  0.7500000000000000  0.6481223790481559
  0.2742350242880311  0.2500000000000000  0.1481223790481561
 
  0.00000000E+00  0.00000000E+00  0.00000000E+00
  0.00000000E+00  0.00000000E+00  0.00000000E+00
  0.00000000E+00  0.00000000E+00  0.00000000E+00
  0.00000000E+00  0.00000000E+00  0.00000000E+00
  0.00000000E+00  0.00000000E+00  0.00000000E+00
  0.00000000E+00  0.00000000E+00  0.00000000E+00
  0.00000000E+00  0.00000000E+00  0.00000000E+00
  0.00000000E+00  0.00000000E+00  0.00000000E+00
  0.00000000E+00  0.00000000E+00  0.00000000E+00
  0.00000000E+00  0.00000000E+00  0.00000000E+00
  0.00000000E+00  0.00000000E+00  0.00000000E+00
  0.00000000E+00  0.00000000E+00  0.00000000E+00
  0.00000000E+00  0.00000000E+00  0.00000000E+00
  0.00000000E+00  0.00000000E+00  0.00000000E+00
  0.00000000E+00  0.00000000E+00  0.00000000E+00
  0.00000000E+00  0.00000000E+00  0.00000000E+00
  0.00000000E+00  0.00000000E+00  0.00000000E+00
  0.00000000E+00  0.00000000E+00  0.00000000E+00
  0.00000000E+00  0.00000000E+00  0.00000000E+00
  0.00000000E+00  0.00000000E+00  0.00000000E+00
  0.00000000E+00  0.00000000E+00  0.00000000E+00
  0.00000000E+00  0.00000000E+00  0.00000000E+00
  0.00000000E+00  0.00000000E+00  0.00000000E+00
  0.00000000E+00  0.00000000E+00  0.00000000E+00
  0.00000000E+00  0.00000000E+00  0.00000000E+00
  0.00000000E+00  0.00000000E+00  0.00000000E+00
  0.00000000E+00  0.00000000E+00  0.00000000E+00
  0.00000000E+00  0.00000000E+00  0.00000000E+00
