       N       E                     dE             d eps       ncg     rms          rms(c)
DAV:   1    -0.154974050364E+03   -0.15497E+03   -0.70410E-05  6696   0.721E-02    0.125E-02
DAV:   2    -0.154974053949E+03   -0.35845E-05   -0.88487E-07  3756   0.659E-03
   1 F= -.28857705E+02 E0= -.28857705E+02  d E =-.288577E+02
       N       E                     dE             d eps       ncg     rms          rms(c)
DAV:   1    -0.145688539577E+03    0.92855E+01   -0.13530E+01  7722   0.159E+01    0.400E+00
DAV:   2    -0.145357949011E+03    0.33059E+00   -0.81841E-01  8394   0.302E+00    0.189E+00
DAV:   3    -0.145327698267E+03    0.30251E-01   -0.14187E-01  8262   0.116E+00    0.544E-01
DAV:   4    -0.145324362286E+03    0.33360E-02   -0.81628E-03  8460   0.301E-01    0.177E-01
DAV:   5    -0.145323849797E+03    0.51249E-03   -0.79298E-04  8304   0.985E-02    0.113E-01
DAV:   6    -0.145323787291E+03    0.62505E-04   -0.22384E-04  8316   0.489E-02    0.175E-02
DAV:   7    -0.145323783646E+03    0.36452E-05   -0.17484E-05  5772   0.213E-02
   2 F= -.28101087E+02 E0= -.28101087E+02  d E =0.756618E+00
       N       E                     dE             d eps       ncg     rms          rms(c)
DAV:   1    -0.152698529054E+03   -0.73747E+01   -0.66131E+00  7704   0.108E+01    0.285E+00
DAV:   2    -0.152528179220E+03    0.17035E+00   -0.42422E-01  8382   0.214E+00    0.132E+00
DAV:   3    -0.152513329745E+03    0.14849E-01   -0.70870E-02  8214   0.805E-01    0.390E-01
DAV:   4    -0.152511369090E+03    0.19607E-02   -0.47150E-03  8430   0.221E-01    0.123E-01
DAV:   5    -0.152511002207E+03    0.36688E-03   -0.59609E-04  8292   0.812E-02    0.768E-02
DAV:   6    -0.152510934005E+03    0.68202E-04   -0.14725E-04  8244   0.385E-02    0.128E-02
DAV:   7    -0.152510928304E+03    0.57011E-05   -0.84108E-06  4398   0.153E-02
   3 F= -.29007566E+02 E0= -.29007566E+02  d E =-.149861E+00
       N       E                     dE             d eps       ncg     rms          rms(c)
DAV:   1    -0.152464801881E+03    0.46132E-01   -0.35628E-04  7674   0.791E-02    0.207E-02
DAV:   2    -0.152464795846E+03    0.60346E-05   -0.20997E-05  4638   0.157E-02
   4 F= -.29007617E+02 E0= -.29007617E+02  d E =-.149912E+00
       N       E                     dE             d eps       ncg     rms          rms(c)
DAV:   1    -0.152458439566E+03    0.63623E-02   -0.40952E-06  4020   0.793E-03    0.580E-03
DAV:   2    -0.152458440373E+03   -0.80676E-06   -0.75930E-07  3924   0.288E-03
   5 F= -.29007619E+02 E0= -.29007619E+02  d E =-.149914E+00
       N       E                     dE             d eps       ncg     rms          rms(c)
DAV:   1    -0.152461245225E+03   -0.28057E-02   -0.15020E-06  3900   0.527E-03    0.107E-03
DAV:   2    -0.152461245204E+03    0.20624E-07   -0.99632E-08  3840   0.125E-03
   6 F= -.29007620E+02 E0= -.29007620E+02  d E =-.149915E+00
       N       E                     dE             d eps       ncg     rms          rms(c)
DAV:   1    -0.152407416957E+03    0.53828E-01   -0.29494E-01  7182   0.223E+00    0.126E-01
DAV:   2    -0.152407032380E+03    0.38458E-03   -0.51585E-03  8676   0.293E-01    0.775E-02
DAV:   3    -0.152406886765E+03    0.14561E-03   -0.60360E-04  8526   0.976E-02    0.329E-02
DAV:   4    -0.152406885447E+03    0.13180E-05   -0.14903E-04  8262   0.378E-02    0.126E-02
DAV:   5    -0.152406884133E+03    0.13139E-05   -0.73313E-06  4704   0.120E-02
   7 F= -.29010158E+02 E0= -.29010158E+02  d E =-.253796E-02
       N       E                     dE             d eps       ncg     rms          rms(c)
DAV:   1    -0.152417107132E+03   -0.10222E-01   -0.92379E-03  7212   0.394E-01    0.224E-02
DAV:   2    -0.152417094082E+03    0.13050E-04   -0.15810E-04  8670   0.515E-02    0.139E-02
DAV:   3    -0.152417089542E+03    0.45402E-05   -0.18065E-05  5136   0.176E-02
   8 F= -.29010281E+02 E0= -.29010281E+02  d E =-.266046E-02
       N       E                     dE             d eps       ncg     rms          rms(c)
DAV:   1    -0.152400721895E+03    0.16372E-01   -0.18334E-01  7128   0.171E+00    0.103E-01
DAV:   2    -0.152400444910E+03    0.27699E-03   -0.43013E-03  8652   0.254E-01    0.610E-02
DAV:   3    -0.152400325572E+03    0.11934E-03   -0.43805E-04  8292   0.858E-02    0.229E-02
DAV:   4    -0.152400331004E+03   -0.54325E-05   -0.12855E-04  7746   0.357E-02    0.112E-02
DAV:   5    -0.152400330609E+03    0.39491E-06   -0.53081E-06  4302   0.888E-03
   9 F= -.29011224E+02 E0= -.29011224E+02  d E =-.943702E-03
       N       E                     dE             d eps       ncg     rms          rms(c)
DAV:   1    -0.152405077457E+03   -0.47465E-02   -0.12236E-02  7164   0.443E-01    0.262E-02
DAV:   2    -0.152405060026E+03    0.17431E-04   -0.28801E-04  8652   0.657E-02    0.158E-02
DAV:   3    -0.152405052296E+03    0.77297E-05   -0.27146E-05  6720   0.217E-02
  10 F= -.29011353E+02 E0= -.29011353E+02  d E =-.107204E-02
       N       E                     dE             d eps       ncg     rms          rms(c)
DAV:   1    -0.152393844674E+03    0.11215E-01   -0.21588E-02  7170   0.591E-01    0.324E-02
DAV:   2    -0.152393838970E+03    0.57043E-05   -0.42641E-04  8664   0.818E-02    0.211E-02
DAV:   3    -0.152393825291E+03    0.13679E-04   -0.30898E-05  6918   0.248E-02    0.884E-03
DAV:   4    -0.152393824813E+03    0.47770E-06   -0.15166E-05  4644   0.133E-02
  11 F= -.29011518E+02 E0= -.29011518E+02  d E =-.165509E-03
       N       E                     dE             d eps       ncg     rms          rms(c)
DAV:   1    -0.152394304191E+03   -0.47890E-03   -0.41227E-05  6624   0.258E-02    0.267E-03
DAV:   2    -0.152394304116E+03    0.74186E-07   -0.97196E-07  3690   0.401E-03
  12 F= -.29011519E+02 E0= -.29011519E+02  d E =-.165858E-03
       N       E                     dE             d eps       ncg     rms          rms(c)
DAV:   1    -0.152399510102E+03   -0.52059E-02   -0.95291E-03  7152   0.398E-01    0.183E-02
DAV:   2    -0.152399510379E+03   -0.27721E-06   -0.13747E-04  8796   0.454E-02    0.120E-02
DAV:   3    -0.152399507697E+03    0.26825E-05   -0.68271E-06  4512   0.122E-02
  13 F= -.29011633E+02 E0= -.29011633E+02  d E =-.114125E-03
       N       E                     dE             d eps       ncg     rms          rms(c)
DAV:   1    -0.152399776389E+03   -0.26601E-03   -0.28013E-05  6090   0.218E-02    0.284E-03
DAV:   2    -0.152399776296E+03    0.92672E-07   -0.81784E-07  3864   0.409E-03
  14 F= -.29011633E+02 E0= -.29011633E+02  d E =-.114079E-03
       N       E                     dE             d eps       ncg     rms          rms(c)
DAV:   1    -0.152395115866E+03    0.46605E-02   -0.55293E-03  7164   0.295E-01    0.159E-02
DAV:   2    -0.152395115615E+03    0.25071E-06   -0.10907E-04  8562   0.421E-02    0.106E-02
DAV:   3    -0.152395112298E+03    0.33166E-05   -0.96329E-06  4362   0.142E-02
  15 F= -.29011682E+02 E0= -.29011682E+02  d E =-.496767E-04
