  28  28   0   0
  0.9236176E+01  0.8575478E-09  0.2958384E-09  0.1019383E-08  0.5000000E-15
  1.000000000000000E-004
  CAR 
 Al4C3 Pnma - H(P) scan @ 10 GPa (ISIF=8)
     17.50531390     -6.36665879  301     10.50535524      1.00000000
     -6.367  0.0000E+00  0.0000E+00
     -6.287  0.0000E+00  0.0000E+00
     -6.208  0.0000E+00  0.0000E+00
     -6.128  0.0000E+00  0.0000E+00
     -6.048  0.0000E+00  0.0000E+00
     -5.969  0.0000E+00  0.0000E+00
     -5.889  0.0000E+00  0.0000E+00
     -5.810  0.0000E+00  0.0000E+00
     -5.730  0.0000E+00  0.0000E+00
     -5.650  0.0000E+00  0.0000E+00
     -5.571  0.7927E-19  0.6308E-20
     -5.491  0.1058E-11  0.8420E-13
     -5.412  0.8233E-07  0.6551E-08
     -5.332  0.5463E-04  0.4353E-05
     -5.253  0.7207E-03  0.6170E-04
     -5.173  0.2782E-02  0.2830E-03
     -5.093  0.5530E-02  0.7231E-03
     -5.014  0.6547E-02  0.1244E-02
     -4.934  0.5988E-02  0.1721E-02
     -4.855  0.6896E-02  0.2269E-02
     -4.775  0.1077E-01  0.3127E-02
     -4.696  0.1321E-01  0.4178E-02
     -4.616  0.1098E-01  0.5052E-02
     -4.536  0.7756E-02  0.5669E-02
     -4.457  0.1119E-01  0.6559E-02
     -4.377  0.1151E-01  0.7475E-02
     -4.298  0.6804E-02  0.8016E-02
     -4.218  0.8852E-02  0.8721E-02
     -4.139  0.1622E-01  0.1001E-01
     -4.059  0.1784E-01  0.1143E-01
     -3.979  0.1292E-01  0.1246E-01
     -3.900  0.1479E-01  0.1364E-01
     -3.820  0.1381E-01  0.1473E-01
     -3.741  0.1616E-01  0.1602E-01
     -3.661  0.1759E-01  0.1742E-01
     -3.582  0.2132E-01  0.1912E-01
     -3.502  0.1036E-01  0.1994E-01
     -3.422  0.8843E-02  0.2064E-01
     -3.343  0.1716E-01  0.2201E-01
     -3.263  0.2362E-01  0.2389E-01
     -3.184  0.2561E-01  0.2593E-01
     -3.104  0.2381E-01  0.2782E-01
     -3.025  0.1837E-01  0.2928E-01
     -2.945  0.1844E-01  0.3075E-01
     -2.865  0.1927E-01  0.3228E-01
     -2.786  0.1785E-01  0.3370E-01
     -2.706  0.2023E-01  0.3531E-01
     -2.627  0.2438E-01  0.3725E-01
     -2.547  0.1514E-01  0.3846E-01
     -2.468  0.2614E-01  0.4054E-01
     -2.388  0.3626E-01  0.4342E-01
     -2.308  0.3070E-01  0.4587E-01
     -2.229  0.3214E-01  0.4842E-01
     -2.149  0.2758E-01  0.5062E-01
     -2.070  0.2511E-01  0.5262E-01
     -1.990  0.2325E-01  0.5447E-01
     -1.911  0.2858E-01  0.5674E-01
     -1.831  0.2969E-01  0.5910E-01
     -1.751  0.3730E-01  0.6207E-01
     -1.672  0.4312E-01  0.6550E-01
     -1.592  0.4686E-01  0.6923E-01
     -1.513  0.4309E-01  0.7266E-01
     -1.433  0.4230E-01  0.7603E-01
     -1.354  0.5413E-01  0.8033E-01
     -1.274  0.6127E-01  0.8521E-01
     -1.194  0.4592E-01  0.8886E-01
     -1.115  0.3769E-01  0.9186E-01
     -1.035  0.4527E-01  0.9546E-01
     -0.956  0.2817E-01  0.9771E-01
     -0.876  0.1710E-01  0.9907E-01
     -0.797  0.2366E-01  0.1009E+00
     -0.717  0.1894E-01  0.1025E+00
     -0.637  0.2009E-01  0.1041E+00
     -0.558  0.1431E-01  0.1052E+00
     -0.478  0.1063E-01  0.1060E+00
     -0.399  0.1705E-01  0.1074E+00
     -0.319  0.2005E-01  0.1090E+00
     -0.240  0.1809E-01  0.1104E+00
     -0.160  0.2211E-01  0.1122E+00
     -0.080  0.1684E-01  0.1135E+00
     -0.001  0.1277E-01  0.1145E+00
      0.079  0.8440E-02  0.1152E+00
      0.158  0.1386E-01  0.1163E+00
      0.238  0.1464E-01  0.1175E+00
      0.317  0.8956E-02  0.1182E+00
      0.397  0.1311E-01  0.1192E+00
      0.477  0.7443E-02  0.1198E+00
      0.556  0.2065E-02  0.1200E+00
      0.636  0.3257E-04  0.1200E+00
      0.715  0.7124E-08  0.1200E+00
      0.795  0.1288E-13  0.1200E+00
      0.875  0.0000E+00  0.1200E+00
      0.954  0.0000E+00  0.1200E+00
      1.034  0.0000E+00  0.1200E+00
      1.113  0.3964E-19  0.1200E+00
      1.193  0.4137E-12  0.1200E+00
      1.272  0.4480E-07  0.1200E+00
      1.352  0.4036E-04  0.1200E+00
      1.432  0.5505E-03  0.1200E+00
      1.511  0.1772E-02  0.1202E+00
      1.591  0.3218E-02  0.1204E+00
      1.670  0.4422E-02  0.1208E+00
      1.750  0.5436E-02  0.1212E+00
      1.829  0.1189E-01  0.1222E+00
      1.909  0.1558E-01  0.1234E+00
      1.989  0.2713E-01  0.1256E+00
      2.068  0.2900E-01  0.1279E+00
      2.148  0.2272E-01  0.1297E+00
      2.227  0.4128E-01  0.1330E+00
      2.307  0.3305E-01  0.1356E+00
      2.386  0.3899E-01  0.1387E+00
      2.466  0.3988E-01  0.1419E+00
      2.546  0.3319E-01  0.1445E+00
      2.625  0.4122E-01  0.1478E+00
      2.705  0.3535E-01  0.1506E+00
      2.784  0.4086E-01  0.1539E+00
      2.864  0.4183E-01  0.1572E+00
      2.943  0.4521E-01  0.1608E+00
      3.023  0.4012E-01  0.1640E+00
      3.103  0.3409E-01  0.1667E+00
      3.182  0.4911E-01  0.1706E+00
      3.262  0.4028E-01  0.1738E+00
      3.341  0.5327E-01  0.1780E+00
      3.421  0.5379E-01  0.1823E+00
      3.500  0.2666E-01  0.1844E+00
      3.580  0.2363E-01  0.1863E+00
      3.660  0.3397E-01  0.1890E+00
      3.739  0.3619E-01  0.1919E+00
      3.819  0.3446E-01  0.1947E+00
      3.898  0.4050E-01  0.1979E+00
      3.978  0.3204E-01  0.2004E+00
      4.057  0.3117E-01  0.2029E+00
      4.137  0.4182E-01  0.2062E+00
      4.217  0.5997E-01  0.2110E+00
      4.296  0.4432E-01  0.2145E+00
      4.376  0.3572E-01  0.2174E+00
      4.455  0.4059E-01  0.2206E+00
      4.535  0.3282E-01  0.2232E+00
      4.614  0.3348E-01  0.2259E+00
      4.694  0.3990E-01  0.2291E+00
      4.774  0.2992E-01  0.2314E+00
      4.853  0.2599E-01  0.2335E+00
      4.933  0.3180E-01  0.2360E+00
      5.012  0.4509E-01  0.2396E+00
      5.092  0.5163E-01  0.2437E+00
      5.171  0.3809E-01  0.2468E+00
      5.251  0.5030E-01  0.2508E+00
      5.331  0.5735E-01  0.2553E+00
      5.410  0.5232E-01  0.2595E+00
      5.490  0.4825E-01  0.2633E+00
      5.569  0.4456E-01  0.2669E+00
      5.649  0.4879E-01  0.2708E+00
      5.728  0.4118E-01  0.2740E+00
      5.808  0.4703E-01  0.2778E+00
      5.888  0.4830E-01  0.2816E+00
      5.967  0.4749E-01  0.2854E+00
      6.047  0.5218E-01  0.2896E+00
      6.126  0.4510E-01  0.2931E+00
      6.206  0.3723E-01  0.2961E+00
      6.285  0.5101E-01  0.3002E+00
      6.365  0.3422E-01  0.3029E+00
      6.445  0.4378E-01  0.3064E+00
      6.524  0.6246E-01  0.3113E+00
      6.604  0.4342E-01  0.3148E+00
      6.683  0.3859E-01  0.3179E+00
      6.763  0.4447E-01  0.3214E+00
      6.842  0.4264E-01  0.3248E+00
      6.922  0.5378E-01  0.3291E+00
      7.002  0.6512E-01  0.3343E+00
      7.081  0.5649E-01  0.3388E+00
      7.161  0.6318E-01  0.3438E+00
      7.240  0.4269E-01  0.3472E+00
      7.320  0.2549E-01  0.3492E+00
      7.400  0.4827E-01  0.3530E+00
      7.479  0.6685E-01  0.3584E+00
      7.559  0.5081E-01  0.3624E+00
      7.638  0.3552E-01  0.3652E+00
      7.718  0.4468E-01  0.3688E+00
      7.797  0.4314E-01  0.3722E+00
      7.877  0.5624E-01  0.3767E+00
      7.957  0.5629E-01  0.3812E+00
      8.036  0.5222E-01  0.3853E+00
      8.116  0.6083E-01  0.3902E+00
      8.195  0.5838E-01  0.3948E+00
      8.275  0.6055E-01  0.3996E+00
      8.354  0.6090E-01  0.4045E+00
      8.434  0.6935E-01  0.4100E+00
      8.514  0.6244E-01  0.4150E+00
      8.593  0.4814E-01  0.4188E+00
      8.673  0.8211E-01  0.4253E+00
      8.752  0.8780E-01  0.4323E+00
      8.832  0.6349E-01  0.4374E+00
      8.911  0.5781E-01  0.4420E+00
      8.991  0.7615E-01  0.4480E+00
      9.071  0.6335E-01  0.4531E+00
      9.150  0.4594E-01  0.4567E+00
      9.230  0.4833E-01  0.4606E+00
      9.309  0.6000E-01  0.4654E+00
      9.389  0.3818E-01  0.4684E+00
      9.468  0.3045E-01  0.4708E+00
      9.548  0.2831E-01  0.4731E+00
      9.628  0.2632E-01  0.4752E+00
      9.707  0.1375E-01  0.4763E+00
      9.787  0.7568E-02  0.4769E+00
      9.866  0.9466E-02  0.4776E+00
      9.946  0.9184E-02  0.4783E+00
     10.025  0.7028E-02  0.4789E+00
     10.105  0.5644E-02  0.4793E+00
     10.185  0.4650E-02  0.4797E+00
     10.264  0.3127E-02  0.4800E+00
     10.344  0.4269E-03  0.4800E+00
     10.423  0.3418E-05  0.4800E+00
     10.503  0.3984E-09  0.4800E+00
     10.582  0.1572E-10  0.4800E+00
     10.662  0.7608E-06  0.4800E+00
     10.742  0.3207E-03  0.4800E+00
     10.821  0.2110E-02  0.4802E+00
     10.901  0.1188E-02  0.4803E+00
     10.980  0.4723E-02  0.4807E+00
     11.060  0.8187E-02  0.4813E+00
     11.139  0.5883E-02  0.4818E+00
     11.219  0.9819E-02  0.4826E+00
     11.299  0.1828E-01  0.4840E+00
     11.378  0.2503E-01  0.4860E+00
     11.458  0.2753E-01  0.4882E+00
     11.537  0.2039E-01  0.4898E+00
     11.617  0.1396E-01  0.4909E+00
     11.696  0.9840E-02  0.4917E+00
     11.776  0.7227E-02  0.4923E+00
     11.856  0.1290E-01  0.4933E+00
     11.935  0.2550E-01  0.4953E+00
     12.015  0.3405E-01  0.4981E+00
     12.094  0.2254E-01  0.4999E+00
     12.174  0.3184E-01  0.5024E+00
     12.253  0.3463E-01  0.5051E+00
     12.333  0.3487E-01  0.5079E+00
     12.413  0.2946E-01  0.5103E+00
     12.492  0.2217E-01  0.5120E+00
     12.572  0.2339E-01  0.5139E+00
     12.651  0.1935E-01  0.5154E+00
     12.731  0.3489E-01  0.5182E+00
     12.810  0.2672E-01  0.5203E+00
     12.890  0.2311E-01  0.5222E+00
     12.970  0.2627E-01  0.5243E+00
     13.049  0.3078E-01  0.5267E+00
     13.129  0.2133E-01  0.5284E+00
     13.208  0.1977E-01  0.5300E+00
     13.288  0.3430E-01  0.5327E+00
     13.368  0.5995E-01  0.5375E+00
     13.447  0.4783E-01  0.5413E+00
     13.527  0.4327E-01  0.5447E+00
     13.606  0.4501E-01  0.5483E+00
     13.686  0.4350E-01  0.5518E+00
     13.765  0.4890E-01  0.5557E+00
     13.845  0.5331E-01  0.5599E+00
     13.925  0.3853E-01  0.5630E+00
     14.004  0.3540E-01  0.5658E+00
     14.084  0.5282E-01  0.5700E+00
     14.163  0.4396E-01  0.5735E+00
     14.243  0.4072E-01  0.5767E+00
     14.322  0.5428E-01  0.5810E+00
     14.402  0.4202E-01  0.5844E+00
     14.482  0.2855E-01  0.5867E+00
     14.561  0.3176E-01  0.5892E+00
     14.641  0.4560E-01  0.5928E+00
     14.720  0.5259E-01  0.5970E+00
     14.800  0.4954E-01  0.6009E+00
     14.879  0.4245E-01  0.6043E+00
     14.959  0.4288E-01  0.6077E+00
     15.039  0.5232E-01  0.6119E+00
     15.118  0.5062E-01  0.6159E+00
     15.198  0.5056E-01  0.6199E+00
     15.277  0.4051E-01  0.6232E+00
     15.357  0.4453E-01  0.6267E+00
     15.436  0.4442E-01  0.6302E+00
     15.516  0.3796E-01  0.6333E+00
     15.596  0.2734E-01  0.6354E+00
     15.675  0.3426E-01  0.6382E+00
     15.755  0.5214E-01  0.6423E+00
     15.834  0.3228E-01  0.6449E+00
     15.914  0.3295E-01  0.6475E+00
     15.993  0.2187E-01  0.6493E+00
     16.073  0.2482E-01  0.6512E+00
     16.153  0.3305E-01  0.6539E+00
     16.232  0.3537E-01  0.6567E+00
     16.312  0.2881E-01  0.6590E+00
     16.391  0.1086E-01  0.6598E+00
     16.471  0.2040E-02  0.6600E+00
     16.550  0.1114E-03  0.6600E+00
     16.630  0.1647E-06  0.6600E+00
     16.710  0.2116E-11  0.6600E+00
     16.789  0.1585E-18  0.6600E+00
     16.869  0.0000E+00  0.6600E+00
     16.948  0.0000E+00  0.6600E+00
     17.028  0.0000E+00  0.6600E+00
     17.107  0.0000E+00  0.6600E+00
     17.187  0.0000E+00  0.6600E+00
     17.267  0.0000E+00  0.6600E+00
     17.346  0.0000E+00  0.6600E+00
     17.426  0.0000E+00  0.6600E+00
     17.505  0.0000E+00  0.6600E+00
