       N       E                     dE             d eps       ncg     rms          rms(c)
DAV:   1    -0.187789323682E+03   -0.18779E+03   -0.95807E+01  8346   0.265E+01    0.258E+01
DAV:   2    -0.165437623372E+03    0.22352E+02   -0.71594E+01  8100   0.230E+01    0.792E+00
DAV:   3    -0.164929775630E+03    0.50785E+00   -0.66429E+00  8196   0.797E+00    0.472E+00
DAV:   4    -0.164832415993E+03    0.97360E-01   -0.43612E-01  8316   0.235E+00    0.148E+00
DAV:   5    -0.164812708201E+03    0.19708E-01   -0.81709E-02  8622   0.105E+00    0.403E-01
DAV:   6    -0.164811250933E+03    0.14573E-02   -0.11907E-02  8622   0.399E-01    0.202E-01
DAV:   7    -0.164811395534E+03   -0.14460E-03   -0.21712E-03  8514   0.166E-01    0.935E-02
DAV:   8    -0.164811424197E+03   -0.28663E-04   -0.33056E-04  8598   0.582E-02    0.347E-02
DAV:   9    -0.164811400881E+03    0.23316E-04   -0.12149E-04  8352   0.349E-02    0.898E-03
DAV:  10    -0.164811401125E+03   -0.24488E-06   -0.10288E-05  4458   0.119E-02
   1 F= -.14867006E+03 E0= -.14867006E+03  d E =-.148670E+03
       N       E                     dE             d eps       ncg     rms          rms(c)
DAV:   1    -0.166724663269E+03   -0.19133E+01   -0.18190E+01  8262   0.164E+01    0.445E+00
DAV:   2    -0.166253477353E+03    0.47119E+00   -0.14491E+00  8346   0.363E+00    0.180E+00
DAV:   3    -0.166227425212E+03    0.26052E-01   -0.14579E-01  8478   0.113E+00    0.606E-01
DAV:   4    -0.166221227215E+03    0.61980E-02   -0.12312E-02  8484   0.324E-01    0.223E-01
DAV:   5    -0.166220105075E+03    0.11221E-02   -0.21144E-03  8574   0.139E-01    0.109E-01
DAV:   6    -0.166219980976E+03    0.12410E-03   -0.27113E-04  8478   0.522E-02    0.425E-02
DAV:   7    -0.166219970804E+03    0.10172E-04   -0.42706E-05  7824   0.229E-02    0.127E-02
DAV:   8    -0.166219968309E+03    0.24950E-05   -0.89175E-06  4476   0.117E-02
   2 F= -.14869665E+03 E0= -.14869665E+03  d E =-.265881E-01
       N       E                     dE             d eps       ncg     rms          rms(c)
DAV:   1    -0.165950028736E+03    0.26994E+00   -0.46121E+00  8220   0.853E+00    0.220E+00
DAV:   2    -0.165836438365E+03    0.11359E+00   -0.34125E-01  8304   0.178E+00    0.911E-01
DAV:   3    -0.165829491415E+03    0.69469E-02   -0.36787E-02  8502   0.574E-01    0.300E-01
DAV:   4    -0.165828037004E+03    0.14544E-02   -0.28609E-03  8424   0.158E-01    0.112E-01
DAV:   5    -0.165827812124E+03    0.22488E-03   -0.46044E-04  8490   0.657E-02    0.567E-02
DAV:   6    -0.165827792153E+03    0.19971E-04   -0.58796E-05  7992   0.243E-02    0.195E-02
DAV:   7    -0.165827792235E+03   -0.82303E-07   -0.93485E-06  4446   0.111E-02
   3 F= -.14899942E+03 E0= -.14899942E+03  d E =-.329356E+00
       N       E                     dE             d eps       ncg     rms          rms(c)
DAV:   1    -0.165824253359E+03    0.35388E-02   -0.13836E-04  8466   0.465E-02    0.119E-02
DAV:   2    -0.165824250960E+03    0.23998E-05   -0.96845E-06  4344   0.101E-02
   4 F= -.14899943E+03 E0= -.14899943E+03  d E =-.329367E+00
       N       E                     dE             d eps       ncg     rms          rms(c)
DAV:   1    -0.165850747062E+03   -0.26494E-01   -0.69832E-01  7140   0.338E+00    0.155E-01
DAV:   2    -0.165850974787E+03   -0.22773E-03   -0.12799E-02  8988   0.406E-01    0.108E-01
DAV:   3    -0.165850659417E+03    0.31537E-03   -0.70893E-04  8904   0.108E-01    0.512E-02
DAV:   4    -0.165850632745E+03    0.26672E-04   -0.37429E-04  8568   0.653E-02    0.213E-02
DAV:   5    -0.165850632386E+03    0.35889E-06   -0.35044E-05  5940   0.224E-02
   5 F= -.14900990E+03 E0= -.14900990E+03  d E =-.104760E-01
       N       E                     dE             d eps       ncg     rms          rms(c)
DAV:   1    -0.165861682887E+03   -0.11050E-01   -0.23556E-01  7134   0.197E+00    0.909E-02
DAV:   2    -0.165861763816E+03   -0.80929E-04   -0.43316E-03  8940   0.236E-01    0.633E-02
DAV:   3    -0.165861656995E+03    0.10682E-03   -0.24372E-04  8892   0.636E-02    0.305E-02
DAV:   4    -0.165861648481E+03    0.85143E-05   -0.12743E-04  8388   0.382E-02    0.129E-02
DAV:   5    -0.165861648523E+03   -0.42598E-07   -0.12188E-05  5106   0.133E-02
   6 F= -.14901168E+03 E0= -.14901168E+03  d E =-.122559E-01
       N       E                     dE             d eps       ncg     rms          rms(c)
DAV:   1    -0.165879064140E+03   -0.17416E-01   -0.93553E-01  7128   0.381E+00    0.162E-01
DAV:   2    -0.165879050030E+03    0.14109E-04   -0.19350E-02  8844   0.511E-01    0.109E-01
DAV:   3    -0.165878677788E+03    0.37224E-03   -0.11761E-03  8520   0.138E-01    0.492E-02
DAV:   4    -0.165878685822E+03   -0.80341E-05   -0.46906E-04  8694   0.648E-02    0.215E-02
DAV:   5    -0.165878687222E+03   -0.13996E-05   -0.17633E-05  5442   0.162E-02
   7 F= -.14901782E+03 E0= -.14901782E+03  d E =-.613446E-02
       N       E                     dE             d eps       ncg     rms          rms(c)
DAV:   1    -0.165880729603E+03   -0.20438E-02   -0.27867E-02  7224   0.658E-01    0.293E-02
DAV:   2    -0.165880728374E+03    0.12293E-05   -0.57408E-04  8844   0.881E-02    0.191E-02
DAV:   3    -0.165880717144E+03    0.11230E-04   -0.36382E-05  8070   0.243E-02    0.856E-03
DAV:   4    -0.165880717723E+03   -0.57965E-06   -0.14250E-05  5052   0.114E-02
   8 F= -.14901797E+03 E0= -.14901797E+03  d E =-.628620E-02
       N       E                     dE             d eps       ncg     rms          rms(c)
DAV:   1    -0.165892078491E+03   -0.11361E-01   -0.48469E-01  7140   0.280E+00    0.112E-01
DAV:   2    -0.165892345466E+03   -0.26698E-03   -0.98120E-03  8868   0.359E-01    0.801E-02
DAV:   3    -0.165892216567E+03    0.12890E-03   -0.40534E-04  8592   0.830E-02    0.473E-02
DAV:   4    -0.165892188204E+03    0.28363E-04   -0.32688E-04  8640   0.580E-02    0.160E-02
DAV:   5    -0.165892185931E+03    0.22731E-05   -0.26631E-05  5970   0.217E-02
   9 F= -.14902135E+03 E0= -.14902135E+03  d E =-.337775E-02
       N       E                     dE             d eps       ncg     rms          rms(c)
DAV:   1    -0.165895044661E+03   -0.28565E-02   -0.51956E-02  7194   0.917E-01    0.375E-02
DAV:   2    -0.165895083283E+03   -0.38622E-04   -0.11066E-03  8892   0.120E-01    0.276E-02
DAV:   3    -0.165895068377E+03    0.14906E-04   -0.41397E-05  7944   0.273E-02    0.168E-02
DAV:   4    -0.165895065355E+03    0.30220E-05   -0.43415E-05  7296   0.212E-02
  10 F= -.14902158E+03 E0= -.14902158E+03  d E =-.360780E-02
       N       E                     dE             d eps       ncg     rms          rms(c)
DAV:   1    -0.165899837426E+03   -0.47690E-02   -0.16246E-01  7146   0.164E+00    0.672E-02
DAV:   2    -0.165899988378E+03   -0.15095E-03   -0.28669E-03  8802   0.194E-01    0.460E-02
DAV:   3    -0.165899930519E+03    0.57859E-04   -0.13101E-04  8808   0.469E-02    0.232E-02
DAV:   4    -0.165899925623E+03    0.48967E-05   -0.78804E-05  8022   0.303E-02
  11 F= -.14902375E+03 E0= -.14902375E+03  d E =-.217239E-02
       N       E                     dE             d eps       ncg     rms          rms(c)
DAV:   1    -0.165904449925E+03   -0.45194E-02   -0.28743E-01  7128   0.218E+00    0.893E-02
DAV:   2    -0.165904733097E+03   -0.28317E-03   -0.51300E-03  8802   0.259E-01    0.616E-02
DAV:   3    -0.165904631862E+03    0.10123E-03   -0.22314E-04  8928   0.616E-02    0.318E-02
DAV:   4    -0.165904622213E+03    0.96498E-05   -0.14549E-04  8520   0.414E-02    0.141E-02
DAV:   5    -0.165904623068E+03   -0.85525E-06   -0.17682E-05  5076   0.153E-02
  12 F= -.14902487E+03 E0= -.14902487E+03  d E =-.329300E-02
       N       E                     dE             d eps       ncg     rms          rms(c)
DAV:   1    -0.165910227511E+03   -0.56053E-02   -0.14708E-01  7128   0.156E+00    0.629E-02
DAV:   2    -0.165910318655E+03   -0.91144E-04   -0.23296E-03  9000   0.176E-01    0.421E-02
DAV:   3    -0.165910285170E+03    0.33484E-04   -0.14729E-04  8898   0.481E-02    0.206E-02
DAV:   4    -0.165910284114E+03    0.10563E-05   -0.41090E-05  6366   0.221E-02
  13 F= -.14902620E+03 E0= -.14902620E+03  d E =-.133515E-02
       N       E                     dE             d eps       ncg     rms          rms(c)
DAV:   1    -0.165912651085E+03   -0.23659E-02   -0.38219E-02  7152   0.797E-01    0.325E-02
DAV:   2    -0.165912676000E+03   -0.24915E-04   -0.59116E-04  9048   0.889E-02    0.218E-02
DAV:   3    -0.165912667833E+03    0.81668E-05   -0.37427E-05  7614   0.247E-02
  14 F= -.14902638E+03 E0= -.14902638E+03  d E =-.150595E-02
       N       E                     dE             d eps       ncg     rms          rms(c)
DAV:   1    -0.165912135409E+03    0.54059E-03   -0.16391E-01  7128   0.165E+00    0.605E-02
DAV:   2    -0.165912200258E+03   -0.64848E-04   -0.19729E-03  9012   0.166E-01    0.380E-02
DAV:   3    -0.165912153079E+03    0.47179E-04   -0.15476E-04  8808   0.505E-02    0.149E-02
DAV:   4    -0.165912154576E+03   -0.14974E-05   -0.51270E-05  6168   0.228E-02
  15 F= -.14902744E+03 E0= -.14902744E+03  d E =-.106345E-02
       N       E                     dE             d eps       ncg     rms          rms(c)
DAV:   1    -0.165909832767E+03    0.23203E-02   -0.63662E-01  7128   0.325E+00    0.118E-01
DAV:   2    -0.165910096974E+03   -0.26421E-03   -0.77101E-03  9024   0.327E-01    0.731E-02
DAV:   3    -0.165909916332E+03    0.18064E-03   -0.61020E-04  8784   0.999E-02    0.279E-02
DAV:   4    -0.165909921311E+03   -0.49798E-05   -0.19552E-04  8652   0.446E-02    0.200E-02
DAV:   5    -0.165909922819E+03   -0.15072E-05   -0.22585E-05  5172   0.157E-02
  16 F= -.14902831E+03 E0= -.14902831E+03  d E =-.193636E-02
       N       E                     dE             d eps       ncg     rms          rms(c)
DAV:   1    -0.165923858927E+03   -0.13938E-01   -0.12433E-01  7140   0.142E+00    0.702E-02
DAV:   2    -0.165923844036E+03    0.14892E-04   -0.21662E-03  8664   0.167E-01    0.447E-02
DAV:   3    -0.165923787968E+03    0.56067E-04   -0.17291E-04  8730   0.524E-02    0.176E-02
DAV:   4    -0.165923787883E+03    0.85519E-07   -0.55390E-05  6444   0.243E-02
  17 F= -.14902876E+03 E0= -.14902876E+03  d E =-.450910E-03
       N       E                     dE             d eps       ncg     rms          rms(c)
DAV:   1    -0.165922853425E+03    0.93454E-03   -0.63850E-04  7320   0.101E-01    0.604E-03
DAV:   2    -0.165922853295E+03    0.12912E-06   -0.12505E-05  5280   0.130E-02
  18 F= -.14902876E+03 E0= -.14902876E+03  d E =-.453479E-03
       N       E                     dE             d eps       ncg     rms          rms(c)
DAV:   1    -0.165913904692E+03    0.89487E-02   -0.13852E-02  7182   0.484E-01    0.326E-02
DAV:   2    -0.165913908728E+03   -0.40356E-05   -0.36223E-04  8868   0.673E-02    0.207E-02
DAV:   3    -0.165913903054E+03    0.56742E-05   -0.22229E-05  5640   0.196E-02
  19 F= -.14902885E+03 E0= -.14902885E+03  d E =-.801346E-04
       N       E                     dE             d eps       ncg     rms          rms(c)
DAV:   1    -0.165916190753E+03   -0.22820E-02   -0.90606E-04  7200   0.124E-01    0.755E-03
DAV:   2    -0.165916190554E+03    0.19899E-06   -0.25649E-05  6120   0.181E-02
  20 F= -.14902886E+03 E0= -.14902886E+03  d E =-.915851E-04
