Al4C3 Pnma - H(P) scan @ 10 GPa (ISIF=8)
           1
     8.575478    0.000000    0.000000
     0.000000    2.958384    0.000000
     0.000000    0.000000   10.193829
   Al   C 
    16    12
Direct configuration=     1
   0.26729585  0.25000000  0.30133754
   0.23270415  0.75000000  0.80133754
   0.73270415  0.75000000  0.69866246
   0.76729585  0.25000000  0.19866246
   0.35337696  0.25000000  0.01386570
   0.14662304  0.75000000  0.51386570
   0.64662304  0.75000000  0.98613430
   0.85337696  0.25000000  0.48613430
   0.51972403  0.25000000  0.79457902
   0.98027597  0.75000000  0.29457902
   0.48027597  0.75000000  0.20542098
   0.01972403  0.25000000  0.70542098
   0.07444182  0.25000000  0.08676512
   0.42555818  0.75000000  0.58676512
   0.92555818  0.75000000  0.91323488
   0.57444182  0.25000000  0.41323488
   0.25336180  0.25000000  0.64084234
   0.24663820  0.75000000  0.14084234
   0.74663820  0.75000000  0.35915766
   0.75336180  0.25000000  0.85915766
   0.59697557  0.25000000  0.61078010
   0.90302443  0.75000000  0.11078010
   0.40302443  0.75000000  0.38921990
   0.09697557  0.25000000  0.88921990
   0.06783321  0.25000000  0.38805716
   0.43216679  0.75000000  0.88805716
   0.93216679  0.75000000  0.61194284
   0.56783321  0.25000000  0.11194284
Al4C3 Pnma - H(P) scan @ 10 GPa (ISIF=8)
           1
     8.813544    0.000000    0.000000
     0.000000    3.040513    0.000000
     0.000000    0.000000   10.476822
   Al   C 
    16    12
Direct configuration=     2
   0.26732573  0.25000000  0.30133451
   0.23267427  0.75000000  0.80133451
   0.73267427  0.75000000  0.69866549
   0.76732573  0.25000000  0.19866549
   0.35334775  0.25000000  0.01388800
   0.14665225  0.75000000  0.51388800
   0.64665225  0.75000000  0.98611200
   0.85334775  0.25000000  0.48611200
   0.51974749  0.25000000  0.79455501
   0.98025251  0.75000000  0.29455501
   0.48025251  0.75000000  0.20544499
   0.01974749  0.25000000  0.70544499
   0.07444393  0.25000000  0.08674837
   0.42555607  0.75000000  0.58674837
   0.92555607  0.75000000  0.91325163
   0.57444393  0.25000000  0.41325163
   0.25337718  0.25000000  0.64083997
   0.24662282  0.75000000  0.14083997
   0.74662282  0.75000000  0.35916003
   0.75337718  0.25000000  0.85916003
   0.59697798  0.25000000  0.61080029
   0.90302202  0.75000000  0.11080029
   0.40302202  0.75000000  0.38919971
   0.09697798  0.25000000  0.88919971
   0.06785344  0.25000000  0.38805825
   0.43214656  0.75000000  0.88805825
   0.93214656  0.75000000  0.61194175
   0.56785344  0.25000000  0.11194175
Al4C3 Pnma - H(P) scan @ 10 GPa (ISIF=8)
           1
     8.695459    0.000000    0.000000
     0.000000    2.999776    0.000000
     0.000000    0.000000   10.336453
   Al   C 
    16    12
Direct configuration=     3
   0.26731131  0.25000000  0.30133597
   0.23268869  0.75000000  0.80133597
   0.73268869  0.75000000  0.69866403
   0.76731131  0.25000000  0.19866403
   0.35336185  0.25000000  0.01387724
   0.14663815  0.75000000  0.51387724
   0.64663815  0.75000000  0.98612276
   0.85336185  0.25000000  0.48612276
   0.51973617  0.25000000  0.79456660
   0.98026383  0.75000000  0.29456660
   0.48026383  0.75000000  0.20543340
   0.01973617  0.25000000  0.70543340
   0.07444291  0.25000000  0.08675645
   0.42555709  0.75000000  0.58675645
   0.92555709  0.75000000  0.91324355
   0.57444291  0.25000000  0.41324355
   0.25336976  0.25000000  0.64084111
   0.24663024  0.75000000  0.14084111
   0.74663024  0.75000000  0.35915889
   0.75336976  0.25000000  0.85915889
   0.59697682  0.25000000  0.61079055
   0.90302318  0.75000000  0.11079055
   0.40302318  0.75000000  0.38920945
   0.09697682  0.25000000  0.88920945
   0.06784367  0.25000000  0.38805772
   0.43215633  0.75000000  0.88805772
   0.93215633  0.75000000  0.61194228
   0.56784367  0.25000000  0.11194228
Al4C3 Pnma - H(P) scan @ 10 GPa (ISIF=8)
           1
     8.694848    0.000000    0.000000
     0.000000    2.999564    0.000000
     0.000000    0.000000   10.335725
   Al   C 
    16    12
Direct configuration=     4
   0.26731123  0.25000000  0.30133598
   0.23268877  0.75000000  0.80133598
   0.73268877  0.75000000  0.69866402
   0.76731123  0.25000000  0.19866402
   0.35336193  0.25000000  0.01387718
   0.14663807  0.75000000  0.51387718
   0.64663807  0.75000000  0.98612282
   0.85336193  0.25000000  0.48612282
   0.51973611  0.25000000  0.79456666
   0.98026389  0.75000000  0.29456666
   0.48026389  0.75000000  0.20543334
   0.01973611  0.25000000  0.70543334
   0.07444291  0.25000000  0.08675650
   0.42555709  0.75000000  0.58675650
   0.92555709  0.75000000  0.91324350
   0.57444291  0.25000000  0.41324350
   0.25336972  0.25000000  0.64084112
   0.24663028  0.75000000  0.14084112
   0.74663028  0.75000000  0.35915888
   0.75336972  0.25000000  0.85915888
   0.59697681  0.25000000  0.61079050
   0.90302319  0.75000000  0.11079050
   0.40302319  0.75000000  0.38920950
   0.09697681  0.25000000  0.88920950
   0.06784362  0.25000000  0.38805772
   0.43215638  0.75000000  0.88805772
   0.93215638  0.75000000  0.61194228
   0.56784362  0.25000000  0.11194228
Al4C3 Pnma - H(P) scan @ 10 GPa (ISIF=8)
           1
     8.697587    0.000000    0.000000
     0.000000    3.000509    0.000000
     0.000000    0.000000   10.338981
   Al   C 
    16    12
Direct configuration=     5
   0.26704060  0.25000000  0.30169018
   0.23295940  0.75000000  0.80169018
   0.73295940  0.75000000  0.69830982
   0.76704060  0.25000000  0.19830982
   0.35394837  0.25000000  0.01399940
   0.14605163  0.75000000  0.51399940
   0.64605163  0.75000000  0.98600060
   0.85394837  0.25000000  0.48600060
   0.51996498  0.25000000  0.79497531
   0.98003502  0.75000000  0.29497531
   0.48003502  0.75000000  0.20502469
   0.01996498  0.25000000  0.70502469
   0.07447482  0.25000000  0.08630177
   0.42552518  0.75000000  0.58630177
   0.92552518  0.75000000  0.91369823
   0.57447482  0.25000000  0.41369823
   0.25295630  0.25000000  0.64077956
   0.24704370  0.75000000  0.14077956
   0.74704370  0.75000000  0.35922044
   0.75295630  0.25000000  0.85922044
   0.59646747  0.25000000  0.61123465
   0.90353253  0.75000000  0.11123465
   0.40353253  0.75000000  0.38876535
   0.09646747  0.25000000  0.88876535
   0.06791589  0.25000000  0.38763147
   0.43208411  0.75000000  0.88763147
   0.93208411  0.75000000  0.61236853
   0.56791589  0.25000000  0.11236853
Al4C3 Pnma - H(P) scan @ 10 GPa (ISIF=8)
           1
     8.699176    0.000000    0.000000
     0.000000    3.001058    0.000000
     0.000000    0.000000   10.340871
   Al   C 
    16    12
Direct configuration=     6
   0.26688357  0.25000000  0.30189569
   0.23311643  0.75000000  0.80189569
   0.73311643  0.75000000  0.69810431
   0.76688357  0.25000000  0.19810431
   0.35428863  0.25000000  0.01407032
   0.14571137  0.75000000  0.51407032
   0.64571137  0.75000000  0.98592968
   0.85428863  0.25000000  0.48592968
   0.52009778  0.25000000  0.79521241
   0.97990222  0.75000000  0.29521241
   0.47990222  0.75000000  0.20478759
   0.02009778  0.25000000  0.70478759
   0.07449334  0.25000000  0.08603793
   0.42550666  0.75000000  0.58603793
   0.92550666  0.75000000  0.91396207
   0.57449334  0.25000000  0.41396207
   0.25271642  0.25000000  0.64074385
   0.24728358  0.75000000  0.14074385
   0.74728358  0.75000000  0.35925615
   0.75271642  0.25000000  0.85925615
   0.59617194  0.25000000  0.61149235
   0.90382806  0.75000000  0.11149235
   0.40382806  0.75000000  0.38850765
   0.09617194  0.25000000  0.88850765
   0.06795782  0.25000000  0.38738415
   0.43204218  0.75000000  0.88738415
   0.93204218  0.75000000  0.61261585
   0.56795782  0.25000000  0.11261585
Al4C3 Pnma - H(P) scan @ 10 GPa (ISIF=8)
           1
     8.701053    0.000000    0.000000
     0.000000    3.001705    0.000000
     0.000000    0.000000   10.343101
   Al   C 
    16    12
Direct configuration=     7
   0.26728931  0.25000000  0.30207076
   0.23271069  0.75000000  0.80207076
   0.73271069  0.75000000  0.69792924
   0.76728931  0.25000000  0.19792924
   0.35481997  0.25000000  0.01441543
   0.14518003  0.75000000  0.51441543
   0.64518003  0.75000000  0.98558457
   0.85481997  0.25000000  0.48558457
   0.52080199  0.25000000  0.79517035
   0.97919801  0.75000000  0.29517035
   0.47919801  0.75000000  0.20482965
   0.02080199  0.25000000  0.70482965
   0.07492262  0.25000000  0.08573715
   0.42507738  0.75000000  0.58573715
   0.92507738  0.75000000  0.91426285
   0.57492262  0.25000000  0.41426285
   0.25218543  0.25000000  0.64040810
   0.24781457  0.75000000  0.14040810
   0.74781457  0.75000000  0.35959190
   0.75218543  0.25000000  0.85959190
   0.59547363  0.25000000  0.61192135
   0.90452637  0.75000000  0.11192135
   0.40452637  0.75000000  0.38807865
   0.09547363  0.25000000  0.88807865
   0.06794689  0.25000000  0.38751088
   0.43205311  0.75000000  0.88751088
   0.93205311  0.75000000  0.61248912
   0.56794689  0.25000000  0.11248912
Al4C3 Pnma - H(P) scan @ 10 GPa (ISIF=8)
           1
     8.701376    0.000000    0.000000
     0.000000    3.001816    0.000000
     0.000000    0.000000   10.343485
   Al   C 
    16    12
Direct configuration=     8
   0.26735918  0.25000000  0.30210091
   0.23264082  0.75000000  0.80210091
   0.73264082  0.75000000  0.69789909
   0.76735918  0.25000000  0.19789909
   0.35491148  0.25000000  0.01447486
   0.14508852  0.75000000  0.51447486
   0.64508852  0.75000000  0.98552514
   0.85491148  0.25000000  0.48552514
   0.52092326  0.25000000  0.79516310
   0.97907674  0.75000000  0.29516310
   0.47907674  0.75000000  0.20483690
   0.02092326  0.25000000  0.70483690
   0.07499655  0.25000000  0.08568535
   0.42500345  0.75000000  0.58568535
   0.92500345  0.75000000  0.91431465
   0.57499655  0.25000000  0.41431465
   0.25209399  0.25000000  0.64035028
   0.24790601  0.75000000  0.14035028
   0.74790601  0.75000000  0.35964972
   0.75209399  0.25000000  0.85964972
   0.59535337  0.25000000  0.61199523
   0.90464663  0.75000000  0.11199523
   0.40464663  0.75000000  0.38800477
   0.09535337  0.25000000  0.88800477
   0.06794501  0.25000000  0.38753271
   0.43205499  0.75000000  0.88753271
   0.93205499  0.75000000  0.61246729
   0.56794501  0.25000000  0.11246729
Al4C3 Pnma - H(P) scan @ 10 GPa (ISIF=8)
           1
     8.702767    0.000000    0.000000
     0.000000    3.002296    0.000000
     0.000000    0.000000   10.345139
   Al   C 
    16    12
Direct configuration=     9
   0.26751601  0.25000000  0.30234446
   0.23248399  0.75000000  0.80234446
   0.73248399  0.75000000  0.69765554
   0.76751601  0.25000000  0.19765554
   0.35544066  0.25000000  0.01462168
   0.14455934  0.75000000  0.51462168
   0.64455934  0.75000000  0.98537832
   0.85544066  0.25000000  0.48537832
   0.52093430  0.25000000  0.79531913
   0.97906570  0.75000000  0.29531913
   0.47906570  0.75000000  0.20468087
   0.02093430  0.25000000  0.70468087
   0.07572080  0.25000000  0.08574991
   0.42427920  0.75000000  0.58574991
   0.92427920  0.75000000  0.91425009
   0.57572080  0.25000000  0.41425009
   0.25178627  0.25000000  0.63992803
   0.24821373  0.75000000  0.13992803
   0.74821373  0.75000000  0.36007197
   0.75178627  0.25000000  0.86007197
   0.59481606  0.25000000  0.61191487
   0.90518394  0.75000000  0.11191487
   0.40518394  0.75000000  0.38808513
   0.09481606  0.25000000  0.88808513
   0.06815188  0.25000000  0.38756514
   0.43184812  0.75000000  0.88756514
   0.93184812  0.75000000  0.61243486
   0.56815188  0.25000000  0.11243486
Al4C3 Pnma - H(P) scan @ 10 GPa (ISIF=8)
           1
     8.703223    0.000000    0.000000
     0.000000    3.002454    0.000000
     0.000000    0.000000   10.345681
   Al   C 
    16    12
Direct configuration=    10
   0.26756735  0.25000000  0.30242418
   0.23243265  0.75000000  0.80242418
   0.73243265  0.75000000  0.69757582
   0.76756735  0.25000000  0.19757582
   0.35561388  0.25000000  0.01466973
   0.14438612  0.75000000  0.51466973
   0.64438612  0.75000000  0.98533027
   0.85561388  0.25000000  0.48533027
   0.52093791  0.25000000  0.79537020
   0.97906209  0.75000000  0.29537020
   0.47906209  0.75000000  0.20462980
   0.02093791  0.25000000  0.70462980
   0.07595788  0.25000000  0.08577105
   0.42404212  0.75000000  0.58577105
   0.92404212  0.75000000  0.91422895
   0.57595788  0.25000000  0.41422895
   0.25168554  0.25000000  0.63978980
   0.24831446  0.75000000  0.13978980
   0.74831446  0.75000000  0.36021020
   0.75168554  0.25000000  0.86021020
   0.59464017  0.25000000  0.61188856
   0.90535983  0.75000000  0.11188856
   0.40535983  0.75000000  0.38811144
   0.09464017  0.25000000  0.88811144
   0.06821959  0.25000000  0.38757576
   0.43178041  0.75000000  0.88757576
   0.93178041  0.75000000  0.61242424
   0.56821959  0.25000000  0.11242424
Al4C3 Pnma - H(P) scan @ 10 GPa (ISIF=8)
           1
     8.703685    0.000000    0.000000
     0.000000    3.002613    0.000000
     0.000000    0.000000   10.346230
   Al   C 
    16    12
Direct configuration=    11
   0.26800373  0.25000000  0.30281821
   0.23199627  0.75000000  0.80281821
   0.73199627  0.75000000  0.69718179
   0.76800373  0.25000000  0.19718179
   0.35582229  0.25000000  0.01463537
   0.14417771  0.75000000  0.51463537
   0.64417771  0.75000000  0.98536463
   0.85582229  0.25000000  0.48536463
   0.52064365  0.25000000  0.79525083
   0.97935635  0.75000000  0.29525083
   0.47935635  0.75000000  0.20474917
   0.02064365  0.25000000  0.70474917
   0.07632038  0.25000000  0.08574919
   0.42367962  0.75000000  0.58574919
   0.92367962  0.75000000  0.91425081
   0.57632038  0.25000000  0.41425081
   0.25139912  0.25000000  0.63964827
   0.24860088  0.75000000  0.13964827
   0.74860088  0.75000000  0.36035173
   0.75139912  0.25000000  0.86035173
   0.59445096  0.25000000  0.61198085
   0.90554904  0.75000000  0.11198085
   0.40554904  0.75000000  0.38801915
   0.09445096  0.25000000  0.88801915
   0.06844845  0.25000000  0.38751123
   0.43155155  0.75000000  0.88751123
   0.93155155  0.75000000  0.61248877
   0.56844845  0.25000000  0.11248877
Al4C3 Pnma - H(P) scan @ 10 GPa (ISIF=8)
           1
     8.704300    0.000000    0.000000
     0.000000    3.002825    0.000000
     0.000000    0.000000   10.346961
   Al   C 
    16    12
Direct configuration=    12
   0.26858433  0.25000000  0.30334245
   0.23141567  0.75000000  0.80334245
   0.73141567  0.75000000  0.69665755
   0.76858433  0.25000000  0.19665755
   0.35609957  0.25000000  0.01458965
   0.14390043  0.75000000  0.51458965
   0.64390043  0.75000000  0.98541035
   0.85609957  0.25000000  0.48541035
   0.52025213  0.25000000  0.79509201
   0.97974787  0.75000000  0.29509201
   0.47974787  0.75000000  0.20490799
   0.02025213  0.25000000  0.70490799
   0.07680268  0.25000000  0.08572010
   0.42319732  0.75000000  0.58572010
   0.92319732  0.75000000  0.91427990
   0.57680268  0.25000000  0.41427990
   0.25101803  0.25000000  0.63945997
   0.24898197  0.75000000  0.13945997
   0.74898197  0.75000000  0.36054003
   0.75101803  0.25000000  0.86054003
   0.59419923  0.25000000  0.61210364
   0.90580077  0.75000000  0.11210364
   0.40580077  0.75000000  0.38789636
   0.09419923  0.25000000  0.88789636
   0.06875294  0.25000000  0.38742538
   0.43124706  0.75000000  0.88742538
   0.93124706  0.75000000  0.61257462
   0.56875294  0.25000000  0.11257462
Al4C3 Pnma - H(P) scan @ 10 GPa (ISIF=8)
           1
     8.705043    0.000000    0.000000
     0.000000    3.003082    0.000000
     0.000000    0.000000   10.347845
   Al   C 
    16    12
Direct configuration=    13
   0.26910619  0.25000000  0.30347278
   0.23089381  0.75000000  0.80347278
   0.73089381  0.75000000  0.69652722
   0.76910619  0.25000000  0.19652722
   0.35625048  0.25000000  0.01485767
   0.14374952  0.75000000  0.51485767
   0.64374952  0.75000000  0.98514233
   0.85625048  0.25000000  0.48514233
   0.51981980  0.25000000  0.79506277
   0.98018020  0.75000000  0.29506277
   0.48018020  0.75000000  0.20493723
   0.01981980  0.25000000  0.70493723
   0.07701399  0.25000000  0.08555381
   0.42298601  0.75000000  0.58555381
   0.92298601  0.75000000  0.91444619
   0.57701399  0.25000000  0.41444619
   0.25079296  0.25000000  0.63955465
   0.24920704  0.75000000  0.13955465
   0.74920704  0.75000000  0.36044535
   0.75079296  0.25000000  0.86044535
   0.59391019  0.25000000  0.61195111
   0.90608981  0.75000000  0.11195111
   0.40608981  0.75000000  0.38804889
   0.09391019  0.25000000  0.88804889
   0.06886849  0.25000000  0.38736622
   0.43113151  0.75000000  0.88736622
   0.93113151  0.75000000  0.61263378
   0.56886849  0.25000000  0.11263378
Al4C3 Pnma - H(P) scan @ 10 GPa (ISIF=8)
           1
     8.705423    0.000000    0.000000
     0.000000    3.003213    0.000000
     0.000000    0.000000   10.348297
   Al   C 
    16    12
Direct configuration=    14
   0.26937309  0.25000000  0.30353944
   0.23062691  0.75000000  0.80353944
   0.73062691  0.75000000  0.69646056
   0.76937309  0.25000000  0.19646056
   0.35632767  0.25000000  0.01499474
   0.14367233  0.75000000  0.51499474
   0.64367233  0.75000000  0.98500526
   0.85632767  0.25000000  0.48500526
   0.51959868  0.25000000  0.79504781
   0.98040132  0.75000000  0.29504781
   0.48040132  0.75000000  0.20495219
   0.01959868  0.25000000  0.70495219
   0.07712207  0.25000000  0.08546876
   0.42287793  0.75000000  0.58546876
   0.92287793  0.75000000  0.91453124
   0.57712207  0.25000000  0.41453124
   0.25067785  0.25000000  0.63960307
   0.24932215  0.75000000  0.13960307
   0.74932215  0.75000000  0.36039693
   0.75067785  0.25000000  0.86039693
   0.59376237  0.25000000  0.61187310
   0.90623763  0.75000000  0.11187310
   0.40623763  0.75000000  0.38812690
   0.09376237  0.25000000  0.88812690
   0.06892759  0.25000000  0.38733595
   0.43107241  0.75000000  0.88733595
   0.93107241  0.75000000  0.61266405
   0.56892759  0.25000000  0.11266405
Al4C3 Pnma - H(P) scan @ 10 GPa (ISIF=8)
           1
     8.705152    0.000000    0.000000
     0.000000    3.003119    0.000000
     0.000000    0.000000   10.347975
   Al   C 
    16    12
Direct configuration=    15
   0.26955538  0.25000000  0.30360805
   0.23044462  0.75000000  0.80360805
   0.73044462  0.75000000  0.69639195
   0.76955538  0.25000000  0.19639195
   0.35649584  0.25000000  0.01525831
   0.14350416  0.75000000  0.51525831
   0.64350416  0.75000000  0.98474169
   0.85649584  0.25000000  0.48474169
   0.51920831  0.25000000  0.79491655
   0.98079169  0.75000000  0.29491655
   0.48079169  0.75000000  0.20508345
   0.01920831  0.25000000  0.70508345
   0.07722326  0.25000000  0.08542862
   0.42277674  0.75000000  0.58542862
   0.92277674  0.75000000  0.91457138
   0.57722326  0.25000000  0.41457138
   0.25049007  0.25000000  0.63975768
   0.24950993  0.75000000  0.13975768
   0.74950993  0.75000000  0.36024232
   0.75049007  0.25000000  0.86024232
   0.59348380  0.25000000  0.61188219
   0.90651620  0.75000000  0.11188219
   0.40651620  0.75000000  0.38811781
   0.09348380  0.25000000  0.88811781
   0.06922080  0.25000000  0.38736329
   0.43077920  0.75000000  0.88736329
   0.93077920  0.75000000  0.61263671
   0.56922080  0.25000000  0.11263671
Al4C3 Pnma - H(P) scan @ 10 GPa (ISIF=8)
           1
     8.704619    0.000000    0.000000
     0.000000    3.002935    0.000000
     0.000000    0.000000   10.347341
   Al   C 
    16    12
Direct configuration=    16
   0.26991437  0.25000000  0.30374318
   0.23008563  0.75000000  0.80374318
   0.73008563  0.75000000  0.69625682
   0.76991437  0.25000000  0.19625682
   0.35682702  0.25000000  0.01577735
   0.14317298  0.75000000  0.51577735
   0.64317298  0.75000000  0.98422265
   0.85682702  0.25000000  0.48422265
   0.51843954  0.25000000  0.79465804
   0.98156046  0.75000000  0.29465804
   0.48156046  0.75000000  0.20534196
   0.01843954  0.25000000  0.70534196
   0.07742254  0.25000000  0.08534956
   0.42257746  0.75000000  0.58534956
   0.92257746  0.75000000  0.91465044
   0.57742254  0.25000000  0.41465044
   0.25012028  0.25000000  0.64006216
   0.24987972  0.75000000  0.14006216
   0.74987972  0.75000000  0.35993784
   0.75012028  0.25000000  0.85993784
   0.59293521  0.25000000  0.61190009
   0.90706479  0.75000000  0.11190009
   0.40706479  0.75000000  0.38809991
   0.09293521  0.25000000  0.88809991
   0.06979822  0.25000000  0.38741713
   0.43020178  0.75000000  0.88741713
   0.93020178  0.75000000  0.61258287
   0.56979822  0.25000000  0.11258287
Al4C3 Pnma - H(P) scan @ 10 GPa (ISIF=8)
           1
     8.706924    0.000000    0.000000
     0.000000    3.003730    0.000000
     0.000000    0.000000   10.350081
   Al   C 
    16    12
Direct configuration=    17
   0.27004430  0.25000000  0.30373981
   0.22995570  0.75000000  0.80373981
   0.72995570  0.75000000  0.69626019
   0.77004430  0.25000000  0.19626019
   0.35705165  0.25000000  0.01591482
   0.14294835  0.75000000  0.51591482
   0.64294835  0.75000000  0.98408518
   0.85705165  0.25000000  0.48408518
   0.51804221  0.25000000  0.79458223
   0.98195779  0.75000000  0.29458223
   0.48195779  0.75000000  0.20541777
   0.01804221  0.25000000  0.70541777
   0.07743753  0.25000000  0.08534357
   0.42256247  0.75000000  0.58534357
   0.92256247  0.75000000  0.91465643
   0.57743753  0.25000000  0.41465643
   0.24998785  0.25000000  0.64013262
   0.25001215  0.75000000  0.14013262
   0.75001215  0.75000000  0.35986738
   0.74998785  0.25000000  0.85986738
   0.59275807  0.25000000  0.61202486
   0.90724193  0.75000000  0.11202486
   0.40724193  0.75000000  0.38797514
   0.09275807  0.25000000  0.88797514
   0.06983966  0.25000000  0.38766095
   0.43016034  0.75000000  0.88766095
   0.93016034  0.75000000  0.61233905
   0.56983966  0.25000000  0.11233905
Al4C3 Pnma - H(P) scan @ 10 GPa (ISIF=8)
           1
     8.706763    0.000000    0.000000
     0.000000    3.003675    0.000000
     0.000000    0.000000   10.349889
   Al   C 
    16    12
Direct configuration=    18
   0.27003522  0.25000000  0.30374004
   0.22996478  0.75000000  0.80374004
   0.72996478  0.75000000  0.69625996
   0.77003522  0.25000000  0.19625996
   0.35703596  0.25000000  0.01590522
   0.14296404  0.75000000  0.51590522
   0.64296404  0.75000000  0.98409478
   0.85703596  0.25000000  0.48409478
   0.51806995  0.25000000  0.79458753
   0.98193005  0.75000000  0.29458753
   0.48193005  0.75000000  0.20541247
   0.01806995  0.25000000  0.70541247
   0.07743648  0.25000000  0.08534398
   0.42256352  0.75000000  0.58534398
   0.92256352  0.75000000  0.91465602
   0.57743648  0.25000000  0.41465602
   0.24999709  0.25000000  0.64012770
   0.25000291  0.75000000  0.14012770
   0.75000291  0.75000000  0.35987230
   0.74999709  0.25000000  0.85987230
   0.59277044  0.25000000  0.61201615
   0.90722956  0.75000000  0.11201615
   0.40722956  0.75000000  0.38798385
   0.09277044  0.25000000  0.88798385
   0.06983677  0.25000000  0.38764393
   0.43016323  0.75000000  0.88764393
   0.93016323  0.75000000  0.61235607
   0.56983677  0.25000000  0.11235607
Al4C3 Pnma - H(P) scan @ 10 GPa (ISIF=8)
           1
     8.705211    0.000000    0.000000
     0.000000    3.003140    0.000000
     0.000000    0.000000   10.348045
   Al   C 
    16    12
Direct configuration=    19
   0.27001969  0.25000000  0.30372555
   0.22998031  0.75000000  0.80372555
   0.72998031  0.75000000  0.69627445
   0.77001969  0.25000000  0.19627445
   0.35709732  0.25000000  0.01594929
   0.14290268  0.75000000  0.51594929
   0.64290268  0.75000000  0.98405071
   0.85709732  0.25000000  0.48405071
   0.51788147  0.25000000  0.79463980
   0.98211853  0.75000000  0.29463980
   0.48211853  0.75000000  0.20536020
   0.01788147  0.25000000  0.70536020
   0.07747102  0.25000000  0.08527747
   0.42252898  0.75000000  0.58527747
   0.92252898  0.75000000  0.91472253
   0.57747102  0.25000000  0.41472253
   0.24999655  0.25000000  0.64012123
   0.25000345  0.75000000  0.14012123
   0.75000345  0.75000000  0.35987877
   0.74999655  0.25000000  0.85987877
   0.59271344  0.25000000  0.61206686
   0.90728656  0.75000000  0.11206686
   0.40728656  0.75000000  0.38793314
   0.09271344  0.25000000  0.88793314
   0.06986297  0.25000000  0.38772747
   0.43013703  0.75000000  0.88772747
   0.93013703  0.75000000  0.61227253
   0.56986297  0.25000000  0.11227253
Al4C3 Pnma - H(P) scan @ 10 GPa (ISIF=8)
           1
     8.705602    0.000000    0.000000
     0.000000    3.003275    0.000000
     0.000000    0.000000   10.348510
   Al   C 
    16    12
Direct configuration=    20
   0.27002361  0.25000000  0.30372920
   0.22997639  0.75000000  0.80372920
   0.72997639  0.75000000  0.69627080
   0.77002361  0.25000000  0.19627080
   0.35708185  0.25000000  0.01593818
   0.14291815  0.75000000  0.51593818
   0.64291815  0.75000000  0.98406182
   0.85708185  0.25000000  0.48406182
   0.51792899  0.25000000  0.79462662
   0.98207101  0.75000000  0.29462662
   0.48207101  0.75000000  0.20537338
   0.01792899  0.25000000  0.70537338
   0.07746231  0.25000000  0.08529424
   0.42253769  0.75000000  0.58529424
   0.92253769  0.75000000  0.91470576
   0.57746231  0.25000000  0.41470576
   0.24999669  0.25000000  0.64012286
   0.25000331  0.75000000  0.14012286
   0.75000331  0.75000000  0.35987714
   0.74999669  0.25000000  0.85987714
   0.59272781  0.25000000  0.61205407
   0.90727219  0.75000000  0.11205407
   0.40727219  0.75000000  0.38794593
   0.09272781  0.25000000  0.88794593
   0.06985637  0.25000000  0.38770641
   0.43014363  0.75000000  0.88770641
   0.93014363  0.75000000  0.61229359
   0.56985637  0.25000000  0.11229359
