  28  28   0   0
  0.9663037E+01  0.8705602E-09  0.3003275E-09  0.1034851E-08  0.5000000E-15
  1.000000000000000E-004
  CAR 
 Al4C3 Pnma - r2SCAN H(P) scan @ 10 GPa (
     18.45440602     -7.23982350  301     10.66584270      1.00000000
     -7.240  0.0000E+00  0.0000E+00
     -7.154  0.0000E+00  0.0000E+00
     -7.069  0.0000E+00  0.0000E+00
     -6.983  0.0000E+00  0.0000E+00
     -6.897  0.0000E+00  0.0000E+00
     -6.812  0.0000E+00  0.0000E+00
     -6.726  0.0000E+00  0.0000E+00
     -6.640  0.0000E+00  0.0000E+00
     -6.555  0.0000E+00  0.0000E+00
     -6.469  0.0000E+00  0.0000E+00
     -6.383  0.0000E+00  0.0000E+00
     -6.298  0.5629E-13  0.4821E-14
     -6.212  0.2444E-07  0.2093E-08
     -6.126  0.4100E-04  0.3513E-05
     -6.041  0.6698E-03  0.6088E-04
     -5.955  0.2687E-02  0.2910E-03
     -5.869  0.5373E-02  0.7512E-03
     -5.784  0.6192E-02  0.1282E-02
     -5.698  0.5500E-02  0.1753E-02
     -5.613  0.6783E-02  0.2334E-02
     -5.527  0.1086E-01  0.3264E-02
     -5.441  0.1217E-01  0.4306E-02
     -5.356  0.9984E-02  0.5162E-02
     -5.270  0.7662E-02  0.5818E-02
     -5.184  0.1102E-01  0.6762E-02
     -5.099  0.1037E-01  0.7650E-02
     -5.013  0.6271E-02  0.8187E-02
     -4.927  0.1049E-01  0.9085E-02
     -4.842  0.1675E-01  0.1052E-01
     -4.756  0.1712E-01  0.1199E-01
     -4.670  0.1139E-01  0.1296E-01
     -4.585  0.1365E-01  0.1413E-01
     -4.499  0.1370E-01  0.1530E-01
     -4.413  0.1702E-01  0.1676E-01
     -4.328  0.1969E-01  0.1845E-01
     -4.242  0.1369E-01  0.1962E-01
     -4.157  0.8123E-02  0.2032E-01
     -4.071  0.1347E-01  0.2147E-01
     -3.985  0.2086E-01  0.2326E-01
     -3.900  0.2507E-01  0.2540E-01
     -3.814  0.2272E-01  0.2735E-01
     -3.728  0.1983E-01  0.2905E-01
     -3.643  0.1636E-01  0.3045E-01
     -3.557  0.1882E-01  0.3206E-01
     -3.471  0.1746E-01  0.3356E-01
     -3.386  0.1948E-01  0.3522E-01
     -3.300  0.2382E-01  0.3726E-01
     -3.214  0.1498E-01  0.3855E-01
     -3.129  0.2599E-01  0.4077E-01
     -3.043  0.3625E-01  0.4388E-01
     -2.957  0.2810E-01  0.4628E-01
     -2.872  0.3175E-01  0.4900E-01
     -2.786  0.2573E-01  0.5121E-01
     -2.701  0.2380E-01  0.5324E-01
     -2.615  0.2504E-01  0.5539E-01
     -2.529  0.2864E-01  0.5784E-01
     -2.444  0.3187E-01  0.6057E-01
     -2.358  0.3942E-01  0.6395E-01
     -2.272  0.4793E-01  0.6805E-01
     -2.187  0.4494E-01  0.7190E-01
     -2.101  0.4140E-01  0.7545E-01
     -2.015  0.4993E-01  0.7972E-01
     -1.930  0.6072E-01  0.8492E-01
     -1.844  0.4557E-01  0.8883E-01
     -1.758  0.3770E-01  0.9206E-01
     -1.673  0.4426E-01  0.9585E-01
     -1.587  0.2378E-01  0.9788E-01
     -1.501  0.1524E-01  0.9919E-01
     -1.416  0.2216E-01  0.1011E+00
     -1.330  0.1862E-01  0.1027E+00
     -1.245  0.2001E-01  0.1044E+00
     -1.159  0.1148E-01  0.1054E+00
     -1.073  0.1047E-01  0.1063E+00
     -0.988  0.1888E-01  0.1079E+00
     -0.902  0.1709E-01  0.1094E+00
     -0.816  0.1856E-01  0.1109E+00
     -0.731  0.2196E-01  0.1128E+00
     -0.645  0.1254E-01  0.1139E+00
     -0.559  0.1136E-01  0.1149E+00
     -0.474  0.8155E-02  0.1156E+00
     -0.388  0.1676E-01  0.1170E+00
     -0.302  0.9651E-02  0.1178E+00
     -0.217  0.1158E-01  0.1188E+00
     -0.131  0.9442E-02  0.1196E+00
     -0.045  0.4038E-02  0.1200E+00
      0.040  0.2406E-03  0.1200E+00
      0.126  0.1448E-06  0.1200E+00
      0.212  0.3617E-12  0.1200E+00
      0.297  0.0000E+00  0.1200E+00
      0.383  0.0000E+00  0.1200E+00
      0.468  0.0000E+00  0.1200E+00
      0.554  0.0000E+00  0.1200E+00
      0.640  0.0000E+00  0.1200E+00
      0.725  0.0000E+00  0.1200E+00
      0.811  0.0000E+00  0.1200E+00
      0.897  0.4051E-18  0.1200E+00
      0.982  0.8166E-11  0.1200E+00
      1.068  0.5352E-06  0.1200E+00
      1.154  0.1544E-03  0.1200E+00
      1.239  0.8016E-03  0.1201E+00
      1.325  0.2615E-02  0.1203E+00
      1.411  0.3277E-02  0.1206E+00
      1.496  0.4982E-02  0.1210E+00
      1.582  0.6999E-02  0.1216E+00
      1.668  0.1555E-01  0.1229E+00
      1.753  0.2232E-01  0.1249E+00
      1.839  0.2998E-01  0.1274E+00
      1.924  0.2295E-01  0.1294E+00
      2.010  0.3819E-01  0.1327E+00
      2.096  0.2974E-01  0.1352E+00
      2.181  0.3754E-01  0.1384E+00
      2.267  0.4006E-01  0.1419E+00
      2.353  0.3283E-01  0.1447E+00
      2.438  0.4048E-01  0.1481E+00
      2.524  0.3258E-01  0.1509E+00
      2.610  0.4100E-01  0.1544E+00
      2.695  0.4103E-01  0.1579E+00
      2.781  0.4229E-01  0.1616E+00
      2.867  0.3968E-01  0.1650E+00
      2.952  0.3519E-01  0.1680E+00
      3.038  0.4642E-01  0.1720E+00
      3.124  0.3994E-01  0.1754E+00
      3.209  0.5692E-01  0.1803E+00
      3.295  0.3872E-01  0.1836E+00
      3.380  0.1975E-01  0.1853E+00
      3.466  0.2835E-01  0.1877E+00
      3.552  0.3413E-01  0.1906E+00
      3.637  0.3488E-01  0.1936E+00
      3.723  0.3853E-01  0.1969E+00
      3.809  0.2907E-01  0.1994E+00
      3.894  0.3328E-01  0.2022E+00
      3.980  0.3528E-01  0.2053E+00
      4.066  0.5742E-01  0.2102E+00
      4.151  0.4544E-01  0.2141E+00
      4.237  0.3471E-01  0.2170E+00
      4.323  0.3604E-01  0.2201E+00
      4.408  0.2974E-01  0.2227E+00
      4.494  0.3115E-01  0.2253E+00
      4.580  0.3712E-01  0.2285E+00
      4.665  0.3005E-01  0.2311E+00
      4.751  0.2533E-01  0.2333E+00
      4.836  0.3170E-01  0.2360E+00
      4.922  0.4402E-01  0.2398E+00
      5.008  0.5009E-01  0.2440E+00
      5.093  0.3704E-01  0.2472E+00
      5.179  0.5269E-01  0.2517E+00
      5.265  0.5049E-01  0.2561E+00
      5.350  0.4769E-01  0.2601E+00
      5.436  0.4674E-01  0.2641E+00
      5.522  0.4233E-01  0.2678E+00
      5.607  0.4482E-01  0.2716E+00
      5.693  0.3846E-01  0.2749E+00
      5.779  0.4653E-01  0.2789E+00
      5.864  0.4267E-01  0.2825E+00
      5.950  0.5077E-01  0.2869E+00
      6.036  0.4923E-01  0.2911E+00
      6.121  0.3623E-01  0.2942E+00
      6.207  0.4385E-01  0.2980E+00
      6.292  0.3905E-01  0.3013E+00
      6.378  0.3635E-01  0.3044E+00
      6.464  0.5425E-01  0.3091E+00
      6.549  0.5056E-01  0.3134E+00
      6.635  0.3702E-01  0.3166E+00
      6.721  0.3587E-01  0.3196E+00
      6.806  0.4818E-01  0.3238E+00
      6.892  0.4391E-01  0.3275E+00
      6.978  0.5857E-01  0.3325E+00
      7.063  0.5499E-01  0.3372E+00
      7.149  0.5924E-01  0.3423E+00
      7.235  0.4718E-01  0.3464E+00
      7.320  0.2718E-01  0.3487E+00
      7.406  0.4349E-01  0.3524E+00
      7.492  0.6116E-01  0.3577E+00
      7.577  0.5254E-01  0.3622E+00
      7.663  0.3515E-01  0.3652E+00
      7.748  0.3794E-01  0.3684E+00
      7.834  0.4134E-01  0.3720E+00
      7.920  0.5186E-01  0.3764E+00
      8.005  0.5188E-01  0.3808E+00
      8.091  0.4984E-01  0.3851E+00
      8.177  0.5752E-01  0.3900E+00
      8.262  0.5402E-01  0.3947E+00
      8.348  0.5529E-01  0.3994E+00
      8.434  0.6143E-01  0.4047E+00
      8.519  0.6849E-01  0.4105E+00
      8.605  0.5647E-01  0.4154E+00
      8.691  0.4881E-01  0.4195E+00
      8.776  0.7909E-01  0.4263E+00
      8.862  0.7870E-01  0.4331E+00
      8.948  0.6241E-01  0.4384E+00
      9.033  0.5840E-01  0.4434E+00
      9.119  0.6892E-01  0.4493E+00
      9.204  0.5250E-01  0.4538E+00
      9.290  0.4513E-01  0.4577E+00
      9.376  0.5177E-01  0.4621E+00
      9.461  0.5430E-01  0.4668E+00
      9.547  0.2991E-01  0.4693E+00
      9.633  0.2988E-01  0.4719E+00
      9.718  0.2645E-01  0.4741E+00
      9.804  0.1907E-01  0.4758E+00
      9.890  0.8935E-02  0.4765E+00
      9.975  0.7935E-02  0.4772E+00
     10.061  0.1031E-01  0.4781E+00
     10.147  0.7753E-02  0.4788E+00
     10.232  0.5506E-02  0.4792E+00
     10.318  0.4710E-02  0.4796E+00
     10.404  0.3603E-02  0.4799E+00
     10.489  0.6122E-03  0.4800E+00
     10.575  0.5143E-05  0.4800E+00
     10.660  0.3583E-09  0.4800E+00
     10.746  0.9479E-16  0.4800E+00
     10.832  0.0000E+00  0.4800E+00
     10.917  0.0000E+00  0.4800E+00
     11.003  0.0000E+00  0.4800E+00
     11.089  0.1296E-14  0.4800E+00
     11.174  0.3266E-08  0.4800E+00
     11.260  0.2931E-04  0.4800E+00
     11.346  0.1439E-02  0.4801E+00
     11.431  0.1389E-02  0.4802E+00
     11.517  0.4455E-02  0.4806E+00
     11.603  0.9571E-02  0.4814E+00
     11.688  0.4224E-02  0.4818E+00
     11.774  0.1336E-01  0.4830E+00
     11.860  0.2022E-01  0.4847E+00
     11.945  0.2924E-01  0.4872E+00
     12.031  0.2232E-01  0.4891E+00
     12.116  0.1690E-01  0.4905E+00
     12.202  0.5928E-02  0.4911E+00
     12.288  0.9920E-02  0.4919E+00
     12.373  0.7997E-02  0.4926E+00
     12.459  0.1676E-01  0.4940E+00
     12.545  0.3480E-01  0.4970E+00
     12.630  0.2395E-01  0.4991E+00
     12.716  0.2861E-01  0.5015E+00
     12.802  0.3578E-01  0.5046E+00
     12.887  0.2847E-01  0.5070E+00
     12.973  0.2693E-01  0.5093E+00
     13.059  0.2723E-01  0.5116E+00
     13.144  0.2331E-01  0.5136E+00
     13.230  0.2406E-01  0.5157E+00
     13.316  0.3442E-01  0.5187E+00
     13.401  0.2239E-01  0.5206E+00
     13.487  0.1729E-01  0.5220E+00
     13.573  0.2451E-01  0.5241E+00
     13.658  0.3024E-01  0.5267E+00
     13.744  0.1649E-01  0.5282E+00
     13.829  0.1935E-01  0.5298E+00
     13.915  0.2652E-01  0.5321E+00
     14.001  0.4814E-01  0.5362E+00
     14.086  0.5379E-01  0.5408E+00
     14.172  0.4407E-01  0.5446E+00
     14.258  0.4460E-01  0.5484E+00
     14.343  0.4121E-01  0.5519E+00
     14.429  0.4347E-01  0.5557E+00
     14.515  0.4325E-01  0.5594E+00
     14.600  0.3123E-01  0.5620E+00
     14.686  0.3231E-01  0.5648E+00
     14.772  0.4502E-01  0.5687E+00
     14.857  0.4870E-01  0.5728E+00
     14.943  0.4319E-01  0.5765E+00
     15.029  0.3359E-01  0.5794E+00
     15.114  0.4405E-01  0.5832E+00
     15.200  0.3323E-01  0.5860E+00
     15.285  0.2619E-01  0.5883E+00
     15.371  0.3325E-01  0.5911E+00
     15.457  0.5292E-01  0.5956E+00
     15.542  0.4466E-01  0.5995E+00
     15.628  0.3637E-01  0.6026E+00
     15.714  0.3900E-01  0.6059E+00
     15.799  0.5207E-01  0.6104E+00
     15.885  0.4475E-01  0.6142E+00
     15.971  0.4197E-01  0.6178E+00
     16.056  0.4462E-01  0.6216E+00
     16.142  0.3192E-01  0.6244E+00
     16.228  0.4047E-01  0.6278E+00
     16.313  0.4307E-01  0.6315E+00
     16.399  0.3085E-01  0.6342E+00
     16.485  0.2979E-01  0.6367E+00
     16.570  0.4765E-01  0.6408E+00
     16.656  0.3126E-01  0.6435E+00
     16.741  0.3096E-01  0.6461E+00
     16.827  0.2519E-01  0.6483E+00
     16.913  0.2497E-01  0.6504E+00
     16.998  0.2831E-01  0.6528E+00
     17.084  0.3121E-01  0.6555E+00
     17.170  0.3196E-01  0.6583E+00
     17.255  0.1621E-01  0.6596E+00
     17.341  0.3984E-02  0.6600E+00
     17.427  0.1330E-03  0.6600E+00
     17.512  0.6325E-07  0.6600E+00
     17.598  0.1294E-12  0.6600E+00
     17.684  0.0000E+00  0.6600E+00
     17.769  0.0000E+00  0.6600E+00
     17.855  0.0000E+00  0.6600E+00
     17.941  0.0000E+00  0.6600E+00
     18.026  0.0000E+00  0.6600E+00
     18.112  0.0000E+00  0.6600E+00
     18.197  0.0000E+00  0.6600E+00
     18.283  0.0000E+00  0.6600E+00
     18.369  0.0000E+00  0.6600E+00
     18.454  0.0000E+00  0.6600E+00
