       N       E                     dE             d eps       ncg     rms          rms(c)
DAV:   1    -0.240920358683E+03   -0.24092E+03   -0.50029E+00  7128   0.107E+01    0.724E+00
DAV:   2    -0.225327580665E+03    0.15593E+02   -0.12174E+00  8070   0.580E+00    0.526E+00
DAV:   3    -0.225652838808E+03   -0.32526E+00   -0.21524E-01  8376   0.200E+00    0.424E+00
DAV:   4    -0.225691545105E+03   -0.38706E-01   -0.99211E-02  8412   0.107E+00    0.801E-01
DAV:   5    -0.225692962246E+03   -0.14171E-02   -0.76539E-03  8430   0.283E-01    0.361E-01
DAV:   6    -0.225693495138E+03   -0.53289E-03   -0.97762E-04  8778   0.124E-01    0.897E-02
DAV:   7    -0.225693559867E+03   -0.64729E-04   -0.41655E-05  7410   0.278E-02    0.553E-02
DAV:   8    -0.225693586546E+03   -0.26680E-04   -0.12370E-04  8232   0.443E-02    0.158E-02
DAV:   9    -0.225693590220E+03   -0.36735E-05   -0.57976E-06  4410   0.104E-02
   1 F= -.20880626E+03 E0= -.20880626E+03  d E =-.208806E+03
       N       E                     dE             d eps       ncg     rms          rms(c)
DAV:   1    -0.225121283431E+03    0.57230E+00   -0.38037E+00  8118   0.805E+00    0.190E+00
DAV:   2    -0.225076294717E+03    0.44989E-01   -0.24718E-01  8448   0.162E+00    0.101E+00
DAV:   3    -0.225076575171E+03   -0.28045E-03   -0.32597E-02  8310   0.552E-01    0.403E-01
DAV:   4    -0.225077085896E+03   -0.51073E-03   -0.11432E-03  8532   0.149E-01    0.178E-01
DAV:   5    -0.225077236102E+03   -0.15021E-03   -0.23821E-04  8328   0.691E-02    0.109E-01
DAV:   6    -0.225077270277E+03   -0.34175E-04   -0.79096E-05  8202   0.394E-02    0.398E-02
DAV:   7    -0.225077271412E+03   -0.11355E-05   -0.11818E-05  4458   0.128E-02
   2 F= -.20879975E+03 E0= -.20879975E+03  d E =0.651085E-02
       N       E                     dE             d eps       ncg     rms          rms(c)
DAV:   1    -0.225467885384E+03   -0.39062E+00   -0.96640E-01  8184   0.400E+00    0.968E-01
DAV:   2    -0.225457608678E+03    0.10277E-01   -0.65650E-02  8418   0.828E-01    0.517E-01
DAV:   3    -0.225457691569E+03   -0.82892E-04   -0.83985E-03  8322   0.279E-01    0.209E-01
DAV:   4    -0.225457779144E+03   -0.87574E-04   -0.30700E-04  8538   0.771E-02    0.907E-02
DAV:   5    -0.225457798168E+03   -0.19025E-04   -0.62909E-05  8208   0.355E-02    0.549E-02
DAV:   6    -0.225457781377E+03    0.16791E-04   -0.18673E-05  4662   0.200E-02    0.183E-02
DAV:   7    -0.225457780025E+03    0.13528E-05   -0.27186E-06  4344   0.703E-03
   3 F= -.20887210E+03 E0= -.20887210E+03  d E =-.658464E-01
       N       E                     dE             d eps       ncg     rms          rms(c)
DAV:   1    -0.225455776781E+03    0.20046E-02   -0.26912E-02  7260   0.682E-01    0.382E-02
DAV:   2    -0.225455876496E+03   -0.99715E-04   -0.12352E-03  9024   0.130E-01    0.355E-02
DAV:   3    -0.225455863713E+03    0.12783E-04   -0.38587E-05  7488   0.277E-02    0.246E-02
DAV:   4    -0.225455863957E+03   -0.24434E-06   -0.55523E-05  7914   0.276E-02
   4 F= -.20887297E+03 E0= -.20887297E+03  d E =-.864805E-03
       N       E                     dE             d eps       ncg     rms          rms(c)
DAV:   1    -0.225455233942E+03    0.62977E-03   -0.15982E-03  7338   0.167E-01    0.129E-02
DAV:   2    -0.225455241604E+03   -0.76616E-05   -0.79616E-05  8994   0.328E-02
   5 F= -.20887301E+03 E0= -.20887301E+03  d E =-.908462E-03
       N       E                     dE             d eps       ncg     rms          rms(c)
DAV:   1    -0.225454451179E+03    0.78276E-03   -0.47564E-02  7164   0.879E-01    0.398E-02
DAV:   2    -0.225454446485E+03    0.46945E-05   -0.93396E-04  8820   0.118E-01    0.311E-02
DAV:   3    -0.225454433358E+03    0.13127E-04   -0.62437E-05  8424   0.309E-02    0.205E-02
DAV:   4    -0.225454427131E+03    0.62269E-05   -0.25718E-05  5934   0.199E-02
   6 F= -.20887335E+03 E0= -.20887335E+03  d E =-.342137E-03
       N       E                     dE             d eps       ncg     rms          rms(c)
DAV:   1    -0.225454414652E+03    0.18706E-04   -0.16386E-05  4848   0.151E-02    0.359E-03
DAV:   2    -0.225454414831E+03   -0.17863E-06   -0.66476E-07  4044   0.359E-03
   7 F= -.20887336E+03 E0= -.20887336E+03  d E =-.344038E-03
       N       E                     dE             d eps       ncg     rms          rms(c)
DAV:   1    -0.225454874224E+03   -0.45957E-03   -0.88398E-03  7182   0.380E-01    0.183E-02
DAV:   2    -0.225454884481E+03   -0.10256E-04   -0.25318E-04  8868   0.593E-02    0.146E-02
DAV:   3    -0.225454881330E+03    0.31504E-05   -0.95475E-06  5052   0.133E-02
   8 F= -.20887346E+03 E0= -.20887346E+03  d E =-.104761E-03
