Al4C3 Pnma (POSCAR.IV, symmetrized via s
   1.00000000000000     
     8.7056023027978426    0.0000000000000000    0.0000000000000000
     0.0000000000000000    3.0032745887207413    0.0000000000000000
     0.0000000000000000    0.0000000000000000   10.3485096674986554
   Al   C 
    16    12
Direct
  0.2700236076180221  0.2500000000000000  0.3037292019031450
  0.2299763923819780  0.7500000000000000  0.8037292019031453
  0.7299763923819782  0.7500000000000000  0.6962707980968547
  0.7700236076180218  0.2500000000000000  0.1962707980968549
  0.3570818471154181  0.2500000000000000  0.0159381777760103
  0.1429181528845820  0.7500000000000000  0.5159381777760103
  0.6429181528845822  0.7500000000000000  0.9840618222239897
  0.8570818471154178  0.2500000000000000  0.4840618222239897
  0.5179289902578252  0.2500000000000000  0.7946266212242385
  0.9820710097421748  0.7500000000000000  0.2946266212242385
  0.4820710097421748  0.7500000000000000  0.2053733787757615
  0.0179289902578252  0.2500000000000000  0.7053733787757615
  0.0774623132110426  0.2500000000000000  0.0852942382949386
  0.4225376867889646  0.7500000000000000  0.5852942382949385
  0.9225376867889574  0.7500000000000000  0.9147057617050615
  0.5774623132110426  0.2500000000000000  0.4147057617050615
  0.2499966893293727  0.2500000000000000  0.6401228609067163
  0.2500033106706273  0.7500000000000000  0.1401228609067165
  0.7500033106706272  0.7500000000000000  0.3598771390932836
  0.7499966893293728  0.2500000000000000  0.8598771390932837
  0.5927278083591889  0.2500000000000000  0.6120540734388011
  0.9072721916408111  0.7500000000000000  0.1120540734388011
  0.4072721916408183  0.7500000000000000  0.3879459265611990
  0.0927278083591889  0.2500000000000000  0.8879459265611989
  0.0698563652676864  0.2500000000000000  0.3877064090844690
  0.4301436347323135  0.7500000000000000  0.8877064090844692
  0.9301436347323135  0.7500000000000000  0.6122935909155308
  0.5698563652676865  0.2500000000000000  0.1122935909155309
 
  0.00000000E+00  0.00000000E+00  0.00000000E+00
  0.00000000E+00  0.00000000E+00  0.00000000E+00
  0.00000000E+00  0.00000000E+00  0.00000000E+00
  0.00000000E+00  0.00000000E+00  0.00000000E+00
  0.00000000E+00  0.00000000E+00  0.00000000E+00
  0.00000000E+00  0.00000000E+00  0.00000000E+00
  0.00000000E+00  0.00000000E+00  0.00000000E+00
  0.00000000E+00  0.00000000E+00  0.00000000E+00
  0.00000000E+00  0.00000000E+00  0.00000000E+00
  0.00000000E+00  0.00000000E+00  0.00000000E+00
  0.00000000E+00  0.00000000E+00  0.00000000E+00
  0.00000000E+00  0.00000000E+00  0.00000000E+00
  0.00000000E+00  0.00000000E+00  0.00000000E+00
  0.00000000E+00  0.00000000E+00  0.00000000E+00
  0.00000000E+00  0.00000000E+00  0.00000000E+00
  0.00000000E+00  0.00000000E+00  0.00000000E+00
  0.00000000E+00  0.00000000E+00  0.00000000E+00
  0.00000000E+00  0.00000000E+00  0.00000000E+00
  0.00000000E+00  0.00000000E+00  0.00000000E+00
  0.00000000E+00  0.00000000E+00  0.00000000E+00
  0.00000000E+00  0.00000000E+00  0.00000000E+00
  0.00000000E+00  0.00000000E+00  0.00000000E+00
  0.00000000E+00  0.00000000E+00  0.00000000E+00
  0.00000000E+00  0.00000000E+00  0.00000000E+00
  0.00000000E+00  0.00000000E+00  0.00000000E+00
  0.00000000E+00  0.00000000E+00  0.00000000E+00
  0.00000000E+00  0.00000000E+00  0.00000000E+00
  0.00000000E+00  0.00000000E+00  0.00000000E+00
