  14  14   0   0
  0.8609561E+01  0.8482350E-09  0.4897782E-09  0.2901305E-09  0.5000000E-15
  1.000000000000000E-004
  CAR 
 Al4C3 Pbam - H(P) scan @ 40 GPa (ISIF=8)
     20.48805209     -6.17986981  301     11.03949145      1.00000000
     -6.180  0.0000E+00  0.0000E+00
     -6.091  0.0000E+00  0.0000E+00
     -6.002  0.0000E+00  0.0000E+00
     -5.913  0.0000E+00  0.0000E+00
     -5.824  0.0000E+00  0.0000E+00
     -5.735  0.0000E+00  0.0000E+00
     -5.647  0.0000E+00  0.0000E+00
     -5.558  0.0000E+00  0.0000E+00
     -5.469  0.0000E+00  0.0000E+00
     -5.380  0.0000E+00  0.0000E+00
     -5.291  0.0000E+00  0.0000E+00
     -5.202  0.6191E-14  0.5503E-15
     -5.113  0.7093E-08  0.6305E-09
     -5.024  0.2001E-04  0.1780E-05
     -4.935  0.3132E-03  0.2962E-04
     -4.846  0.1394E-02  0.1536E-03
     -4.758  0.2513E-02  0.3770E-03
     -4.669  0.3184E-02  0.6601E-03
     -4.580  0.2624E-02  0.8933E-03
     -4.491  0.2059E-02  0.1076E-02
     -4.402  0.5831E-02  0.1595E-02
     -4.313  0.7299E-02  0.2244E-02
     -4.224  0.4170E-02  0.2614E-02
     -4.135  0.1415E-02  0.2740E-02
     -4.046  0.4725E-02  0.3160E-02
     -3.958  0.9285E-02  0.3985E-02
     -3.869  0.7260E-02  0.4631E-02
     -3.780  0.6066E-02  0.5170E-02
     -3.691  0.6057E-02  0.5708E-02
     -3.602  0.7825E-02  0.6404E-02
     -3.513  0.8694E-02  0.7177E-02
     -3.424  0.9846E-02  0.8052E-02
     -3.335  0.9386E-02  0.8886E-02
     -3.246  0.5434E-02  0.9369E-02
     -3.158  0.3982E-02  0.9723E-02
     -3.069  0.6177E-02  0.1027E-01
     -2.980  0.9745E-02  0.1114E-01
     -2.891  0.9734E-02  0.1200E-01
     -2.802  0.5122E-02  0.1246E-01
     -2.713  0.7026E-02  0.1308E-01
     -2.624  0.1356E-01  0.1429E-01
     -2.535  0.7402E-02  0.1495E-01
     -2.446  0.5845E-02  0.1547E-01
     -2.357  0.1060E-01  0.1641E-01
     -2.269  0.1790E-01  0.1800E-01
     -2.180  0.8332E-02  0.1874E-01
     -2.091  0.6328E-02  0.1930E-01
     -2.002  0.1315E-01  0.2047E-01
     -1.913  0.1648E-01  0.2194E-01
     -1.824  0.8803E-02  0.2272E-01
     -1.735  0.1515E-01  0.2407E-01
     -1.646  0.1192E-01  0.2513E-01
     -1.557  0.6116E-02  0.2567E-01
     -1.469  0.1857E-01  0.2732E-01
     -1.380  0.1710E-01  0.2884E-01
     -1.291  0.1048E-01  0.2977E-01
     -1.202  0.1517E-01  0.3112E-01
     -1.113  0.2148E-01  0.3303E-01
     -1.024  0.1774E-01  0.3461E-01
     -0.935  0.2382E-01  0.3672E-01
     -0.846  0.2409E-01  0.3887E-01
     -0.757  0.2128E-01  0.4076E-01
     -0.668  0.2936E-01  0.4337E-01
     -0.580  0.2191E-01  0.4531E-01
     -0.491  0.1341E-01  0.4651E-01
     -0.402  0.1575E-01  0.4791E-01
     -0.313  0.1601E-01  0.4933E-01
     -0.224  0.1247E-01  0.5044E-01
     -0.135  0.6475E-02  0.5101E-01
     -0.046  0.7701E-02  0.5170E-01
      0.043  0.1371E-01  0.5292E-01
      0.132  0.1156E-01  0.5395E-01
      0.220  0.1156E-01  0.5497E-01
      0.309  0.6280E-02  0.5553E-01
      0.398  0.4895E-02  0.5597E-01
      0.487  0.6900E-02  0.5658E-01
      0.576  0.9429E-02  0.5742E-01
      0.665  0.4963E-02  0.5786E-01
      0.754  0.1487E-02  0.5799E-01
      0.843  0.1878E-02  0.5816E-01
      0.932  0.3730E-02  0.5849E-01
      1.020  0.5085E-02  0.5894E-01
      1.109  0.2418E-02  0.5916E-01
      1.198  0.2140E-02  0.5935E-01
      1.287  0.4782E-03  0.5939E-01
      1.376  0.2791E-02  0.5964E-01
      1.465  0.8959E-03  0.5972E-01
      1.554  0.1738E-02  0.5987E-01
      1.643  0.7125E-03  0.5993E-01
      1.732  0.3980E-03  0.5997E-01
      1.821  0.3302E-03  0.6000E-01
      1.909  0.3205E-05  0.6000E-01
      1.998  0.3815E-04  0.6000E-01
      2.087  0.6176E-03  0.6006E-01
      2.176  0.2294E-02  0.6026E-01
      2.265  0.3309E-02  0.6056E-01
      2.354  0.2383E-02  0.6077E-01
      2.443  0.5787E-02  0.6128E-01
      2.532  0.9015E-02  0.6208E-01
      2.621  0.1304E-01  0.6324E-01
      2.709  0.1241E-01  0.6435E-01
      2.798  0.1262E-01  0.6547E-01
      2.887  0.1343E-01  0.6666E-01
      2.976  0.2346E-01  0.6875E-01
      3.065  0.2810E-01  0.7125E-01
      3.154  0.1696E-01  0.7275E-01
      3.243  0.2174E-01  0.7469E-01
      3.332  0.2042E-01  0.7650E-01
      3.421  0.2033E-01  0.7831E-01
      3.509  0.1848E-01  0.7995E-01
      3.598  0.1766E-01  0.8152E-01
      3.687  0.1676E-01  0.8301E-01
      3.776  0.1222E-01  0.8410E-01
      3.865  0.1916E-01  0.8580E-01
      3.954  0.1478E-01  0.8711E-01
      4.043  0.1942E-01  0.8884E-01
      4.132  0.2336E-01  0.9092E-01
      4.221  0.1830E-01  0.9254E-01
      4.310  0.2023E-01  0.9434E-01
      4.398  0.1878E-01  0.9601E-01
      4.487  0.1529E-01  0.9737E-01
      4.576  0.1956E-01  0.9911E-01
      4.665  0.2276E-01  0.1011E+00
      4.754  0.1670E-01  0.1026E+00
      4.843  0.1906E-01  0.1043E+00
      4.932  0.1389E-01  0.1055E+00
      5.021  0.1713E-01  0.1071E+00
      5.110  0.1415E-01  0.1083E+00
      5.198  0.1355E-01  0.1095E+00
      5.287  0.2256E-01  0.1115E+00
      5.376  0.2334E-01  0.1136E+00
      5.465  0.2689E-01  0.1160E+00
      5.554  0.2193E-01  0.1180E+00
      5.643  0.2809E-01  0.1204E+00
      5.732  0.1678E-01  0.1219E+00
      5.821  0.1207E-01  0.1230E+00
      5.910  0.1227E-01  0.1241E+00
      5.998  0.1455E-01  0.1254E+00
      6.087  0.2907E-01  0.1280E+00
      6.176  0.3361E-01  0.1310E+00
      6.265  0.2670E-01  0.1333E+00
      6.354  0.1825E-01  0.1350E+00
      6.443  0.1765E-01  0.1365E+00
      6.532  0.2039E-01  0.1383E+00
      6.621  0.1805E-01  0.1399E+00
      6.710  0.2627E-01  0.1423E+00
      6.799  0.2395E-01  0.1444E+00
      6.887  0.3218E-01  0.1473E+00
      6.976  0.2412E-01  0.1494E+00
      7.065  0.2148E-01  0.1513E+00
      7.154  0.1201E-01  0.1524E+00
      7.243  0.1712E-01  0.1539E+00
      7.332  0.2160E-01  0.1558E+00
      7.421  0.2278E-01  0.1579E+00
      7.510  0.2594E-01  0.1602E+00
      7.599  0.2076E-01  0.1620E+00
      7.687  0.3185E-01  0.1648E+00
      7.776  0.3233E-01  0.1677E+00
      7.865  0.2317E-01  0.1698E+00
      7.954  0.1688E-01  0.1713E+00
      8.043  0.2004E-01  0.1731E+00
      8.132  0.2182E-01  0.1750E+00
      8.221  0.2681E-01  0.1774E+00
      8.310  0.2437E-01  0.1795E+00
      8.399  0.2663E-01  0.1819E+00
      8.487  0.1642E-01  0.1834E+00
      8.576  0.3031E-01  0.1861E+00
      8.665  0.2594E-01  0.1884E+00
      8.754  0.3367E-01  0.1914E+00
      8.843  0.2824E-01  0.1939E+00
      8.932  0.3009E-01  0.1966E+00
      9.021  0.2931E-01  0.1992E+00
      9.110  0.2232E-01  0.2011E+00
      9.199  0.2247E-01  0.2031E+00
      9.288  0.3365E-01  0.2061E+00
      9.376  0.3122E-01  0.2089E+00
      9.465  0.2208E-01  0.2109E+00
      9.554  0.2009E-01  0.2127E+00
      9.643  0.2159E-01  0.2146E+00
      9.732  0.2292E-01  0.2166E+00
      9.821  0.3907E-01  0.2201E+00
      9.910  0.3288E-01  0.2230E+00
      9.999  0.2636E-01  0.2253E+00
     10.088  0.2940E-01  0.2280E+00
     10.176  0.2986E-01  0.2306E+00
     10.265  0.2310E-01  0.2327E+00
     10.354  0.2114E-01  0.2345E+00
     10.443  0.1683E-01  0.2360E+00
     10.532  0.1272E-01  0.2372E+00
     10.621  0.6360E-02  0.2377E+00
     10.710  0.6793E-02  0.2383E+00
     10.799  0.8083E-02  0.2391E+00
     10.888  0.5103E-02  0.2395E+00
     10.976  0.3672E-02  0.2398E+00
     11.065  0.2175E-02  0.2400E+00
     11.154  0.3643E-02  0.2404E+00
     11.243  0.2596E-02  0.2406E+00
     11.332  0.1366E-02  0.2407E+00
     11.421  0.6890E-03  0.2408E+00
     11.510  0.5251E-04  0.2408E+00
     11.599  0.1478E-03  0.2408E+00
     11.688  0.4546E-02  0.2412E+00
     11.777  0.2998E-02  0.2415E+00
     11.865  0.1065E-02  0.2416E+00
     11.954  0.4640E-02  0.2420E+00
     12.043  0.2293E-02  0.2422E+00
     12.132  0.2300E-02  0.2424E+00
     12.221  0.8266E-03  0.2425E+00
     12.310  0.3397E-02  0.2428E+00
     12.399  0.7778E-02  0.2434E+00
     12.488  0.5366E-02  0.2439E+00
     12.577  0.4998E-03  0.2440E+00
     12.665  0.7435E-03  0.2440E+00
     12.754  0.3420E-02  0.2443E+00
     12.843  0.4908E-02  0.2448E+00
     12.932  0.8495E-02  0.2455E+00
     13.021  0.1013E-01  0.2464E+00
     13.110  0.5692E-02  0.2469E+00
     13.199  0.3146E-02  0.2472E+00
     13.288  0.7537E-02  0.2479E+00
     13.377  0.1304E-01  0.2490E+00
     13.465  0.9520E-02  0.2499E+00
     13.554  0.1345E-01  0.2511E+00
     13.643  0.9575E-02  0.2519E+00
     13.732  0.1597E-01  0.2534E+00
     13.821  0.1702E-01  0.2549E+00
     13.910  0.1889E-01  0.2565E+00
     13.999  0.1243E-01  0.2577E+00
     14.088  0.1360E-01  0.2589E+00
     14.177  0.1624E-01  0.2603E+00
     14.266  0.1941E-01  0.2620E+00
     14.354  0.1244E-01  0.2631E+00
     14.443  0.1311E-01  0.2643E+00
     14.532  0.2342E-01  0.2664E+00
     14.621  0.2164E-01  0.2683E+00
     14.710  0.1994E-01  0.2701E+00
     14.799  0.2484E-01  0.2723E+00
     14.888  0.1304E-01  0.2734E+00
     14.977  0.1783E-01  0.2750E+00
     15.066  0.1767E-01  0.2766E+00
     15.154  0.1920E-01  0.2783E+00
     15.243  0.1253E-01  0.2794E+00
     15.332  0.1084E-01  0.2804E+00
     15.421  0.1401E-01  0.2816E+00
     15.510  0.1809E-01  0.2832E+00
     15.599  0.1778E-01  0.2848E+00
     15.688  0.2078E-01  0.2867E+00
     15.777  0.1270E-01  0.2878E+00
     15.866  0.1584E-01  0.2892E+00
     15.955  0.2883E-01  0.2918E+00
     16.043  0.1824E-01  0.2934E+00
     16.132  0.2387E-01  0.2955E+00
     16.221  0.2125E-01  0.2974E+00
     16.310  0.3399E-01  0.3004E+00
     16.399  0.2437E-01  0.3026E+00
     16.488  0.2402E-01  0.3047E+00
     16.577  0.2777E-01  0.3072E+00
     16.666  0.2369E-01  0.3093E+00
     16.755  0.2219E-01  0.3113E+00
     16.843  0.2546E-01  0.3135E+00
     16.932  0.2564E-01  0.3158E+00
     17.021  0.1907E-01  0.3175E+00
     17.110  0.2756E-01  0.3200E+00
     17.199  0.3465E-01  0.3230E+00
     17.288  0.2831E-01  0.3256E+00
     17.377  0.2662E-01  0.3279E+00
     17.466  0.2547E-01  0.3302E+00
     17.555  0.2434E-01  0.3324E+00
     17.643  0.2842E-01  0.3349E+00
     17.732  0.2468E-01  0.3371E+00
     17.821  0.2550E-01  0.3393E+00
     17.910  0.2606E-01  0.3417E+00
     17.999  0.2266E-01  0.3437E+00
     18.088  0.1785E-01  0.3453E+00
     18.177  0.1645E-01  0.3467E+00
     18.266  0.2071E-01  0.3486E+00
     18.355  0.2462E-01  0.3507E+00
     18.444  0.2359E-01  0.3528E+00
     18.532  0.2145E-01  0.3548E+00
     18.621  0.1824E-01  0.3564E+00
     18.710  0.8958E-02  0.3572E+00
     18.799  0.9268E-02  0.3580E+00
     18.888  0.1230E-01  0.3591E+00
     18.977  0.5636E-02  0.3596E+00
     19.066  0.1518E-02  0.3597E+00
     19.155  0.8639E-03  0.3598E+00
     19.244  0.4831E-03  0.3598E+00
     19.332  0.1670E-02  0.3600E+00
     19.421  0.1157E-03  0.3600E+00
     19.510  0.3949E-07  0.3600E+00
     19.599  0.3323E-13  0.3600E+00
     19.688  0.0000E+00  0.3600E+00
     19.777  0.0000E+00  0.3600E+00
     19.866  0.0000E+00  0.3600E+00
     19.955  0.0000E+00  0.3600E+00
     20.044  0.0000E+00  0.3600E+00
     20.132  0.0000E+00  0.3600E+00
     20.221  0.0000E+00  0.3600E+00
     20.310  0.0000E+00  0.3600E+00
     20.399  0.0000E+00  0.3600E+00
     20.488  0.0000E+00  0.3600E+00
