Al4C3 Pbam - H(P) scan @ 40 GPa (ISIF=8)
           1
     8.482349    0.000000    0.000000
     0.000000    4.897782    0.000000
     0.000000    0.000000    2.901305
   Al   C 
     8     6
Direct configuration=     1
   0.78588003  0.16011000  0.00000000
   0.21411997  0.83989000  0.00000000
   0.71411997  0.66011000  0.00000000
   0.28588003  0.33989000  0.00000000
   0.03110000  0.25303000  0.50000000
   0.96890003  0.74697000  0.50000000
   0.46890000  0.75303000  0.50000000
   0.53109997  0.24697000  0.50000000
   0.00000000  0.00000000  0.00000000
   0.50000000  0.50000000  0.00000000
   0.82459003  0.44672000  0.50000000
   0.17540997  0.55328000  0.50000000
   0.67540997  0.94672000  0.50000000
   0.32459003  0.05328000  0.50000000
Al4C3 Pbam - H(P) scan @ 40 GPa (ISIF=8)
           1
     8.702287    0.000000    0.000000
     0.000000    5.024775    0.000000
     0.000000    0.000000    2.976533
   Al   C 
     8     6
Direct configuration=     2
   0.78587902  0.16010040  0.00000000
   0.21412098  0.83989960  0.00000000
   0.71412098  0.66010040  0.00000000
   0.28587902  0.33989960  0.00000000
   0.03110373  0.25301457  0.50000000
   0.96889629  0.74698543  0.50000000
   0.46889626  0.75301457  0.50000000
   0.53110371  0.24698543  0.50000000
  -0.00000000 -0.00000000  0.00000000
   0.50000000  0.50000000  0.00000000
   0.82459047  0.44673245  0.50000000
   0.17540953  0.55326755  0.50000000
   0.67540953  0.94673245  0.50000000
   0.32459047  0.05326755  0.50000000
Al4C3 Pbam - H(P) scan @ 40 GPa (ISIF=8)
           1
     8.566365    0.000000    0.000000
     0.000000    4.946293    0.000000
     0.000000    0.000000    2.930042
   Al   C 
     8     6
Direct configuration=     3
   0.78587963  0.16010618  0.00000000
   0.21412037  0.83989382  0.00000000
   0.71412037  0.66010618  0.00000000
   0.28587963  0.33989382  0.00000000
   0.03110148  0.25302387  0.50000000
   0.96889854  0.74697613  0.50000000
   0.46889851  0.75302387  0.50000000
   0.53110146  0.24697613  0.50000000
  -0.00000000 -0.00000000  0.00000000
   0.50000000  0.50000000  0.00000000
   0.82459020  0.44672495  0.50000000
   0.17540980  0.55327505  0.50000000
   0.67540980  0.94672495  0.50000000
   0.32459020  0.05327505  0.50000000
Al4C3 Pbam - H(P) scan @ 40 GPa (ISIF=8)
           1
     8.565422    0.000000    0.000000
     0.000000    4.945749    0.000000
     0.000000    0.000000    2.929720
   Al   C 
     8     6
Direct configuration=     4
   0.78587963  0.16010622  0.00000000
   0.21412037  0.83989378  0.00000000
   0.71412037  0.66010622  0.00000000
   0.28587963  0.33989378  0.00000000
   0.03110147  0.25302393  0.50000000
   0.96889856  0.74697607  0.50000000
   0.46889853  0.75302393  0.50000000
   0.53110144  0.24697607  0.50000000
  -0.00000000 -0.00000000  0.00000000
   0.50000000  0.50000000  0.00000000
   0.82459020  0.44672490  0.50000000
   0.17540980  0.55327510  0.50000000
   0.67540980  0.94672490  0.50000000
   0.32459020  0.05327510  0.50000000
Al4C3 Pbam - H(P) scan @ 40 GPa (ISIF=8)
           1
     8.565146    0.000000    0.000000
     0.000000    4.945589    0.000000
     0.000000    0.000000    2.929625
   Al   C 
     8     6
Direct configuration=     5
   0.78587963  0.16010623  0.00000000
   0.21412037  0.83989377  0.00000000
   0.71412037  0.66010623  0.00000000
   0.28587963  0.33989377  0.00000000
   0.03110146  0.25302395  0.50000000
   0.96889856  0.74697605  0.50000000
   0.46889853  0.75302395  0.50000000
   0.53110144  0.24697605  0.50000000
  -0.00000000 -0.00000000  0.00000000
   0.50000000  0.50000000  0.00000000
   0.82459020  0.44672488  0.50000000
   0.17540980  0.55327512  0.50000000
   0.67540980  0.94672488  0.50000000
   0.32459020  0.05327512  0.50000000
Al4C3 Pbam - H(P) scan @ 40 GPa (ISIF=8)
           1
     8.565256    0.000000    0.000000
     0.000000    4.945653    0.000000
     0.000000    0.000000    2.929663
   Al   C 
     8     6
Direct configuration=     6
   0.78587963  0.16010623  0.00000000
   0.21412037  0.83989377  0.00000000
   0.71412037  0.66010623  0.00000000
   0.28587963  0.33989377  0.00000000
   0.03110147  0.25302394  0.50000000
   0.96889856  0.74697606  0.50000000
   0.46889853  0.75302394  0.50000000
   0.53110144  0.24697606  0.50000000
  -0.00000000 -0.00000000  0.00000000
   0.50000000  0.50000000  0.00000000
   0.82459020  0.44672489  0.50000000
   0.17540980  0.55327511  0.50000000
   0.67540980  0.94672489  0.50000000
   0.32459020  0.05327511  0.50000000
Al4C3 Pbam - H(P) scan @ 40 GPa (ISIF=8)
           1
     8.566362    0.000000    0.000000
     0.000000    4.946291    0.000000
     0.000000    0.000000    2.930041
   Al   C 
     8     6
Direct configuration=     7
   0.78611495  0.15977405  0.00000000
   0.21388505  0.84022595  0.00000000
   0.71388505  0.65977405  0.00000000
   0.28611495  0.34022595  0.00000000
   0.03074467  0.25302905  0.50000000
   0.96925535  0.74697095  0.50000000
   0.46925532  0.75302905  0.50000000
   0.53074465  0.24697095  0.50000000
  -0.00000000 -0.00000000  0.00000000
   0.50000000  0.50000000  0.00000000
   0.82491373  0.44726375  0.50000000
   0.17508627  0.55273625  0.50000000
   0.67508627  0.94726375  0.50000000
   0.32491373  0.05273625  0.50000000
Al4C3 Pbam - H(P) scan @ 40 GPa (ISIF=8)
           1
     8.566532    0.000000    0.000000
     0.000000    4.946390    0.000000
     0.000000    0.000000    2.930099
   Al   C 
     8     6
Direct configuration=     8
   0.78615120  0.15972287  0.00000000
   0.21384880  0.84027713  0.00000000
   0.71384880  0.65972287  0.00000000
   0.28615120  0.34027713  0.00000000
   0.03068970  0.25302984  0.50000000
   0.96931033  0.74697016  0.50000000
   0.46931030  0.75302984  0.50000000
   0.53068967  0.24697016  0.50000000
  -0.00000000 -0.00000000  0.00000000
   0.50000000  0.50000000  0.00000000
   0.82496357  0.44734677  0.50000000
   0.17503643  0.55265323  0.50000000
   0.67503643  0.94734677  0.50000000
   0.32496357  0.05265323  0.50000000
Al4C3 Pbam - H(P) scan @ 40 GPa (ISIF=8)
           1
     8.566987    0.000000    0.000000
     0.000000    4.946652    0.000000
     0.000000    0.000000    2.930255
   Al   C 
     8     6
Direct configuration=     9
   0.78601447  0.15964811 -0.00000000
   0.21398553  0.84035189  0.00000000
   0.71398553  0.65964811 -0.00000000
   0.28601447  0.34035189  0.00000000
   0.03057838  0.25315424  0.50000000
   0.96942164  0.74684576  0.50000000
   0.46942161  0.75315424  0.50000000
   0.53057836  0.24684576  0.50000000
   0.00000000 -0.00000000  0.00000000
   0.50000000  0.50000000  0.00000000
   0.82494395  0.44754654  0.50000000
   0.17505605  0.55245346  0.50000000
   0.67505605  0.94754654  0.50000000
   0.32494395  0.05245346  0.50000000
Al4C3 Pbam - H(P) scan @ 40 GPa (ISIF=8)
           1
     8.567158    0.000000    0.000000
     0.000000    4.946751    0.000000
     0.000000    0.000000    2.930313
   Al   C 
     8     6
Direct configuration=    10
   0.78596298  0.15961996 -0.00000000
   0.21403702  0.84038004  0.00000000
   0.71403702  0.65961996 -0.00000000
   0.28596298  0.34038004  0.00000000
   0.03053646  0.25320110  0.50000000
   0.96946356  0.74679890  0.50000000
   0.46946353  0.75320110  0.50000000
   0.53053644  0.24679890  0.50000000
   0.00000000 -0.00000000  0.00000000
   0.50000000  0.50000000  0.00000000
   0.82493656  0.44762178  0.50000000
   0.17506344  0.55237822  0.50000000
   0.67506344  0.94762178  0.50000000
   0.32493656  0.05237822  0.50000000
Al4C3 Pbam - H(P) scan @ 40 GPa (ISIF=8)
           1
     8.566528    0.000000    0.000000
     0.000000    4.946387    0.000000
     0.000000    0.000000    2.930098
   Al   C 
     8     6
Direct configuration=    11
   0.78585063  0.15965972 -0.00000000
   0.21414937  0.84034028  0.00000000
   0.71414937  0.65965972 -0.00000000
   0.28585063  0.34034028  0.00000000
   0.03035888  0.25309688  0.50000000
   0.96964115  0.74690312  0.50000000
   0.46964112  0.75309688  0.50000000
   0.53035885  0.24690312  0.50000000
   0.00000000 -0.00000000  0.00000000
   0.50000000  0.50000000  0.00000000
   0.82490697  0.44765117  0.50000000
   0.17509303  0.55234883  0.50000000
   0.67509303  0.94765117  0.50000000
   0.32490697  0.05234883  0.50000000
