       N       E                     dE             d eps       ncg     rms          rms(c)
DAV:   1     0.759537539745E+03    0.75954E+03   -0.10617E+05 30240   0.189E+03
DAV:   2    -0.307022768879E+03   -0.10666E+04   -0.10037E+04 38040   0.254E+02
DAV:   3    -0.400817500635E+03   -0.93795E+02   -0.92938E+02 36000   0.714E+01
DAV:   4    -0.403500335888E+03   -0.26828E+01   -0.26730E+01 36600   0.131E+01
DAV:   5    -0.403578789993E+03   -0.78454E-01   -0.78378E-01 37092   0.226E+00    0.372E+01
DAV:   6    -0.347561375672E+03    0.56017E+02   -0.21136E+02 35604   0.280E+01    0.116E+01
DAV:   7    -0.346555887768E+03    0.10055E+01   -0.12905E+01 37596   0.830E+00    0.754E+00
DAV:   8    -0.346336329657E+03    0.21956E+00   -0.12626E+00 35604   0.304E+00    0.195E+00
DAV:   9    -0.346307035645E+03    0.29294E-01   -0.23031E-01 36192   0.105E+00    0.539E-01
DAV:  10    -0.346308055135E+03   -0.10195E-02   -0.20846E-02 35184   0.325E-01    0.267E-01
DAV:  11    -0.346307981313E+03    0.73822E-04   -0.11493E-03 37224   0.124E-01    0.134E-01
DAV:  12    -0.346307929847E+03    0.51466E-04   -0.17545E-03 35676   0.866E-02    0.360E-02
DAV:  13    -0.346307916631E+03    0.13216E-04   -0.34522E-04 41196   0.502E-02    0.204E-02
DAV:  14    -0.346307907740E+03    0.88914E-05   -0.65418E-05 36642   0.223E-02
   1 F= -.34630791E+03 E0= -.34630791E+03  d E =-.346308E+03
       N       E                     dE             d eps       ncg     rms          rms(c)
DAV:   1    -0.346535602763E+03   -0.22769E+00   -0.62522E+00 34656   0.716E+00    0.259E+00
DAV:   2    -0.346360871565E+03    0.17473E+00   -0.55772E-01 34518   0.163E+00    0.102E+00
DAV:   3    -0.346351064374E+03    0.98072E-02   -0.67698E-02 35736   0.538E-01    0.344E-01
DAV:   4    -0.346348432265E+03    0.26321E-02   -0.86644E-03 35946   0.207E-01    0.160E-01
DAV:   5    -0.346347800244E+03    0.63202E-03   -0.14667E-03 34968   0.916E-02    0.756E-02
DAV:   6    -0.346347757519E+03    0.42725E-04   -0.51672E-04 36420   0.520E-02    0.421E-02
DAV:   7    -0.346347718946E+03    0.38573E-04   -0.15070E-04 40212   0.320E-02    0.222E-02
DAV:   8    -0.346347714584E+03    0.43624E-05   -0.45497E-05 30054   0.136E-02
   2 F= -.34634771E+03 E0= -.34634771E+03  d E =-.398068E-01
       N       E                     dE             d eps       ncg     rms          rms(c)
DAV:   1    -0.346466308604E+03   -0.11859E+00   -0.12975E+00 34734   0.330E+00    0.117E+00
DAV:   2    -0.346430984532E+03    0.35324E-01   -0.11425E-01 34506   0.740E-01    0.470E-01
DAV:   3    -0.346429026223E+03    0.19583E-02   -0.13913E-02 35748   0.245E-01    0.156E-01
DAV:   4    -0.346428531998E+03    0.49422E-03   -0.17085E-03 35688   0.921E-02    0.730E-02
DAV:   5    -0.346428438559E+03    0.93440E-04   -0.27219E-04 34644   0.401E-02    0.347E-02
DAV:   6    -0.346428442557E+03   -0.39981E-05   -0.95384E-05 33972   0.228E-02
   3 F= -.34642844E+03 E0= -.34642844E+03  d E =-.120535E+00
       N       E                     dE             d eps       ncg     rms          rms(c)
DAV:   1    -0.346428437004E+03    0.15551E-05   -0.29165E-05 26142   0.152E-02    0.108E-02
DAV:   2    -0.346428435868E+03    0.11361E-05   -0.18469E-05 20166   0.928E-03
   4 F= -.34642844E+03 E0= -.34642844E+03  d E =-.120528E+00
       N       E                     dE             d eps       ncg     rms          rms(c)
DAV:   1    -0.346428436367E+03    0.63734E-06   -0.47532E-06 17238   0.658E-03    0.386E-03
DAV:   2    -0.346428436493E+03   -0.12680E-06   -0.70431E-07 17202   0.245E-03
   5 F= -.34642844E+03 E0= -.34642844E+03  d E =-.120529E+00
       N       E                     dE             d eps       ncg     rms          rms(c)
DAV:   1    -0.346428436918E+03   -0.55167E-06   -0.50993E-07 17154   0.212E-03    0.837E-04
DAV:   2    -0.346428436990E+03   -0.71335E-07   -0.50722E-08 17094   0.675E-04
   6 F= -.34642844E+03 E0= -.34642844E+03  d E =-.120529E+00
       N       E                     dE             d eps       ncg     rms          rms(c)
DAV:   1    -0.346428437151E+03   -0.23317E-06   -0.56482E-08 17010   0.758E-04    0.269E-04
DAV:   2    -0.346428437184E+03   -0.33027E-07   -0.11987E-08 16962   0.302E-04
   7 F= -.34642844E+03 E0= -.34642844E+03  d E =-.120529E+00
       N       E                     dE             d eps       ncg     rms          rms(c)
DAV:   1    -0.346428437223E+03   -0.72121E-07   -0.14124E-08 16902   0.356E-04    0.218E-04
DAV:   2    -0.346428437245E+03   -0.21246E-07   -0.17566E-09 16872   0.116E-04
   8 F= -.34642844E+03 E0= -.34642844E+03  d E =-.120530E+00
       N       E                     dE             d eps       ncg     rms          rms(c)
DAV:   1    -0.346428437282E+03   -0.58339E-07   -0.28873E-09 16764   0.169E-04    0.723E-05
DAV:   2    -0.346428437290E+03   -0.84692E-08   -0.34531E-10 16740   0.519E-05
   9 F= -.34642844E+03 E0= -.34642844E+03  d E =-.120530E+00
       N       E                     dE             d eps       ncg     rms          rms(c)
DAV:   1    -0.346428437301E+03   -0.19327E-07   -0.87562E-10 16734   0.898E-05    0.536E-05
DAV:   2    -0.346428437307E+03   -0.54088E-08   -0.12030E-10 16710   0.291E-05
  10 F= -.34642844E+03 E0= -.34642844E+03  d E =-.120530E+00
       N       E                     dE             d eps       ncg     rms          rms(c)
DAV:   1    -0.346428437316E+03   -0.14737E-07   -0.17194E-10 16692   0.409E-05    0.168E-05
DAV:   2    -0.346428437318E+03   -0.19081E-08   -0.27149E-11 16602   0.128E-05
  11 F= -.34642844E+03 E0= -.34642844E+03  d E =-.120530E+00
       N       E                     dE             d eps       ncg     rms          rms(c)
DAV:   1    -0.346428437320E+03   -0.41164E-08   -0.65112E-11 16560   0.226E-05    0.144E-05
DAV:   2    -0.346428437321E+03   -0.13579E-08   -0.10320E-11 16488   0.731E-06
  12 F= -.34642844E+03 E0= -.34642844E+03  d E =-.120530E+00
       N       E                     dE             d eps       ncg     rms          rms(c)
DAV:   1    -0.346428437324E+03   -0.38644E-08   -0.90857E-12 16482   0.102E-05    0.374E-06
DAV:   2    -0.346428437324E+03   -0.47658E-09    0.45143E-13 16410   0.319E-06
  13 F= -.34642844E+03 E0= -.34642844E+03  d E =-.120530E+00
       N       E                     dE             d eps       ncg     rms          rms(c)
DAV:   1    -0.346428437325E+03   -0.85947E-09   -0.59036E-12 16392   0.576E-06    0.383E-06
DAV:   2    -0.346428437325E+03   -0.37289E-09   -0.54333E-12 16374   0.188E-06
  14 F= -.34642844E+03 E0= -.34642844E+03  d E =-.120530E+00
       N       E                     dE             d eps       ncg     rms          rms(c)
DAV:   1    -0.346428437326E+03   -0.10295E-08    0.16878E-13 16374   0.254E-06    0.848E-07
DAV:   2    -0.346428437326E+03   -0.90949E-10    0.89143E-13 16320   0.794E-07
  15 F= -.34642844E+03 E0= -.34642844E+03  d E =-.120530E+00
       N       E                     dE             d eps       ncg     rms          rms(c)
DAV:   1    -0.346428437326E+03   -0.14279E-09   -0.58519E-13 16308   0.146E-06    0.978E-07
DAV:   2    -0.346428437326E+03   -0.70941E-10   -0.45742E-12 16284   0.478E-07
  16 F= -.34642844E+03 E0= -.34642844E+03  d E =-.120530E+00
       N       E                     dE             d eps       ncg     rms          rms(c)
DAV:   1    -0.346428437326E+03   -0.45202E-09   -0.63838E-13 16242   0.635E-07    0.199E-07
DAV:   2    -0.346428437326E+03    0.98225E-10   -0.10569E-12 16194   0.199E-07
  17 F= -.34642844E+03 E0= -.34642844E+03  d E =-.120530E+00
       N       E                     dE             d eps       ncg     rms          rms(c)
DAV:   1    -0.346428437326E+03    0.41837E-10    0.22688E-13 16194   0.366E-07    0.241E-07
DAV:   2    -0.346428437326E+03   -0.12460E-09   -0.77180E-12 16158   0.121E-07
  18 F= -.34642844E+03 E0= -.34642844E+03  d E =-.120530E+00
       N       E                     dE             d eps       ncg     rms          rms(c)
DAV:   1    -0.346428437326E+03    0.43656E-10    0.11943E-12 16146   0.159E-07    0.501E-08
DAV:   2    -0.346428437326E+03    0.65484E-10   -0.71663E-12 16110   0.501E-08
  19 F= -.34642844E+03 E0= -.34642844E+03  d E =-.120530E+00
