Al4C3 Fd-3m polymorph (findsym-output) -
   1.00000000000000     
     8.5421259537948906    0.0000000000000000    0.0000000000000000
     0.0000000000000000    8.5421259537948906    0.0000000000000000
     0.0000000000000000    0.0000000000000000    8.5421259537948906
   Al   C 
    32    24
Direct
  0.7615644687926769  0.7615644687926769  0.7615644687926769
  0.2384355312073231  0.2384355312073231  0.2384355312073231
  0.9884355312073231  0.4884355312073231  0.2615644687926769
  0.0115644687926769  0.5115644687926769  0.7384355312073231
  0.4884355312073231  0.2615644687926769  0.9884355312073231
  0.5115644687926769  0.7384355312073231  0.0115644687926769
  0.2615644687926769  0.9884355312073231  0.4884355312073231
  0.7384355312073231  0.0115644687926769  0.5115644687926769
  0.5115644687926769  0.0115644687926769  0.7384355312073231
  0.4884355312073231  0.9884355312073231  0.2615644687926769
  0.0115644687926769  0.7384355312073231  0.5115644687926769
  0.9884355312073231  0.2615644687926769  0.4884355312073231
  0.7384355312073231  0.5115644687926769  0.0115644687926769
  0.2615644687926769  0.4884355312073231  0.9884355312073231
  0.7615644687926769  0.2615644687926769  0.2615644687926769
  0.2384355312073231  0.7384355312073231  0.7384355312073231
  0.9884355312073231  0.9884355312073231  0.7615644687926769
  0.0115644687926769  0.0115644687926769  0.2384355312073231
  0.4884355312073231  0.7615644687926769  0.4884355312073231
  0.5115644687926769  0.2384355312073231  0.5115644687926769
  0.5115644687926769  0.5115644687926769  0.2384355312073231
  0.4884355312073231  0.4884355312073231  0.7615644687926769
  0.0115644687926769  0.2384355312073231  0.0115644687926769
  0.9884355312073231  0.7615644687926769  0.9884355312073231
  0.2615644687926769  0.7615644687926769  0.2615644687926769
  0.7384355312073231  0.2384355312073231  0.7384355312073231
  0.7615644687926769  0.9884355312073231  0.9884355312073231
  0.2384355312073231  0.0115644687926769  0.0115644687926769
  0.2384355312073231  0.5115644687926769  0.5115644687926769
  0.7615644687926769  0.4884355312073231  0.4884355312073231
  0.2615644687926769  0.2615644687926769  0.7615644687926769
  0.7384355312073231  0.7384355312073231  0.2384355312073231
 -0.0000000000000000 -0.0000000000000000 -0.0000000000000000
  0.7500000000000000  0.2500000000000000  0.5000000000000000
  0.2500000000000000  0.7500000000000000  0.5000000000000000
  0.2500000000000000  0.5000000000000000  0.7500000000000000
  0.7500000000000000  0.5000000000000000  0.2500000000000000
  0.5000000000000000  0.7500000000000000  0.2500000000000000
  0.5000000000000000  0.2500000000000000  0.7500000000000000
 -0.0000000000000000  0.5000000000000000  0.5000000000000000
  0.7500000000000000  0.7500000000000000 -0.0000000000000000
  0.2500000000000000  0.2500000000000000 -0.0000000000000000
  0.2500000000000000 -0.0000000000000000  0.2500000000000000
  0.7500000000000000 -0.0000000000000000  0.7500000000000000
  0.5000000000000000 -0.0000000000000000  0.5000000000000000
 -0.0000000000000000  0.7500000000000000  0.7500000000000000
 -0.0000000000000000  0.2500000000000000  0.2500000000000000
  0.5000000000000000  0.5000000000000000 -0.0000000000000000
  0.3750000000000000  0.3750000000000000  0.3750000000000000
  0.6250000000000000  0.6250000000000000  0.6250000000000000
  0.3750000000000000  0.8750000000000000  0.8750000000000000
  0.6250000000000000  0.1250000000000000  0.1250000000000000
  0.8750000000000000  0.8750000000000000  0.3750000000000000
  0.1250000000000000  0.1250000000000000  0.6250000000000000
  0.8750000000000000  0.3750000000000000  0.8750000000000000
  0.1250000000000000  0.6250000000000000  0.1250000000000000
 
  0.00000000E+00  0.00000000E+00  0.00000000E+00
  0.00000000E+00  0.00000000E+00  0.00000000E+00
  0.00000000E+00  0.00000000E+00  0.00000000E+00
  0.00000000E+00  0.00000000E+00  0.00000000E+00
  0.00000000E+00  0.00000000E+00  0.00000000E+00
  0.00000000E+00  0.00000000E+00  0.00000000E+00
  0.00000000E+00  0.00000000E+00  0.00000000E+00
  0.00000000E+00  0.00000000E+00  0.00000000E+00
  0.00000000E+00  0.00000000E+00  0.00000000E+00
  0.00000000E+00  0.00000000E+00  0.00000000E+00
  0.00000000E+00  0.00000000E+00  0.00000000E+00
  0.00000000E+00  0.00000000E+00  0.00000000E+00
  0.00000000E+00  0.00000000E+00  0.00000000E+00
  0.00000000E+00  0.00000000E+00  0.00000000E+00
  0.00000000E+00  0.00000000E+00  0.00000000E+00
  0.00000000E+00  0.00000000E+00  0.00000000E+00
  0.00000000E+00  0.00000000E+00  0.00000000E+00
  0.00000000E+00  0.00000000E+00  0.00000000E+00
  0.00000000E+00  0.00000000E+00  0.00000000E+00
  0.00000000E+00  0.00000000E+00  0.00000000E+00
  0.00000000E+00  0.00000000E+00  0.00000000E+00
  0.00000000E+00  0.00000000E+00  0.00000000E+00
  0.00000000E+00  0.00000000E+00  0.00000000E+00
  0.00000000E+00  0.00000000E+00  0.00000000E+00
  0.00000000E+00  0.00000000E+00  0.00000000E+00
  0.00000000E+00  0.00000000E+00  0.00000000E+00
  0.00000000E+00  0.00000000E+00  0.00000000E+00
  0.00000000E+00  0.00000000E+00  0.00000000E+00
  0.00000000E+00  0.00000000E+00  0.00000000E+00
  0.00000000E+00  0.00000000E+00  0.00000000E+00
  0.00000000E+00  0.00000000E+00  0.00000000E+00
  0.00000000E+00  0.00000000E+00  0.00000000E+00
  0.00000000E+00  0.00000000E+00  0.00000000E+00
  0.00000000E+00  0.00000000E+00  0.00000000E+00
  0.00000000E+00  0.00000000E+00  0.00000000E+00
  0.00000000E+00  0.00000000E+00  0.00000000E+00
  0.00000000E+00  0.00000000E+00  0.00000000E+00
  0.00000000E+00  0.00000000E+00  0.00000000E+00
  0.00000000E+00  0.00000000E+00  0.00000000E+00
  0.00000000E+00  0.00000000E+00  0.00000000E+00
  0.00000000E+00  0.00000000E+00  0.00000000E+00
  0.00000000E+00  0.00000000E+00  0.00000000E+00
  0.00000000E+00  0.00000000E+00  0.00000000E+00
  0.00000000E+00  0.00000000E+00  0.00000000E+00
  0.00000000E+00  0.00000000E+00  0.00000000E+00
  0.00000000E+00  0.00000000E+00  0.00000000E+00
  0.00000000E+00  0.00000000E+00  0.00000000E+00
  0.00000000E+00  0.00000000E+00  0.00000000E+00
  0.00000000E+00  0.00000000E+00  0.00000000E+00
  0.00000000E+00  0.00000000E+00  0.00000000E+00
  0.00000000E+00  0.00000000E+00  0.00000000E+00
  0.00000000E+00  0.00000000E+00  0.00000000E+00
  0.00000000E+00  0.00000000E+00  0.00000000E+00
  0.00000000E+00  0.00000000E+00  0.00000000E+00
  0.00000000E+00  0.00000000E+00  0.00000000E+00
  0.00000000E+00  0.00000000E+00  0.00000000E+00
