Al4C3 Pnma (CIF findsym, P21/n21/m21/a) 
   1.00000000000000     
     8.9923981068448793    0.0000000000000000    0.0000000000000000
     0.0000000000000000    3.0896699387060820    0.0000000000000000
     0.0000000000000000    0.0000000000000000    9.4796390270578463
   Al   C 
    16    12
Direct
  0.2681833644661537  0.2500000000000000  0.2664767518332593
  0.7681833644661538  0.2500000000000000  0.2335232481667407
  0.7318166355338462  0.7500000000000000  0.7335232481667409
  0.2318166355338463  0.7500000000000000  0.7664767518332591
  0.4656894866399263  0.2500000000000000  0.8916382141646388
  0.9656894866399263  0.2500000000000000  0.6083617858353612
  0.5343105133600737  0.7500000000000000  0.1083617858353611
  0.0343105133600737  0.7500000000000000  0.3916382141646390
  0.5060443207492531  0.2500000000000000  0.6048072554787427
  0.0060443207492531  0.2500000000000000  0.8951927445212573
  0.4939556792507470  0.7500000000000000  0.3951927445212572
  0.9939556792507469  0.7500000000000000  0.1048072554787427
  0.2367900995859651  0.2500000000000000  0.5579400534326387
  0.7367900995859652  0.2500000000000000  0.9420599465673613
  0.7632099004140348  0.7500000000000000  0.4420599465673613
  0.2632099004140349  0.7500000000000000  0.0579400534326386
  0.3846996388742621  0.2500000000000000  0.4253344150536240
  0.8846996388742623  0.2500000000000000  0.0746655849463760
  0.6153003611257377  0.7500000000000000  0.5746655849463760
  0.1153003611257378  0.7500000000000000  0.9253344150536240
  0.3944047199639512  0.2500000000000000  0.0877513538253585
  0.8944047199639509  0.2500000000000000  0.4122486461746416
  0.6055952800360491  0.7500000000000000  0.9122486461746416
  0.1055952800360489  0.7500000000000000  0.5877513538253584
  0.3471076641912333  0.2500000000000000  0.7342183592237689
  0.8471076641912335  0.2500000000000000  0.7657816407762311
  0.6528923358087665  0.7500000000000000  0.2657816407762311
  0.1528923358087666  0.7500000000000000  0.2342183592237689
 
  0.00000000E+00  0.00000000E+00  0.00000000E+00
  0.00000000E+00  0.00000000E+00  0.00000000E+00
  0.00000000E+00  0.00000000E+00  0.00000000E+00
  0.00000000E+00  0.00000000E+00  0.00000000E+00
  0.00000000E+00  0.00000000E+00  0.00000000E+00
  0.00000000E+00  0.00000000E+00  0.00000000E+00
  0.00000000E+00  0.00000000E+00  0.00000000E+00
  0.00000000E+00  0.00000000E+00  0.00000000E+00
  0.00000000E+00  0.00000000E+00  0.00000000E+00
  0.00000000E+00  0.00000000E+00  0.00000000E+00
  0.00000000E+00  0.00000000E+00  0.00000000E+00
  0.00000000E+00  0.00000000E+00  0.00000000E+00
  0.00000000E+00  0.00000000E+00  0.00000000E+00
  0.00000000E+00  0.00000000E+00  0.00000000E+00
  0.00000000E+00  0.00000000E+00  0.00000000E+00
  0.00000000E+00  0.00000000E+00  0.00000000E+00
  0.00000000E+00  0.00000000E+00  0.00000000E+00
  0.00000000E+00  0.00000000E+00  0.00000000E+00
  0.00000000E+00  0.00000000E+00  0.00000000E+00
  0.00000000E+00  0.00000000E+00  0.00000000E+00
  0.00000000E+00  0.00000000E+00  0.00000000E+00
  0.00000000E+00  0.00000000E+00  0.00000000E+00
  0.00000000E+00  0.00000000E+00  0.00000000E+00
  0.00000000E+00  0.00000000E+00  0.00000000E+00
  0.00000000E+00  0.00000000E+00  0.00000000E+00
  0.00000000E+00  0.00000000E+00  0.00000000E+00
  0.00000000E+00  0.00000000E+00  0.00000000E+00
  0.00000000E+00  0.00000000E+00  0.00000000E+00
