  28  28   0   0
  0.1134720E+02  0.9572630E-09  0.3289030E-09  0.1009131E-08  0.5000000E-15
  1.000000000000000E-004
  CAR 
 Al4C3 Pnma (CIF) - relax @ 50 GPa (ISIF=
     18.21781025     -6.65628099  301      9.71843368      1.00000000
     -6.656  0.0000E+00  0.0000E+00
     -6.573  0.0000E+00  0.0000E+00
     -6.490  0.0000E+00  0.0000E+00
     -6.408  0.0000E+00  0.0000E+00
     -6.325  0.0000E+00  0.0000E+00
     -6.242  0.0000E+00  0.0000E+00
     -6.159  0.0000E+00  0.0000E+00
     -6.076  0.0000E+00  0.0000E+00
     -5.993  0.0000E+00  0.0000E+00
     -5.910  0.0000E+00  0.0000E+00
     -5.827  0.0000E+00  0.0000E+00
     -5.744  0.1778E-13  0.1475E-14
     -5.661  0.6475E-08  0.5369E-09
     -5.578  0.1776E-04  0.1473E-05
     -5.495  0.8441E-03  0.7146E-04
     -5.413  0.3380E-02  0.3517E-03
     -5.330  0.5298E-02  0.7909E-03
     -5.247  0.6759E-02  0.1351E-02
     -5.164  0.8128E-02  0.2025E-02
     -5.081  0.9701E-02  0.2830E-02
     -4.998  0.1173E-01  0.3803E-02
     -4.915  0.1213E-01  0.4808E-02
     -4.832  0.1155E-01  0.5766E-02
     -4.749  0.1102E-01  0.6680E-02
     -4.666  0.1018E-01  0.7524E-02
     -4.583  0.9497E-02  0.8311E-02
     -4.501  0.1086E-01  0.9212E-02
     -4.418  0.1227E-01  0.1023E-01
     -4.335  0.1378E-01  0.1137E-01
     -4.252  0.1557E-01  0.1266E-01
     -4.169  0.1636E-01  0.1402E-01
     -4.086  0.1691E-01  0.1542E-01
     -4.003  0.1813E-01  0.1692E-01
     -3.920  0.1938E-01  0.1853E-01
     -3.837  0.1762E-01  0.1999E-01
     -3.754  0.1546E-01  0.2127E-01
     -3.671  0.1481E-01  0.2250E-01
     -3.588  0.1565E-01  0.2380E-01
     -3.506  0.1703E-01  0.2521E-01
     -3.423  0.2083E-01  0.2694E-01
     -3.340  0.2192E-01  0.2876E-01
     -3.257  0.2195E-01  0.3058E-01
     -3.174  0.2225E-01  0.3242E-01
     -3.091  0.2202E-01  0.3425E-01
     -3.008  0.2180E-01  0.3605E-01
     -2.925  0.2245E-01  0.3792E-01
     -2.842  0.2466E-01  0.3996E-01
     -2.759  0.2673E-01  0.4218E-01
     -2.676  0.2627E-01  0.4436E-01
     -2.594  0.2591E-01  0.4650E-01
     -2.511  0.2640E-01  0.4869E-01
     -2.428  0.2653E-01  0.5089E-01
     -2.345  0.2801E-01  0.5321E-01
     -2.262  0.2955E-01  0.5566E-01
     -2.179  0.3272E-01  0.5838E-01
     -2.096  0.3701E-01  0.6145E-01
     -2.013  0.3972E-01  0.6474E-01
     -1.930  0.4206E-01  0.6823E-01
     -1.847  0.4344E-01  0.7183E-01
     -1.764  0.4379E-01  0.7546E-01
     -1.681  0.4476E-01  0.7917E-01
     -1.599  0.4236E-01  0.8268E-01
     -1.516  0.3573E-01  0.8565E-01
     -1.433  0.3243E-01  0.8833E-01
     -1.350  0.3113E-01  0.9092E-01
     -1.267  0.3418E-01  0.9375E-01
     -1.184  0.3758E-01  0.9687E-01
     -1.101  0.4592E-01  0.1007E+00
     -1.018  0.4836E-01  0.1047E+00
     -0.935  0.4952E-01  0.1088E+00
     -0.852  0.4920E-01  0.1129E+00
     -0.769  0.5624E-01  0.1175E+00
     -0.686  0.2868E-01  0.1199E+00
     -0.604  0.1105E-02  0.1200E+00
     -0.521  0.6990E-06  0.1200E+00
     -0.438  0.3547E-11  0.1200E+00
     -0.355  0.3985E-19  0.1200E+00
     -0.272  0.0000E+00  0.1200E+00
     -0.189  0.0000E+00  0.1200E+00
     -0.106  0.0000E+00  0.1200E+00
     -0.023  0.0000E+00  0.1200E+00
      0.060  0.0000E+00  0.1200E+00
      0.143  0.0000E+00  0.1200E+00
      0.226  0.0000E+00  0.1200E+00
      0.308  0.0000E+00  0.1200E+00
      0.391  0.0000E+00  0.1200E+00
      0.474  0.0000E+00  0.1200E+00
      0.557  0.0000E+00  0.1200E+00
      0.640  0.0000E+00  0.1200E+00
      0.723  0.0000E+00  0.1200E+00
      0.806  0.0000E+00  0.1200E+00
      0.889  0.8908E-16  0.1200E+00
      0.972  0.1748E-09  0.1200E+00
      1.055  0.2287E-05  0.1200E+00
      1.138  0.3634E-03  0.1200E+00
      1.221  0.2815E-02  0.1203E+00
      1.303  0.5677E-02  0.1207E+00
      1.386  0.7536E-02  0.1214E+00
      1.469  0.1019E-01  0.1222E+00
      1.552  0.1270E-01  0.1233E+00
      1.635  0.1544E-01  0.1245E+00
      1.718  0.1733E-01  0.1260E+00
      1.801  0.1943E-01  0.1276E+00
      1.884  0.2372E-01  0.1296E+00
      1.967  0.2512E-01  0.1316E+00
      2.050  0.2528E-01  0.1337E+00
      2.133  0.2372E-01  0.1357E+00
      2.215  0.2303E-01  0.1376E+00
      2.298  0.2284E-01  0.1395E+00
      2.381  0.2262E-01  0.1414E+00
      2.464  0.2403E-01  0.1434E+00
      2.547  0.2506E-01  0.1454E+00
      2.630  0.2686E-01  0.1477E+00
      2.713  0.2831E-01  0.1500E+00
      2.796  0.2694E-01  0.1523E+00
      2.879  0.2627E-01  0.1544E+00
      2.962  0.2745E-01  0.1567E+00
      3.045  0.3666E-01  0.1597E+00
      3.128  0.4715E-01  0.1637E+00
      3.210  0.5223E-01  0.1680E+00
      3.293  0.5620E-01  0.1726E+00
      3.376  0.5478E-01  0.1772E+00
      3.459  0.4967E-01  0.1813E+00
      3.542  0.4636E-01  0.1852E+00
      3.625  0.4661E-01  0.1890E+00
      3.708  0.4888E-01  0.1931E+00
      3.791  0.4608E-01  0.1969E+00
      3.874  0.4290E-01  0.2004E+00
      3.957  0.3822E-01  0.2036E+00
      4.040  0.3618E-01  0.2066E+00
      4.122  0.3579E-01  0.2096E+00
      4.205  0.3828E-01  0.2128E+00
      4.288  0.3658E-01  0.2158E+00
      4.371  0.3708E-01  0.2189E+00
      4.454  0.3661E-01  0.2219E+00
      4.537  0.3444E-01  0.2248E+00
      4.620  0.3371E-01  0.2276E+00
      4.703  0.3657E-01  0.2306E+00
      4.786  0.4085E-01  0.2340E+00
      4.869  0.4236E-01  0.2375E+00
      4.952  0.4025E-01  0.2408E+00
      5.035  0.3980E-01  0.2441E+00
      5.117  0.4293E-01  0.2477E+00
      5.200  0.4631E-01  0.2515E+00
      5.283  0.4679E-01  0.2554E+00
      5.366  0.4536E-01  0.2592E+00
      5.449  0.4367E-01  0.2628E+00
      5.532  0.4647E-01  0.2666E+00
      5.615  0.4960E-01  0.2707E+00
      5.698  0.5226E-01  0.2751E+00
      5.781  0.4771E-01  0.2790E+00
      5.864  0.4616E-01  0.2829E+00
      5.947  0.4536E-01  0.2866E+00
      6.030  0.4516E-01  0.2904E+00
      6.112  0.4407E-01  0.2940E+00
      6.195  0.4604E-01  0.2978E+00
      6.278  0.4959E-01  0.3020E+00
      6.361  0.5381E-01  0.3064E+00
      6.444  0.5607E-01  0.3111E+00
      6.527  0.6036E-01  0.3161E+00
      6.610  0.6073E-01  0.3211E+00
      6.693  0.5917E-01  0.3260E+00
      6.776  0.6180E-01  0.3311E+00
      6.859  0.6569E-01  0.3366E+00
      6.942  0.6779E-01  0.3422E+00
      7.024  0.6188E-01  0.3473E+00
      7.107  0.6067E-01  0.3524E+00
      7.190  0.6220E-01  0.3575E+00
      7.273  0.6427E-01  0.3628E+00
      7.356  0.6915E-01  0.3686E+00
      7.439  0.7725E-01  0.3750E+00
      7.522  0.7548E-01  0.3812E+00
      7.605  0.6588E-01  0.3867E+00
      7.688  0.6456E-01  0.3921E+00
      7.771  0.6429E-01  0.3974E+00
      7.854  0.6205E-01  0.4025E+00
      7.937  0.6724E-01  0.4081E+00
      8.019  0.7006E-01  0.4139E+00
      8.102  0.6997E-01  0.4197E+00
      8.185  0.6736E-01  0.4253E+00
      8.268  0.6356E-01  0.4306E+00
      8.351  0.6435E-01  0.4359E+00
      8.434  0.6298E-01  0.4411E+00
      8.517  0.5815E-01  0.4460E+00
      8.600  0.5352E-01  0.4504E+00
      8.683  0.5214E-01  0.4547E+00
      8.766  0.5657E-01  0.4594E+00
      8.849  0.5367E-01  0.4639E+00
      8.931  0.4258E-01  0.4674E+00
      9.014  0.3590E-01  0.4704E+00
      9.097  0.3284E-01  0.4731E+00
      9.180  0.2836E-01  0.4754E+00
      9.263  0.1707E-01  0.4769E+00
      9.346  0.1115E-01  0.4778E+00
      9.429  0.1236E-01  0.4788E+00
      9.512  0.1158E-01  0.4798E+00
      9.595  0.2852E-02  0.4800E+00
      9.678  0.4706E-04  0.4800E+00
      9.761  0.2096E-07  0.4800E+00
      9.844  0.1056E-04  0.4800E+00
      9.926  0.2808E-03  0.4800E+00
     10.009  0.9216E-03  0.4801E+00
     10.092  0.1656E-02  0.4802E+00
     10.175  0.2309E-02  0.4804E+00
     10.258  0.2827E-02  0.4807E+00
     10.341  0.3410E-02  0.4809E+00
     10.424  0.3859E-02  0.4813E+00
     10.507  0.4425E-02  0.4816E+00
     10.590  0.4892E-02  0.4820E+00
     10.673  0.5530E-02  0.4825E+00
     10.756  0.5948E-02  0.4830E+00
     10.838  0.6771E-02  0.4836E+00
     10.921  0.7185E-02  0.4841E+00
     11.004  0.7777E-02  0.4848E+00
     11.087  0.8594E-02  0.4855E+00
     11.170  0.9065E-02  0.4863E+00
     11.253  0.1046E-01  0.4871E+00
     11.336  0.1079E-01  0.4880E+00
     11.419  0.1276E-01  0.4891E+00
     11.502  0.1365E-01  0.4902E+00
     11.585  0.1462E-01  0.4914E+00
     11.668  0.1476E-01  0.4926E+00
     11.751  0.1476E-01  0.4939E+00
     11.833  0.1528E-01  0.4951E+00
     11.916  0.1523E-01  0.4964E+00
     11.999  0.1563E-01  0.4977E+00
     12.082  0.1494E-01  0.4989E+00
     12.165  0.1544E-01  0.5002E+00
     12.248  0.1588E-01  0.5015E+00
     12.331  0.1815E-01  0.5030E+00
     12.414  0.1913E-01  0.5046E+00
     12.497  0.1959E-01  0.5062E+00
     12.580  0.2138E-01  0.5080E+00
     12.663  0.2245E-01  0.5099E+00
     12.746  0.2415E-01  0.5119E+00
     12.828  0.2588E-01  0.5140E+00
     12.911  0.2753E-01  0.5163E+00
     12.994  0.2886E-01  0.5187E+00
     13.077  0.3072E-01  0.5213E+00
     13.160  0.3157E-01  0.5239E+00
     13.243  0.3354E-01  0.5266E+00
     13.326  0.3518E-01  0.5296E+00
     13.409  0.3225E-01  0.5322E+00
     13.492  0.2856E-01  0.5346E+00
     13.575  0.2593E-01  0.5368E+00
     13.658  0.2059E-01  0.5385E+00
     13.740  0.1942E-01  0.5401E+00
     13.823  0.2179E-01  0.5419E+00
     13.906  0.2412E-01  0.5439E+00
     13.989  0.3202E-01  0.5465E+00
     14.072  0.3830E-01  0.5497E+00
     14.155  0.4019E-01  0.5530E+00
     14.238  0.3544E-01  0.5560E+00
     14.321  0.3102E-01  0.5586E+00
     14.404  0.2886E-01  0.5609E+00
     14.487  0.2711E-01  0.5632E+00
     14.570  0.2891E-01  0.5656E+00
     14.653  0.2890E-01  0.5680E+00
     14.735  0.2866E-01  0.5704E+00
     14.818  0.2927E-01  0.5728E+00
     14.901  0.3008E-01  0.5753E+00
     14.984  0.3214E-01  0.5780E+00
     15.067  0.3617E-01  0.5810E+00
     15.150  0.3995E-01  0.5843E+00
     15.233  0.4175E-01  0.5877E+00
     15.316  0.3863E-01  0.5909E+00
     15.399  0.3449E-01  0.5938E+00
     15.482  0.3158E-01  0.5964E+00
     15.565  0.3483E-01  0.5993E+00
     15.647  0.3541E-01  0.6022E+00
     15.730  0.3687E-01  0.6053E+00
     15.813  0.4041E-01  0.6086E+00
     15.896  0.4148E-01  0.6121E+00
     15.979  0.3749E-01  0.6152E+00
     16.062  0.3525E-01  0.6181E+00
     16.145  0.3580E-01  0.6211E+00
     16.228  0.3523E-01  0.6240E+00
     16.311  0.3207E-01  0.6267E+00
     16.394  0.3511E-01  0.6296E+00
     16.477  0.3391E-01  0.6324E+00
     16.560  0.3096E-01  0.6349E+00
     16.642  0.2448E-01  0.6370E+00
     16.725  0.1480E-01  0.6382E+00
     16.808  0.1056E-01  0.6391E+00
     16.891  0.7073E-02  0.6397E+00
     16.974  0.2998E-02  0.6399E+00
     17.057  0.8721E-03  0.6400E+00
     17.140  0.1610E-03  0.6400E+00
     17.223  0.6070E-05  0.6400E+00
     17.306  0.4373E-08  0.6400E+00
     17.389  0.2047E-13  0.6400E+00
     17.472  0.0000E+00  0.6400E+00
     17.555  0.0000E+00  0.6400E+00
     17.637  0.0000E+00  0.6400E+00
     17.720  0.0000E+00  0.6400E+00
     17.803  0.0000E+00  0.6400E+00
     17.886  0.0000E+00  0.6400E+00
     17.969  0.0000E+00  0.6400E+00
     18.052  0.0000E+00  0.6400E+00
     18.135  0.0000E+00  0.6400E+00
     18.218  0.0000E+00  0.6400E+00
