Al4C3 Pnma (CIF) - relax @ 50 GPa (ISIF=
           1
     9.572630    0.000000    0.000000
     0.000000    3.289030    0.000000
     0.000000    0.000000   10.091310
   Al   C 
    16    12
Direct configuration=     1
   0.26414000  0.25000000  0.26800000
   0.76414000  0.25000000  0.23200000
   0.73586000  0.75000000  0.73200000
   0.23586000  0.75000000  0.76800000
   0.46906000  0.25000000  0.89233000
   0.96906000  0.25000000  0.60767000
   0.53094000  0.75000000  0.10767000
   0.03094000  0.75000000  0.39233000
   0.50731000  0.25000000  0.60184000
   0.00731000  0.25000000  0.89816000
   0.49269000  0.75000000  0.39816000
   0.99269000  0.75000000  0.10184000
   0.24131000  0.25000000  0.56142000
   0.74131000  0.25000000  0.93858000
   0.75869000  0.75000000  0.43858000
   0.25869000  0.75000000  0.06142000
   0.38450000  0.25000000  0.42462000
   0.88450000  0.25000000  0.07538000
   0.61550000  0.75000000  0.57538000
   0.11550000  0.75000000  0.92462000
   0.39032000  0.25000000  0.08347000
   0.89032000  0.25000000  0.41653000
   0.60968000  0.75000000  0.91653000
   0.10968000  0.75000000  0.58347000
   0.34975000  0.25000000  0.73495000
   0.84975000  0.25000000  0.76505000
   0.65025000  0.75000000  0.26505000
   0.15025000  0.75000000  0.23495000
Al4C3 Pnma (CIF) - relax @ 50 GPa (ISIF=
           1
     8.061063    0.000000    0.000000
     0.000000    2.769675    0.000000
     0.000000    0.000000    8.497841
   Al   C 
    16    12
Direct configuration=     2
   0.26420623  0.25000000  0.26817082
   0.76420623  0.25000000  0.23182918
   0.73579377  0.75000000  0.73182918
   0.23579377  0.75000000  0.76817082
   0.46885786  0.25000000  0.89204441
   0.96885786  0.25000000  0.60795559
   0.53114214  0.75000000  0.10795559
   0.03114214  0.75000000  0.39204441
   0.50759379  0.25000000  0.60254682
   0.00759379  0.25000000  0.89745318
   0.49240621  0.75000000  0.39745318
   0.99240621  0.75000000  0.10254682
   0.24102090  0.25000000  0.56083441
   0.74102090  0.25000000  0.93916559
   0.75897910  0.75000000  0.43916559
   0.25897910  0.75000000  0.06083441
   0.38449953  0.25000000  0.42459236
   0.88449953  0.25000000  0.07540764
   0.61550047  0.75000000  0.57540764
   0.11550047  0.75000000  0.92459236
   0.39044460  0.25000000  0.08375372
   0.89044460  0.25000000  0.41624628
   0.60955540  0.75000000  0.91624628
   0.10955540  0.75000000  0.58375372
   0.34984519  0.25000000  0.73495814
   0.84984519  0.25000000  0.76504186
   0.65015481  0.75000000  0.26504186
   0.15015481  0.75000000  0.23495814
Al4C3 Pnma (CIF) - relax @ 50 GPa (ISIF=
           1
     9.059969    0.000000    0.000000
     0.000000    3.112887    0.000000
     0.000000    0.000000    9.550872
   Al   C 
    16    12
Direct configuration=     3
   0.26415425  0.25000000  0.26803677
   0.76415425  0.25000000  0.23196323
   0.73584575  0.75000000  0.73196323
   0.23584575  0.75000000  0.76803677
   0.46901649  0.25000000  0.89226853
   0.96901649  0.25000000  0.60773147
   0.53098351  0.75000000  0.10773147
   0.03098351  0.75000000  0.39226853
   0.50737108  0.25000000  0.60199214
   0.00737108  0.25000000  0.89800786
   0.49262892  0.75000000  0.39800786
   0.99262892  0.75000000  0.10199214
   0.24124777  0.25000000  0.56129396
   0.74124777  0.25000000  0.93870604
   0.75875223  0.75000000  0.43870604
   0.25875223  0.75000000  0.06129396
   0.38449990  0.25000000  0.42461405
   0.88449990  0.25000000  0.07538595
   0.61550010  0.75000000  0.57538595
   0.11550010  0.75000000  0.92461405
   0.39034682  0.25000000  0.08353107
   0.89034682  0.25000000  0.41646893
   0.60965318  0.75000000  0.91646893
   0.10965318  0.75000000  0.58353107
   0.34977049  0.25000000  0.73495175
   0.84977049  0.25000000  0.76504825
   0.65022951  0.75000000  0.26504825
   0.15022951  0.75000000  0.23495175
Al4C3 Pnma (CIF) - relax @ 50 GPa (ISIF=
           1
     9.015287    0.000000    0.000000
     0.000000    3.097534    0.000000
     0.000000    0.000000    9.503768
   Al   C 
    16    12
Direct configuration=     4
   0.26415632  0.25000000  0.26804210
   0.76415632  0.25000000  0.23195790
   0.73584368  0.75000000  0.73195790
   0.23584368  0.75000000  0.76804210
   0.46901018  0.25000000  0.89225961
   0.96901018  0.25000000  0.60774039
   0.53098982  0.75000000  0.10774039
   0.03098982  0.75000000  0.39225961
   0.50737995  0.25000000  0.60201421
   0.00737995  0.25000000  0.89798579
   0.49262005  0.75000000  0.39798579
   0.99262005  0.75000000  0.10201421
   0.24123875  0.25000000  0.56127567
   0.74123875  0.25000000  0.93872433
   0.75876125  0.75000000  0.43872433
   0.25876125  0.75000000  0.06127567
   0.38449988  0.25000000  0.42461319
   0.88449988  0.25000000  0.07538681
   0.61550012  0.75000000  0.57538681
   0.11550012  0.75000000  0.92461319
   0.39035071  0.25000000  0.08353993
   0.89035071  0.25000000  0.41646007
   0.60964929  0.75000000  0.91646007
   0.10964929  0.75000000  0.58353993
   0.34977346  0.25000000  0.73495201
   0.84977346  0.25000000  0.76504799
   0.65022654  0.75000000  0.26504799
   0.15022654  0.75000000  0.23495201
Al4C3 Pnma (CIF) - relax @ 50 GPa (ISIF=
           1
     9.001564    0.000000    0.000000
     0.000000    3.092819    0.000000
     0.000000    0.000000    9.489302
   Al   C 
    16    12
Direct configuration=     5
   0.26415696  0.25000000  0.26804375
   0.76415696  0.25000000  0.23195625
   0.73584304  0.75000000  0.73195625
   0.23584304  0.75000000  0.76804375
   0.46900823  0.25000000  0.89225686
   0.96900823  0.25000000  0.60774314
   0.53099177  0.75000000  0.10774314
   0.03099177  0.75000000  0.39225686
   0.50738268  0.25000000  0.60202103
   0.00738268  0.25000000  0.89797897
   0.49261732  0.75000000  0.39797897
   0.99261732  0.75000000  0.10202103
   0.24123596  0.25000000  0.56127002
   0.74123596  0.25000000  0.93872998
   0.75876404  0.75000000  0.43872998
   0.25876404  0.75000000  0.06127002
   0.38449988  0.25000000  0.42461292
   0.88449988  0.25000000  0.07538708
   0.61550012  0.75000000  0.57538708
   0.11550012  0.75000000  0.92461292
   0.39035191  0.25000000  0.08354266
   0.89035191  0.25000000  0.41645734
   0.60964809  0.75000000  0.91645734
   0.10964809  0.75000000  0.58354266
   0.34977438  0.25000000  0.73495208
   0.84977438  0.25000000  0.76504792
   0.65022562  0.75000000  0.26504792
   0.15022562  0.75000000  0.23495208
Al4C3 Pnma (CIF) - relax @ 50 GPa (ISIF=
           1
     8.993817    0.000000    0.000000
     0.000000    3.090158    0.000000
     0.000000    0.000000    9.481135
   Al   C 
    16    12
Direct configuration=     6
   0.26572443  0.25000000  0.26787985
   0.76572443  0.25000000  0.23212015
   0.73427557  0.75000000  0.73212015
   0.23427557  0.75000000  0.76787985
   0.46932309  0.25000000  0.89163248
   0.96932309  0.25000000  0.60836752
   0.53067691  0.75000000  0.10836752
   0.03067691  0.75000000  0.39163248
   0.50740204  0.25000000  0.60506509
   0.00740204  0.25000000  0.89493491
   0.49259796  0.75000000  0.39493491
   0.99259796  0.75000000  0.10506509
   0.23858463  0.25000000  0.55900322
   0.73858463  0.25000000  0.94099678
   0.76141537  0.75000000  0.44099678
   0.26141537  0.75000000  0.05900322
   0.38439138  0.25000000  0.42458190
   0.88439138  0.25000000  0.07541810
   0.61560862  0.75000000  0.57541810
   0.11560862  0.75000000  0.92458190
   0.39065489  0.25000000  0.08636720
   0.89065489  0.25000000  0.41363280
   0.60934511  0.75000000  0.91363280
   0.10934511  0.75000000  0.58636720
   0.35091809  0.25000000  0.73517690
   0.85091809  0.25000000  0.76482310
   0.64908191  0.75000000  0.26482310
   0.14908191  0.75000000  0.23517690
Al4C3 Pnma (CIF) - relax @ 50 GPa (ISIF=
           1
     8.995123    0.000000    0.000000
     0.000000    3.090606    0.000000
     0.000000    0.000000    9.482511
   Al   C 
    16    12
Direct configuration=     7
   0.26546007  0.25000000  0.26790749
   0.76546007  0.25000000  0.23209251
   0.73453993  0.75000000  0.73209251
   0.23453993  0.75000000  0.76790749
   0.46926999  0.25000000  0.89173778
   0.96926999  0.25000000  0.60826222
   0.53073001  0.75000000  0.10826222
   0.03073001  0.75000000  0.39173778
   0.50739878  0.25000000  0.60455171
   0.00739878  0.25000000  0.89544829
   0.49260122  0.75000000  0.39544829
   0.99260122  0.75000000  0.10455171
   0.23903177  0.25000000  0.55938552
   0.73903177  0.25000000  0.94061448
   0.76096823  0.75000000  0.44061448
   0.26096823  0.75000000  0.05938552
   0.38440967  0.25000000  0.42458713
   0.88440967  0.25000000  0.07541287
   0.61559033  0.75000000  0.57541287
   0.11559033  0.75000000  0.92458713
   0.39060379  0.25000000  0.08589084
   0.89060379  0.25000000  0.41410916
   0.60939621  0.75000000  0.91410916
   0.10939621  0.75000000  0.58589084
   0.35072520  0.25000000  0.73513899
   0.85072520  0.25000000  0.76486101
   0.64927480  0.75000000  0.26486101
   0.14927480  0.75000000  0.23513899
Al4C3 Pnma (CIF) - relax @ 50 GPa (ISIF=
           1
     8.996331    0.000000    0.000000
     0.000000    3.091021    0.000000
     0.000000    0.000000    9.483784
   Al   C 
    16    12
Direct configuration=     8
   0.26553017  0.25000000  0.26728436
   0.76553017  0.25000000  0.23271564
   0.73446983  0.75000000  0.73271564
   0.23446983  0.75000000  0.76728436
   0.46875832  0.25000000  0.89196243
   0.96875832  0.25000000  0.60803757
   0.53124168  0.75000000  0.10803757
   0.03124168  0.75000000  0.39196243
   0.50749266  0.25000000  0.60515357
   0.00749266  0.25000000  0.89484643
   0.49250734  0.75000000  0.39484643
   0.99250734  0.75000000  0.10515357
   0.23881727  0.25000000  0.55817159
   0.73881727  0.25000000  0.94182841
   0.76118273  0.75000000  0.44182841
   0.26118273  0.75000000  0.05817159
   0.38460090  0.25000000  0.42520722
   0.88460090  0.25000000  0.07479278
   0.61539910  0.75000000  0.57479278
   0.11539910  0.75000000  0.92520722
   0.39205143  0.25000000  0.08713546
   0.89205143  0.25000000  0.41286454
   0.60794857  0.75000000  0.91286454
   0.10794857  0.75000000  0.58713546
   0.34918606  0.25000000  0.73492877
   0.84918606  0.25000000  0.76507123
   0.65081394  0.75000000  0.26507123
   0.15081394  0.75000000  0.23492877
Al4C3 Pnma (CIF) - relax @ 50 GPa (ISIF=
           1
     8.996389    0.000000    0.000000
     0.000000    3.091041    0.000000
     0.000000    0.000000    9.483846
   Al   C 
    16    12
Direct configuration=     9
   0.26553357  0.25000000  0.26725415
   0.76553357  0.25000000  0.23274585
   0.73446643  0.75000000  0.73274585
   0.23446643  0.75000000  0.76725415
   0.46873351  0.25000000  0.89197332
   0.96873351  0.25000000  0.60802668
   0.53126649  0.75000000  0.10802668
   0.03126649  0.75000000  0.39197332
   0.50749721  0.25000000  0.60518274
   0.00749721  0.25000000  0.89481726
   0.49250279  0.75000000  0.39481726
   0.99250279  0.75000000  0.10518274
   0.23880687  0.25000000  0.55811274
   0.73880687  0.25000000  0.94188726
   0.76119313  0.75000000  0.44188726
   0.26119313  0.75000000  0.05811274
   0.38461017  0.25000000  0.42523728
   0.88461017  0.25000000  0.07476272
   0.61538983  0.75000000  0.57476272
   0.11538983  0.75000000  0.92523728
   0.39212161  0.25000000  0.08719580
   0.89212161  0.25000000  0.41280420
   0.60787839  0.75000000  0.91280420
   0.10787839  0.75000000  0.58719580
   0.34911145  0.25000000  0.73491858
   0.84911145  0.25000000  0.76508142
   0.65088855  0.75000000  0.26508142
   0.15088855  0.75000000  0.23491858
Al4C3 Pnma (CIF) - relax @ 50 GPa (ISIF=
           1
     8.992101    0.000000    0.000000
     0.000000    3.089568    0.000000
     0.000000    0.000000    9.479326
   Al   C 
    16    12
Direct configuration=    10
   0.26628350  0.25000000  0.26709097
   0.76628350  0.25000000  0.23290903
   0.73371650  0.75000000  0.73290903
   0.23371650  0.75000000  0.76709097
   0.46746970  0.25000000  0.89185408
   0.96746970  0.25000000  0.60814592
   0.53253030  0.75000000  0.10814592
   0.03253030  0.75000000  0.39185408
   0.50716129  0.25000000  0.60522177
   0.00716129  0.25000000  0.89477823
   0.49283871  0.75000000  0.39477823
   0.99283871  0.75000000  0.10522177
   0.23810908  0.25000000  0.55807770
   0.73810908  0.25000000  0.94192230
   0.76189092  0.75000000  0.44192230
   0.26189092  0.75000000  0.05807770
   0.38483675  0.25000000  0.42480627
   0.88483675  0.25000000  0.07519373
   0.61516325  0.75000000  0.57519373
   0.11516325  0.75000000  0.92480627
   0.39324074  0.25000000  0.08758663
   0.89324074  0.25000000  0.41241337
   0.60675926  0.75000000  0.91241337
   0.10675926  0.75000000  0.58758663
   0.34826504  0.25000000  0.73478135
   0.84826504  0.25000000  0.76521865
   0.65173496  0.75000000  0.26521865
   0.15173496  0.75000000  0.23478135
Al4C3 Pnma (CIF) - relax @ 50 GPa (ISIF=
           1
     8.989817    0.000000    0.000000
     0.000000    3.088783    0.000000
     0.000000    0.000000    9.476918
   Al   C 
    16    12
Direct configuration=    11
   0.26668331  0.25000000  0.26700398
   0.76668331  0.25000000  0.23299602
   0.73331669  0.75000000  0.73299602
   0.23331669  0.75000000  0.76700398
   0.46679592  0.25000000  0.89179050
   0.96679592  0.25000000  0.60820950
   0.53320408  0.75000000  0.10820950
   0.03320408  0.75000000  0.39179050
   0.50698221  0.25000000  0.60524258
   0.00698221  0.25000000  0.89475742
   0.49301779  0.75000000  0.39475742
   0.99301779  0.75000000  0.10524258
   0.23773707  0.25000000  0.55805902
   0.73773707  0.25000000  0.94194098
   0.76226293  0.75000000  0.44194098
   0.26226293  0.75000000  0.05805902
   0.38495755  0.25000000  0.42457649
   0.88495755  0.25000000  0.07542351
   0.61504245  0.75000000  0.57542351
   0.11504245  0.75000000  0.92457649
   0.39383739  0.25000000  0.08779500
   0.89383739  0.25000000  0.41220500
   0.60616261  0.75000000  0.91220500
   0.10616261  0.75000000  0.58779500
   0.34781378  0.25000000  0.73470819
   0.84781378  0.25000000  0.76529181
   0.65218622  0.75000000  0.26529181
   0.15218622  0.75000000  0.23470819
Al4C3 Pnma (CIF) - relax @ 50 GPa (ISIF=
           1
     8.995955    0.000000    0.000000
     0.000000    3.090892    0.000000
     0.000000    0.000000    9.483389
   Al   C 
    16    12
Direct configuration=    12
   0.26771838  0.25000000  0.26655819
   0.76771838  0.25000000  0.23344181
   0.73228162  0.75000000  0.73344181
   0.23228162  0.75000000  0.76655819
   0.46565806  0.25000000  0.89182306
   0.96565806  0.25000000  0.60817694
   0.53434194  0.75000000  0.10817694
   0.03434194  0.75000000  0.39182306
   0.50601115  0.25000000  0.60510290
   0.00601115  0.25000000  0.89489710
   0.49398885  0.75000000  0.39489710
   0.99398885  0.75000000  0.10510290
   0.23707371  0.25000000  0.55803339
   0.73707371  0.25000000  0.94196661
   0.76292629  0.75000000  0.44196661
   0.26292629  0.75000000  0.05803339
   0.38472439  0.25000000  0.42510809
   0.88472439  0.25000000  0.07489191
   0.61527561  0.75000000  0.57489191
   0.11527561  0.75000000  0.92510809
   0.39430996  0.25000000  0.08786910
   0.89430996  0.25000000  0.41213090
   0.60569004  0.75000000  0.91213090
   0.10569004  0.75000000  0.58786910
   0.34742650  0.25000000  0.73415443
   0.84742650  0.25000000  0.76584557
   0.65257350  0.75000000  0.26584557
   0.15257350  0.75000000  0.23415443
Al4C3 Pnma (CIF) - relax @ 50 GPa (ISIF=
           1
     8.995516    0.000000    0.000000
     0.000000    3.090741    0.000000
     0.000000    0.000000    9.482926
   Al   C 
    16    12
Direct configuration=    13
   0.26764446  0.25000000  0.26659002
   0.76764446  0.25000000  0.23340998
   0.73235554  0.75000000  0.73340998
   0.23235554  0.75000000  0.76659002
   0.46573932  0.25000000  0.89182073
   0.96573932  0.25000000  0.60817927
   0.53426068  0.75000000  0.10817927
   0.03426068  0.75000000  0.39182073
   0.50608050  0.25000000  0.60511287
   0.00608050  0.25000000  0.89488713
   0.49391950  0.75000000  0.39488713
   0.99391950  0.75000000  0.10511287
   0.23712109  0.25000000  0.55803522
   0.73712109  0.25000000  0.94196478
   0.76287891  0.75000000  0.44196478
   0.26287891  0.75000000  0.05803522
   0.38474105  0.25000000  0.42507013
   0.88474105  0.25000000  0.07492987
   0.61525895  0.75000000  0.57492987
   0.11525895  0.75000000  0.92507013
   0.39427621  0.25000000  0.08786381
   0.89427621  0.25000000  0.41213619
   0.60572379  0.75000000  0.91213619
   0.10572379  0.75000000  0.58786381
   0.34745416  0.25000000  0.73419398
   0.84745416  0.25000000  0.76580602
   0.65254584  0.75000000  0.26580602
   0.15254584  0.75000000  0.23419398
Al4C3 Pnma (CIF) - relax @ 50 GPa (ISIF=
           1
     8.989181    0.000000    0.000000
     0.000000    3.088565    0.000000
     0.000000    0.000000    9.476248
   Al   C 
    16    12
Direct configuration=    14
   0.26817149  0.25000000  0.26642116
   0.76817149  0.25000000  0.23357884
   0.73182851  0.75000000  0.73357884
   0.23182851  0.75000000  0.76642116
   0.46548573  0.25000000  0.89179636
   0.96548573  0.25000000  0.60820364
   0.53451427  0.75000000  0.10820364
   0.03451427  0.75000000  0.39179636
   0.50602232  0.25000000  0.60468088
   0.00602232  0.25000000  0.89531912
   0.49397768  0.75000000  0.39531912
   0.99397768  0.75000000  0.10468088
   0.23673160  0.25000000  0.55793389
   0.73673160  0.25000000  0.94206611
   0.76326840  0.75000000  0.44206611
   0.26326840  0.75000000  0.05793389
   0.38464856  0.25000000  0.42541673
   0.88464856  0.25000000  0.07458327
   0.61535144  0.75000000  0.57458327
   0.11535144  0.75000000  0.92541673
   0.39432966  0.25000000  0.08779650
   0.89432966  0.25000000  0.41220350
   0.60567034  0.75000000  0.91220350
   0.10567034  0.75000000  0.58779650
   0.34711559  0.25000000  0.73420441
   0.84711559  0.25000000  0.76579559
   0.65288441  0.75000000  0.26579559
   0.15288441  0.75000000  0.23420441
Al4C3 Pnma (CIF) - relax @ 50 GPa (ISIF=
           1
     8.991249    0.000000    0.000000
     0.000000    3.089275    0.000000
     0.000000    0.000000    9.478427
   Al   C 
    16    12
Direct configuration=    15
   0.26799937  0.25000000  0.26647631
   0.76799937  0.25000000  0.23352369
   0.73200063  0.75000000  0.73352369
   0.23200063  0.75000000  0.76647631
   0.46556855  0.25000000  0.89180432
   0.96556855  0.25000000  0.60819568
   0.53443145  0.75000000  0.10819568
   0.03443145  0.75000000  0.39180432
   0.50604132  0.25000000  0.60482196
   0.00604132  0.25000000  0.89517804
   0.49395868  0.75000000  0.39517804
   0.99395868  0.75000000  0.10482196
   0.23685880  0.25000000  0.55796698
   0.73685880  0.25000000  0.94203302
   0.76314120  0.75000000  0.44203302
   0.26314120  0.75000000  0.05796698
   0.38467877  0.25000000  0.42530354
   0.88467877  0.25000000  0.07469646
   0.61532123  0.75000000  0.57469646
   0.11532123  0.75000000  0.92530354
   0.39431220  0.25000000  0.08781848
   0.89431220  0.25000000  0.41218152
   0.60568780  0.75000000  0.91218152
   0.10568780  0.75000000  0.58781848
   0.34722616  0.25000000  0.73420100
   0.84722616  0.25000000  0.76579900
   0.65277384  0.75000000  0.26579900
   0.15277384  0.75000000  0.23420100
Al4C3 Pnma (CIF) - relax @ 50 GPa (ISIF=
           1
     8.993389    0.000000    0.000000
     0.000000    3.090010    0.000000
     0.000000    0.000000    9.480684
   Al   C 
    16    12
Direct configuration=    16
   0.26816896  0.25000000  0.26649563
   0.76816896  0.25000000  0.23350437
   0.73183104  0.75000000  0.73350437
   0.23183104  0.75000000  0.76649563
   0.46563328  0.25000000  0.89169221
   0.96563328  0.25000000  0.60830779
   0.53436672  0.75000000  0.10830779
   0.03436672  0.75000000  0.39169221
   0.50609850  0.25000000  0.60475515
   0.00609850  0.25000000  0.89524485
   0.49390150  0.75000000  0.39524485
   0.99390150  0.75000000  0.10475515
   0.23676265  0.25000000  0.55793609
   0.73676265  0.25000000  0.94206391
   0.76323735  0.75000000  0.44206391
   0.26323735  0.75000000  0.05793609
   0.38467904  0.25000000  0.42531344
   0.88467904  0.25000000  0.07468656
   0.61532096  0.75000000  0.57468656
   0.11532096  0.75000000  0.92531344
   0.39437519  0.25000000  0.08777863
   0.89437519  0.25000000  0.41222137
   0.60562481  0.75000000  0.91222137
   0.10562481  0.75000000  0.58777863
   0.34712700  0.25000000  0.73425800
   0.84712700  0.25000000  0.76574200
   0.65287300  0.75000000  0.26574200
   0.15287300  0.75000000  0.23425800
Al4C3 Pnma (CIF) - relax @ 50 GPa (ISIF=
           1
     8.992745    0.000000    0.000000
     0.000000    3.089789    0.000000
     0.000000    0.000000    9.480005
   Al   C 
    16    12
Direct configuration=    17
   0.26811795  0.25000000  0.26648982
   0.76811795  0.25000000  0.23351018
   0.73188205  0.75000000  0.73351018
   0.23188205  0.75000000  0.76648982
   0.46561381  0.25000000  0.89172593
   0.96561381  0.25000000  0.60827407
   0.53438619  0.75000000  0.10827407
   0.03438619  0.75000000  0.39172593
   0.50608130  0.25000000  0.60477525
   0.00608130  0.25000000  0.89522475
   0.49391870  0.75000000  0.39522475
   0.99391870  0.75000000  0.10477525
   0.23679157  0.25000000  0.55794538
   0.73679157  0.25000000  0.94205462
   0.76320843  0.75000000  0.44205462
   0.26320843  0.75000000  0.05794538
   0.38467896  0.25000000  0.42531046
   0.88467896  0.25000000  0.07468954
   0.61532104  0.75000000  0.57468954
   0.11532104  0.75000000  0.92531046
   0.39435624  0.25000000  0.08779061
   0.89435624  0.25000000  0.41220939
   0.60564376  0.75000000  0.91220939
   0.10564376  0.75000000  0.58779061
   0.34715683  0.25000000  0.73424086
   0.84715683  0.25000000  0.76575914
   0.65284317  0.75000000  0.26575914
   0.15284317  0.75000000  0.23424086
Al4C3 Pnma (CIF) - relax @ 50 GPa (ISIF=
           1
     8.992398    0.000000    0.000000
     0.000000    3.089670    0.000000
     0.000000    0.000000    9.479639
   Al   C 
    16    12
Direct configuration=    18
   0.26818336  0.25000000  0.26647675
   0.76818336  0.25000000  0.23352325
   0.73181664  0.75000000  0.73352325
   0.23181664  0.75000000  0.76647675
   0.46568949  0.25000000  0.89163821
   0.96568949  0.25000000  0.60836179
   0.53431051  0.75000000  0.10836179
   0.03431051  0.75000000  0.39163821
   0.50604432  0.25000000  0.60480726
   0.00604432  0.25000000  0.89519274
   0.49395568  0.75000000  0.39519274
   0.99395568  0.75000000  0.10480726
   0.23679010  0.25000000  0.55794005
   0.73679010  0.25000000  0.94205995
   0.76320990  0.75000000  0.44205995
   0.26320990  0.75000000  0.05794005
   0.38469964  0.25000000  0.42533442
   0.88469964  0.25000000  0.07466558
   0.61530036  0.75000000  0.57466558
   0.11530036  0.75000000  0.92533442
   0.39440472  0.25000000  0.08775135
   0.89440472  0.25000000  0.41224865
   0.60559528  0.75000000  0.91224865
   0.10559528  0.75000000  0.58775135
   0.34710766  0.25000000  0.73421836
   0.84710766  0.25000000  0.76578164
   0.65289234  0.75000000  0.26578164
   0.15289234  0.75000000  0.23421836
