Al4C3 Pnma-VII - H(P) scan @ 90 GPa (ISI
           1
     8.757969    0.000000    0.000000
     0.000000    3.009123    0.000000
     0.000000    0.000000    9.232508
   Al   C 
    16    12
Direct configuration=     1
   0.26963815  0.25000000  0.26627434
   0.76963815  0.25000000  0.23372566
   0.73036185  0.75000000  0.73372566
   0.23036185  0.75000000  0.76627434
   0.46402957  0.25000000  0.89170717
   0.96402957  0.25000000  0.60829283
   0.53597043  0.75000000  0.10829283
   0.03597043  0.75000000  0.39170717
   0.50554450  0.25000000  0.60585054
   0.00554450  0.25000000  0.89414946
   0.49445550  0.75000000  0.39414946
   0.99445550  0.75000000  0.10585054
   0.23492581  0.25000000  0.55690301
   0.73492581  0.25000000  0.94309699
   0.76507419  0.75000000  0.44309699
   0.26507419  0.75000000  0.05690301
   0.38481608  0.25000000  0.42602467
   0.88481608  0.25000000  0.07397533
   0.61518392  0.75000000  0.57397533
   0.11518392  0.75000000  0.92602467
   0.39621899  0.25000000  0.08941993
   0.89621899  0.25000000  0.41058007
   0.60378101  0.75000000  0.91058007
   0.10378101  0.75000000  0.58941993
   0.34583681  0.25000000  0.73401419
   0.84583681  0.25000000  0.76598581
   0.65416319  0.75000000  0.26598581
   0.15416319  0.75000000  0.23401419
Al4C3 Pnma-VII - H(P) scan @ 90 GPa (ISI
           1
     8.529375    0.000000    0.000000
     0.000000    2.930581    0.000000
     0.000000    0.000000    8.991527
   Al   C 
    16    12
Direct configuration=     2
   0.26960470  0.25000000  0.26627576
   0.76960470  0.25000000  0.23372424
   0.73039530  0.75000000  0.73372424
   0.23039530  0.75000000  0.76627576
   0.46404669  0.25000000  0.89170623
   0.96404669  0.25000000  0.60829377
   0.53595331  0.75000000  0.10829377
   0.03595331  0.75000000  0.39170623
   0.50553044  0.25000000  0.60589039
   0.00553044  0.25000000  0.89410961
   0.49446956  0.75000000  0.39410961
   0.99446956  0.75000000  0.10589039
   0.23496274  0.25000000  0.55691802
   0.73496274  0.25000000  0.94308198
   0.76503726  0.75000000  0.44308198
   0.26503726  0.75000000  0.05691802
   0.38482072  0.25000000  0.42604331
   0.88482072  0.25000000  0.07395669
   0.61517928  0.75000000  0.57395669
   0.11517928  0.75000000  0.92604331
   0.39624167  0.25000000  0.08941187
   0.89624167  0.25000000  0.41058813
   0.60375833  0.75000000  0.91058813
   0.10375833  0.75000000  0.58941187
   0.34581936  0.25000000  0.73397235
   0.84581936  0.25000000  0.76602765
   0.65418064  0.75000000  0.26602765
   0.15418064  0.75000000  0.23397235
Al4C3 Pnma-VII - H(P) scan @ 90 GPa (ISI
           1
     8.694366    0.000000    0.000000
     0.000000    2.987270    0.000000
     0.000000    0.000000    9.165458
   Al   C 
    16    12
Direct configuration=     3
   0.26962949  0.25000000  0.26627471
   0.76962949  0.25000000  0.23372529
   0.73037051  0.75000000  0.73372529
   0.23037051  0.75000000  0.76627471
   0.46403400  0.25000000  0.89170693
   0.96403400  0.25000000  0.60829307
   0.53596600  0.75000000  0.10829307
   0.03596600  0.75000000  0.39170693
   0.50554086  0.25000000  0.60586086
   0.00554086  0.25000000  0.89413914
   0.49445914  0.75000000  0.39413914
   0.99445914  0.75000000  0.10586086
   0.23493537  0.25000000  0.55690690
   0.73493537  0.25000000  0.94309310
   0.76506463  0.75000000  0.44309310
   0.26506463  0.75000000  0.05690690
   0.38481728  0.25000000  0.42602950
   0.88481728  0.25000000  0.07397050
   0.61518272  0.75000000  0.57397050
   0.11518272  0.75000000  0.92602950
   0.39622486  0.25000000  0.08941784
   0.89622486  0.25000000  0.41058216
   0.60377514  0.75000000  0.91058216
   0.10377514  0.75000000  0.58941784
   0.34583229  0.25000000  0.73400336
   0.84583229  0.25000000  0.76599664
   0.65416771  0.75000000  0.26599664
   0.15416771  0.75000000  0.23400336
Al4C3 Pnma-VII - H(P) scan @ 90 GPa (ISI
           1
     8.693089    0.000000    0.000000
     0.000000    2.986831    0.000000
     0.000000    0.000000    9.164113
   Al   C 
    16    12
Direct configuration=     4
   0.26962930  0.25000000  0.26627471
   0.76962930  0.25000000  0.23372529
   0.73037070  0.75000000  0.73372529
   0.23037070  0.75000000  0.76627471
   0.46403410  0.25000000  0.89170692
   0.96403410  0.25000000  0.60829308
   0.53596590  0.75000000  0.10829308
   0.03596590  0.75000000  0.39170692
   0.50554078  0.25000000  0.60586108
   0.00554078  0.25000000  0.89413892
   0.49445922  0.75000000  0.39413892
   0.99445922  0.75000000  0.10586108
   0.23493558  0.25000000  0.55690698
   0.73493558  0.25000000  0.94309302
   0.76506442  0.75000000  0.44309302
   0.26506442  0.75000000  0.05690698
   0.38481731  0.25000000  0.42602960
   0.88481731  0.25000000  0.07397040
   0.61518269  0.75000000  0.57397040
   0.11518269  0.75000000  0.92602960
   0.39622499  0.25000000  0.08941779
   0.89622499  0.25000000  0.41058221
   0.60377501  0.75000000  0.91058221
   0.10377501  0.75000000  0.58941779
   0.34583219  0.25000000  0.73400312
   0.84583219  0.25000000  0.76599688
   0.65416781  0.75000000  0.26599688
   0.15416781  0.75000000  0.23400312
Al4C3 Pnma-VII - H(P) scan @ 90 GPa (ISI
           1
     8.692898    0.000000    0.000000
     0.000000    2.986766    0.000000
     0.000000    0.000000    9.163911
   Al   C 
    16    12
Direct configuration=     5
   0.26962927  0.25000000  0.26627472
   0.76962927  0.25000000  0.23372528
   0.73037073  0.75000000  0.73372528
   0.23037073  0.75000000  0.76627472
   0.46403411  0.25000000  0.89170692
   0.96403411  0.25000000  0.60829308
   0.53596589  0.75000000  0.10829308
   0.03596589  0.75000000  0.39170692
   0.50554077  0.25000000  0.60586111
   0.00554077  0.25000000  0.89413889
   0.49445923  0.75000000  0.39413889
   0.99445923  0.75000000  0.10586111
   0.23493561  0.25000000  0.55690699
   0.73493561  0.25000000  0.94309301
   0.76506439  0.75000000  0.44309301
   0.26506439  0.75000000  0.05690699
   0.38481731  0.25000000  0.42602962
   0.88481731  0.25000000  0.07397038
   0.61518269  0.75000000  0.57397038
   0.11518269  0.75000000  0.92602962
   0.39622501  0.25000000  0.08941779
   0.89622501  0.25000000  0.41058221
   0.60377499  0.75000000  0.91058221
   0.10377499  0.75000000  0.58941779
   0.34583218  0.25000000  0.73400309
   0.84583218  0.25000000  0.76599691
   0.65416782  0.75000000  0.26599691
   0.15416782  0.75000000  0.23400309
Al4C3 Pnma-VII - H(P) scan @ 90 GPa (ISI
           1
     8.692980    0.000000    0.000000
     0.000000    2.986794    0.000000
     0.000000    0.000000    9.163997
   Al   C 
    16    12
Direct configuration=     6
   0.26962928  0.25000000  0.26627472
   0.76962928  0.25000000  0.23372528
   0.73037072  0.75000000  0.73372528
   0.23037072  0.75000000  0.76627472
   0.46403410  0.25000000  0.89170692
   0.96403410  0.25000000  0.60829308
   0.53596590  0.75000000  0.10829308
   0.03596590  0.75000000  0.39170692
   0.50554078  0.25000000  0.60586110
   0.00554078  0.25000000  0.89413890
   0.49445922  0.75000000  0.39413890
   0.99445922  0.75000000  0.10586110
   0.23493560  0.25000000  0.55690699
   0.73493560  0.25000000  0.94309301
   0.76506440  0.75000000  0.44309301
   0.26506440  0.75000000  0.05690699
   0.38481731  0.25000000  0.42602961
   0.88481731  0.25000000  0.07397039
   0.61518269  0.75000000  0.57397039
   0.11518269  0.75000000  0.92602961
   0.39622500  0.25000000  0.08941779
   0.89622500  0.25000000  0.41058221
   0.60377500  0.75000000  0.91058221
   0.10377500  0.75000000  0.58941779
   0.34583218  0.25000000  0.73400310
   0.84583218  0.25000000  0.76599690
   0.65416782  0.75000000  0.26599690
   0.15416782  0.75000000  0.23400310
Al4C3 Pnma-VII - H(P) scan @ 90 GPa (ISI
           1
     8.693038    0.000000    0.000000
     0.000000    2.986814    0.000000
     0.000000    0.000000    9.164058
   Al   C 
    16    12
Direct configuration=     7
   0.26962929  0.25000000  0.26627471
   0.76962929  0.25000000  0.23372529
   0.73037071  0.75000000  0.73372529
   0.23037071  0.75000000  0.76627471
   0.46403410  0.25000000  0.89170692
   0.96403410  0.25000000  0.60829308
   0.53596590  0.75000000  0.10829308
   0.03596590  0.75000000  0.39170692
   0.50554078  0.25000000  0.60586109
   0.00554078  0.25000000  0.89413891
   0.49445922  0.75000000  0.39413891
   0.99445922  0.75000000  0.10586109
   0.23493559  0.25000000  0.55690699
   0.73493559  0.25000000  0.94309301
   0.76506441  0.75000000  0.44309301
   0.26506441  0.75000000  0.05690699
   0.38481731  0.25000000  0.42602960
   0.88481731  0.25000000  0.07397040
   0.61518269  0.75000000  0.57397040
   0.11518269  0.75000000  0.92602960
   0.39622500  0.25000000  0.08941779
   0.89622500  0.25000000  0.41058221
   0.60377500  0.75000000  0.91058221
   0.10377500  0.75000000  0.58941779
   0.34583219  0.25000000  0.73400311
   0.84583219  0.25000000  0.76599689
   0.65416781  0.75000000  0.26599689
   0.15416781  0.75000000  0.23400311
Al4C3 Pnma-VII - H(P) scan @ 90 GPa (ISI
           1
     8.692417    0.000000    0.000000
     0.000000    2.986600    0.000000
     0.000000    0.000000    9.163404
   Al   C 
    16    12
Direct configuration=     8
   0.26973640  0.25000000  0.26627871
   0.76973640  0.25000000  0.23372129
   0.73026360  0.75000000  0.73372129
   0.23026360  0.75000000  0.76627871
   0.46401895  0.25000000  0.89171564
   0.96401895  0.25000000  0.60828436
   0.53598105  0.75000000  0.10828436
   0.03598105  0.75000000  0.39171564
   0.50558006  0.25000000  0.60622331
   0.00558006  0.25000000  0.89377669
   0.49441994  0.75000000  0.39377669
   0.99441994  0.75000000  0.10622331
   0.23465068  0.25000000  0.55662938
   0.73465068  0.25000000  0.94337062
   0.76534932  0.75000000  0.44337062
   0.26534932  0.75000000  0.05662938
   0.38484247  0.25000000  0.42610541
   0.88484247  0.25000000  0.07389459
   0.61515753  0.75000000  0.57389459
   0.11515753  0.75000000  0.92610541
   0.39632480  0.25000000  0.08971316
   0.89632480  0.25000000  0.41028684
   0.60367520  0.75000000  0.91028684
   0.10367520  0.75000000  0.58971316
   0.34587085  0.25000000  0.73399456
   0.84587085  0.25000000  0.76600544
   0.65412915  0.75000000  0.26600544
   0.15412915  0.75000000  0.23399456
Al4C3 Pnma-VII - H(P) scan @ 90 GPa (ISI
           1
     8.692494    0.000000    0.000000
     0.000000    2.986627    0.000000
     0.000000    0.000000    9.163485
   Al   C 
    16    12
Direct configuration=     9
   0.26972312  0.25000000  0.26627821
   0.76972312  0.25000000  0.23372179
   0.73027688  0.75000000  0.73372179
   0.23027688  0.75000000  0.76627821
   0.46402083  0.25000000  0.89171456
   0.96402083  0.25000000  0.60828544
   0.53597917  0.75000000  0.10828544
   0.03597917  0.75000000  0.39171456
   0.50557519  0.25000000  0.60617840
   0.00557519  0.25000000  0.89382160
   0.49442481  0.75000000  0.39382160
   0.99442481  0.75000000  0.10617840
   0.23468600  0.25000000  0.55666380
   0.73468600  0.25000000  0.94333620
   0.76531400  0.75000000  0.44333620
   0.26531400  0.75000000  0.05666380
   0.38483935  0.25000000  0.42609602
   0.88483935  0.25000000  0.07390398
   0.61516065  0.75000000  0.57390398
   0.11516065  0.75000000  0.92609602
   0.39631242  0.25000000  0.08967654
   0.89631242  0.25000000  0.41032346
   0.60368758  0.75000000  0.91032346
   0.10368758  0.75000000  0.58967654
   0.34586605  0.25000000  0.73399562
   0.84586605  0.25000000  0.76600438
   0.65413395  0.75000000  0.26600438
   0.15413395  0.75000000  0.23399562
Al4C3 Pnma-VII - H(P) scan @ 90 GPa (ISI
           1
     8.692376    0.000000    0.000000
     0.000000    2.986586    0.000000
     0.000000    0.000000    9.163360
   Al   C 
    16    12
Direct configuration=    10
   0.26970922  0.25000000  0.26628000
   0.76970922  0.25000000  0.23372000
   0.73029078  0.75000000  0.73372000
   0.23029078  0.75000000  0.76628000
   0.46386819  0.25000000  0.89175563
   0.96386819  0.25000000  0.60824437
   0.53613181  0.75000000  0.10824437
   0.03613181  0.75000000  0.39175563
   0.50561771  0.25000000  0.60623757
   0.00561771  0.25000000  0.89376243
   0.49438229  0.75000000  0.39376243
   0.99438229  0.75000000  0.10623757
   0.23463187  0.25000000  0.55654139
   0.73463187  0.25000000  0.94345861
   0.76536813  0.75000000  0.44345861
   0.26536813  0.75000000  0.05654139
   0.38487996  0.25000000  0.42619799
   0.88487996  0.25000000  0.07380201
   0.61512004  0.75000000  0.57380201
   0.11512004  0.75000000  0.92619799
   0.39653253  0.25000000  0.08980251
   0.89653253  0.25000000  0.41019749
   0.60346747  0.75000000  0.91019749
   0.10346747  0.75000000  0.58980251
   0.34562770  0.25000000  0.73399100
   0.84562770  0.25000000  0.76600900
   0.65437230  0.75000000  0.26600900
   0.15437230  0.75000000  0.23399100
Al4C3 Pnma-VII - H(P) scan @ 90 GPa (ISI
           1
     8.692391    0.000000    0.000000
     0.000000    2.986591    0.000000
     0.000000    0.000000    9.163376
   Al   C 
    16    12
Direct configuration=    11
   0.26971098  0.25000000  0.26627977
   0.76971098  0.25000000  0.23372023
   0.73028902  0.75000000  0.73372023
   0.23028902  0.75000000  0.76627977
   0.46388751  0.25000000  0.89175043
   0.96388751  0.25000000  0.60824957
   0.53611249  0.75000000  0.10824957
   0.03611249  0.75000000  0.39175043
   0.50561233  0.25000000  0.60623008
   0.00561233  0.25000000  0.89376992
   0.49438767  0.75000000  0.39376992
   0.99438767  0.75000000  0.10623008
   0.23463872  0.25000000  0.55655688
   0.73463872  0.25000000  0.94344312
   0.76536128  0.75000000  0.44344312
   0.26536128  0.75000000  0.05655688
   0.38487483  0.25000000  0.42618508
   0.88487483  0.25000000  0.07381492
   0.61512517  0.75000000  0.57381492
   0.11512517  0.75000000  0.92618508
   0.39650468  0.25000000  0.08978657
   0.89650468  0.25000000  0.41021343
   0.60349532  0.75000000  0.91021343
   0.10349532  0.75000000  0.58978657
   0.34565786  0.25000000  0.73399158
   0.84565786  0.25000000  0.76600842
   0.65434214  0.75000000  0.26600842
   0.15434214  0.75000000  0.23399158
Al4C3 Pnma-VII - H(P) scan @ 90 GPa (ISI
           1
     8.692129    0.000000    0.000000
     0.000000    2.986501    0.000000
     0.000000    0.000000    9.163100
   Al   C 
    16    12
Direct configuration=    12
   0.26981794  0.25000000  0.26630955
   0.76981794  0.25000000  0.23369045
   0.73018206  0.75000000  0.73369045
   0.23018206  0.75000000  0.76630955
   0.46367431  0.25000000  0.89174177
   0.96367431  0.25000000  0.60825823
   0.53632569  0.75000000  0.10825823
   0.03632569  0.75000000  0.39174177
   0.50554090  0.25000000  0.60625468
   0.00554090  0.25000000  0.89374532
   0.49445910  0.75000000  0.39374532
   0.99445910  0.75000000  0.10625468
   0.23452479  0.25000000  0.55661319
   0.73452479  0.25000000  0.94338681
   0.76547521  0.75000000  0.44338681
   0.26547521  0.75000000  0.05661319
   0.38489145  0.25000000  0.42617593
   0.88489145  0.25000000  0.07382407
   0.61510855  0.75000000  0.57382407
   0.11510855  0.75000000  0.92617593
   0.39666607  0.25000000  0.08987135
   0.89666607  0.25000000  0.41012865
   0.60333393  0.75000000  0.91012865
   0.10333393  0.75000000  0.58987135
   0.34555155  0.25000000  0.73395799
   0.84555155  0.25000000  0.76604201
   0.65444845  0.75000000  0.26604201
   0.15444845  0.75000000  0.23395799
Al4C3 Pnma-VII - H(P) scan @ 90 GPa (ISI
           1
     8.692021    0.000000    0.000000
     0.000000    2.986464    0.000000
     0.000000    0.000000    9.162987
   Al   C 
    16    12
Direct configuration=    13
   0.26986186  0.25000000  0.26632177
   0.76986186  0.25000000  0.23367823
   0.73013814  0.75000000  0.73367823
   0.23013814  0.75000000  0.76632177
   0.46358677  0.25000000  0.89173822
   0.96358677  0.25000000  0.60826178
   0.53641323  0.75000000  0.10826178
   0.03641323  0.75000000  0.39173822
   0.50551157  0.25000000  0.60626478
   0.00551157  0.25000000  0.89373522
   0.49448843  0.75000000  0.39373522
   0.99448843  0.75000000  0.10626478
   0.23447801  0.25000000  0.55663632
   0.73447801  0.25000000  0.94336368
   0.76552199  0.75000000  0.44336368
   0.26552199  0.75000000  0.05663632
   0.38489827  0.25000000  0.42617218
   0.88489827  0.25000000  0.07382782
   0.61510173  0.75000000  0.57382782
   0.11510173  0.75000000  0.92617218
   0.39673233  0.25000000  0.08990616
   0.89673233  0.25000000  0.41009384
   0.60326767  0.75000000  0.91009384
   0.10326767  0.75000000  0.58990616
   0.34550790  0.25000000  0.73394419
   0.84550790  0.25000000  0.76605581
   0.65449210  0.75000000  0.26605581
   0.15449210  0.75000000  0.23394419
Al4C3 Pnma-VII - H(P) scan @ 90 GPa (ISI
           1
     8.692256    0.000000    0.000000
     0.000000    2.986545    0.000000
     0.000000    0.000000    9.163234
   Al   C 
    16    12
Direct configuration=    14
   0.26997646  0.25000000  0.26627336
   0.76997646  0.25000000  0.23372664
   0.73002354  0.75000000  0.73372664
   0.23002354  0.75000000  0.76627336
   0.46348210  0.25000000  0.89177599
   0.96348210  0.25000000  0.60822401
   0.53651790  0.75000000  0.10822401
   0.03651790  0.75000000  0.39177599
   0.50540979  0.25000000  0.60622486
   0.00540979  0.25000000  0.89377514
   0.49459021  0.75000000  0.39377514
   0.99459021  0.75000000  0.10622486
   0.23440301  0.25000000  0.55667696
   0.73440301  0.25000000  0.94332304
   0.76559699  0.75000000  0.44332304
   0.26559699  0.75000000  0.05667696
   0.38483801  0.25000000  0.42630494
   0.88483801  0.25000000  0.07369506
   0.61516199  0.75000000  0.57369506
   0.11516199  0.75000000  0.92630494
   0.39681306  0.25000000  0.08997656
   0.89681306  0.25000000  0.41002344
   0.60318694  0.75000000  0.91002344
   0.10318694  0.75000000  0.58997656
   0.34545488  0.25000000  0.73389886
   0.84545488  0.25000000  0.76610114
   0.65454512  0.75000000  0.26610114
   0.15454512  0.75000000  0.23389886
Al4C3 Pnma-VII - H(P) scan @ 90 GPa (ISI
           1
     8.692194    0.000000    0.000000
     0.000000    2.986524    0.000000
     0.000000    0.000000    9.163169
   Al   C 
    16    12
Direct configuration=    15
   0.26994628  0.25000000  0.26628611
   0.76994628  0.25000000  0.23371389
   0.73005372  0.75000000  0.73371389
   0.23005372  0.75000000  0.76628611
   0.46350966  0.25000000  0.89176605
   0.96350966  0.25000000  0.60823395
   0.53649034  0.75000000  0.10823395
   0.03649034  0.75000000  0.39176605
   0.50543659  0.25000000  0.60623537
   0.00543659  0.25000000  0.89376463
   0.49456341  0.75000000  0.39376463
   0.99456341  0.75000000  0.10623537
   0.23442276  0.25000000  0.55666626
   0.73442276  0.25000000  0.94333374
   0.76557724  0.75000000  0.44333374
   0.26557724  0.75000000  0.05666626
   0.38485387  0.25000000  0.42626999
   0.88485387  0.25000000  0.07373001
   0.61514613  0.75000000  0.57373001
   0.11514613  0.75000000  0.92626999
   0.39679180  0.25000000  0.08995802
   0.89679180  0.25000000  0.41004198
   0.60320820  0.75000000  0.91004198
   0.10320820  0.75000000  0.58995802
   0.34546884  0.25000000  0.73391079
   0.84546884  0.25000000  0.76608921
   0.65453116  0.75000000  0.26608921
   0.15453116  0.75000000  0.23391079
Al4C3 Pnma-VII - H(P) scan @ 90 GPa (ISI
           1
     8.692023    0.000000    0.000000
     0.000000    2.986465    0.000000
     0.000000    0.000000    9.162989
   Al   C 
    16    12
Direct configuration=    16
   0.27001835  0.25000000  0.26629431
   0.77001835  0.25000000  0.23370569
   0.72998165  0.75000000  0.73370569
   0.22998165  0.75000000  0.76629431
   0.46347498  0.25000000  0.89176821
   0.96347498  0.25000000  0.60823179
   0.53652502  0.75000000  0.10823179
   0.03652502  0.75000000  0.39176821
   0.50545177  0.25000000  0.60618930
   0.00545177  0.25000000  0.89381070
   0.49454823  0.75000000  0.39381070
   0.99454823  0.75000000  0.10618930
   0.23435807  0.25000000  0.55667417
   0.73435807  0.25000000  0.94332583
   0.76564193  0.75000000  0.44332583
   0.26564193  0.75000000  0.05667417
   0.38481261  0.25000000  0.42630777
   0.88481261  0.25000000  0.07369223
   0.61518739  0.75000000  0.57369223
   0.11518739  0.75000000  0.92630777
   0.39681429  0.25000000  0.08997167
   0.89681429  0.25000000  0.41002833
   0.60318571  0.75000000  0.91002833
   0.10318571  0.75000000  0.58997167
   0.34546485  0.25000000  0.73395232
   0.84546485  0.25000000  0.76604768
   0.65453515  0.75000000  0.26604768
   0.15453515  0.75000000  0.23395232
Al4C3 Pnma-VII - H(P) scan @ 90 GPa (ISI
           1
     8.692099    0.000000    0.000000
     0.000000    2.986491    0.000000
     0.000000    0.000000    9.163068
   Al   C 
    16    12
Direct configuration=    17
   0.26998659  0.25000000  0.26629069
   0.76998659  0.25000000  0.23370931
   0.73001341  0.75000000  0.73370931
   0.23001341  0.75000000  0.76629069
   0.46349027  0.25000000  0.89176726
   0.96349027  0.25000000  0.60823274
   0.53650973  0.75000000  0.10823274
   0.03650973  0.75000000  0.39176726
   0.50544508  0.25000000  0.60620961
   0.00544508  0.25000000  0.89379039
   0.49455492  0.75000000  0.39379039
   0.99455492  0.75000000  0.10620961
   0.23438658  0.25000000  0.55667068
   0.73438658  0.25000000  0.94332932
   0.76561342  0.75000000  0.44332932
   0.26561342  0.75000000  0.05667068
   0.38483079  0.25000000  0.42629112
   0.88483079  0.25000000  0.07370888
   0.61516921  0.75000000  0.57370888
   0.11516921  0.75000000  0.92629112
   0.39680438  0.25000000  0.08996566
   0.89680438  0.25000000  0.41003434
   0.60319562  0.75000000  0.91003434
   0.10319562  0.75000000  0.58996566
   0.34546661  0.25000000  0.73393402
   0.84546661  0.25000000  0.76606598
   0.65453339  0.75000000  0.26606598
   0.15453339  0.75000000  0.23393402
