  28  28   0   0
  0.8341194E+01  0.8289030E-09  0.2859565E-09  0.9853322E-09  0.5000000E-15
  1.000000000000000E-004
  CAR 
 Al4C3 Pnma - H(P) scan @ 40 GPa (ISIF=8)
     19.80970286     -5.92425747  301     11.92331627      1.00000000
     -5.924  0.0000E+00  0.0000E+00
     -5.838  0.0000E+00  0.0000E+00
     -5.753  0.0000E+00  0.0000E+00
     -5.667  0.0000E+00  0.0000E+00
     -5.581  0.0000E+00  0.0000E+00
     -5.495  0.0000E+00  0.0000E+00
     -5.410  0.0000E+00  0.0000E+00
     -5.324  0.0000E+00  0.0000E+00
     -5.238  0.0000E+00  0.0000E+00
     -5.152  0.0000E+00  0.0000E+00
     -5.066  0.0000E+00  0.0000E+00
     -4.981  0.5269E-13  0.4519E-14
     -4.895  0.2379E-07  0.2040E-08
     -4.809  0.4068E-04  0.3491E-05
     -4.723  0.6276E-03  0.5733E-04
     -4.638  0.2427E-02  0.2655E-03
     -4.552  0.4770E-02  0.6747E-03
     -4.466  0.5809E-02  0.1173E-02
     -4.380  0.5480E-02  0.1643E-02
     -4.294  0.5325E-02  0.2100E-02
     -4.209  0.8111E-02  0.2796E-02
     -4.123  0.1178E-01  0.3806E-02
     -4.037  0.1002E-01  0.4666E-02
     -3.951  0.7150E-02  0.5279E-02
     -3.866  0.8273E-02  0.5989E-02
     -3.780  0.1260E-01  0.7069E-02
     -3.694  0.8781E-02  0.7823E-02
     -3.608  0.6964E-02  0.8420E-02
     -3.522  0.1304E-01  0.9538E-02
     -3.437  0.1952E-01  0.1121E-01
     -3.351  0.1276E-01  0.1231E-01
     -3.265  0.1188E-01  0.1333E-01
     -3.179  0.9645E-02  0.1415E-01
     -3.094  0.1691E-01  0.1560E-01
     -3.008  0.1478E-01  0.1687E-01
     -2.922  0.1757E-01  0.1838E-01
     -2.836  0.1153E-01  0.1937E-01
     -2.750  0.1017E-01  0.2024E-01
     -2.665  0.1580E-01  0.2160E-01
     -2.579  0.2032E-01  0.2334E-01
     -2.493  0.2196E-01  0.2522E-01
     -2.407  0.1887E-01  0.2684E-01
     -2.322  0.2276E-01  0.2879E-01
     -2.236  0.1558E-01  0.3013E-01
     -2.150  0.1312E-01  0.3125E-01
     -2.064  0.1445E-01  0.3249E-01
     -1.978  0.2252E-01  0.3443E-01
     -1.893  0.2378E-01  0.3647E-01
     -1.807  0.1861E-01  0.3806E-01
     -1.721  0.1573E-01  0.3941E-01
     -1.635  0.2814E-01  0.4183E-01
     -1.549  0.3197E-01  0.4457E-01
     -1.464  0.2548E-01  0.4675E-01
     -1.378  0.2451E-01  0.4886E-01
     -1.292  0.2220E-01  0.5076E-01
     -1.206  0.1940E-01  0.5242E-01
     -1.121  0.2082E-01  0.5421E-01
     -1.035  0.2777E-01  0.5659E-01
     -0.949  0.3721E-01  0.5978E-01
     -0.863  0.3084E-01  0.6243E-01
     -0.777  0.2904E-01  0.6492E-01
     -0.692  0.3852E-01  0.6823E-01
     -0.606  0.3596E-01  0.7131E-01
     -0.520  0.3415E-01  0.7424E-01
     -0.434  0.4000E-01  0.7767E-01
     -0.349  0.4423E-01  0.8146E-01
     -0.263  0.6822E-01  0.8732E-01
     -0.177  0.4674E-01  0.9133E-01
     -0.091  0.2816E-01  0.9374E-01
     -0.005  0.2122E-01  0.9556E-01
      0.080  0.3389E-01  0.9847E-01
      0.166  0.3614E-01  0.1016E+00
      0.252  0.1356E-01  0.1027E+00
      0.338  0.1928E-01  0.1044E+00
      0.423  0.1013E-01  0.1053E+00
      0.509  0.1375E-01  0.1064E+00
      0.595  0.1928E-01  0.1081E+00
      0.681  0.1976E-01  0.1098E+00
      0.767  0.1438E-01  0.1110E+00
      0.852  0.1797E-01  0.1126E+00
      0.938  0.1328E-01  0.1137E+00
      1.024  0.1097E-01  0.1146E+00
      1.110  0.7977E-02  0.1153E+00
      1.195  0.1313E-01  0.1165E+00
      1.281  0.1072E-01  0.1174E+00
      1.367  0.7226E-02  0.1180E+00
      1.453  0.1100E-01  0.1189E+00
      1.539  0.8217E-02  0.1196E+00
      1.624  0.3976E-02  0.1200E+00
      1.710  0.2407E-03  0.1200E+00
      1.796  0.1817E-06  0.1200E+00
      1.882  0.5718E-12  0.1200E+00
      1.967  0.1224E-16  0.1200E+00
      2.053  0.8867E-10  0.1200E+00
      2.139  0.2172E-05  0.1200E+00
      2.225  0.2710E-03  0.1200E+00
      2.311  0.1756E-02  0.1202E+00
      2.396  0.2981E-02  0.1204E+00
      2.482  0.4968E-02  0.1209E+00
      2.568  0.2867E-02  0.1211E+00
      2.654  0.7744E-02  0.1218E+00
      2.740  0.1018E-01  0.1226E+00
      2.825  0.2334E-01  0.1246E+00
      2.911  0.2721E-01  0.1270E+00
      2.997  0.2282E-01  0.1289E+00
      3.083  0.2060E-01  0.1307E+00
      3.168  0.3756E-01  0.1339E+00
      3.254  0.3046E-01  0.1365E+00
      3.340  0.3555E-01  0.1396E+00
      3.426  0.4035E-01  0.1430E+00
      3.512  0.3742E-01  0.1463E+00
      3.597  0.3326E-01  0.1491E+00
      3.683  0.3620E-01  0.1522E+00
      3.769  0.4086E-01  0.1557E+00
      3.855  0.4378E-01  0.1595E+00
      3.940  0.3155E-01  0.1622E+00
      4.026  0.3552E-01  0.1652E+00
      4.112  0.3564E-01  0.1683E+00
      4.198  0.3845E-01  0.1716E+00
      4.284  0.3414E-01  0.1745E+00
      4.369  0.5013E-01  0.1788E+00
      4.455  0.4660E-01  0.1828E+00
      4.541  0.2376E-01  0.1848E+00
      4.627  0.3170E-01  0.1876E+00
      4.712  0.3762E-01  0.1908E+00
      4.798  0.2160E-01  0.1926E+00
      4.884  0.3044E-01  0.1953E+00
      4.970  0.3843E-01  0.1986E+00
      5.056  0.3667E-01  0.2017E+00
      5.141  0.3639E-01  0.2048E+00
      5.227  0.3467E-01  0.2078E+00
      5.313  0.3589E-01  0.2109E+00
      5.399  0.4634E-01  0.2148E+00
      5.484  0.4479E-01  0.2187E+00
      5.570  0.3280E-01  0.2215E+00
      5.656  0.4243E-01  0.2251E+00
      5.742  0.3125E-01  0.2278E+00
      5.828  0.2743E-01  0.2302E+00
      5.913  0.3914E-01  0.2335E+00
      5.999  0.3226E-01  0.2363E+00
      6.085  0.2386E-01  0.2383E+00
      6.171  0.3322E-01  0.2412E+00
      6.256  0.4932E-01  0.2454E+00
      6.342  0.5159E-01  0.2499E+00
      6.428  0.4813E-01  0.2540E+00
      6.514  0.4791E-01  0.2581E+00
      6.600  0.4996E-01  0.2624E+00
      6.685  0.4627E-01  0.2663E+00
      6.771  0.4384E-01  0.2701E+00
      6.857  0.3228E-01  0.2729E+00
      6.943  0.4287E-01  0.2766E+00
      7.029  0.4614E-01  0.2805E+00
      7.114  0.5046E-01  0.2848E+00
      7.200  0.3747E-01  0.2881E+00
      7.286  0.4387E-01  0.2918E+00
      7.372  0.2961E-01  0.2944E+00
      7.457  0.4248E-01  0.2980E+00
      7.543  0.4035E-01  0.3015E+00
      7.629  0.3955E-01  0.3049E+00
      7.715  0.5248E-01  0.3094E+00
      7.801  0.4644E-01  0.3133E+00
      7.886  0.4178E-01  0.3169E+00
      7.972  0.3639E-01  0.3200E+00
      8.058  0.3843E-01  0.3233E+00
      8.144  0.4836E-01  0.3275E+00
      8.229  0.4621E-01  0.3315E+00
      8.315  0.5494E-01  0.3362E+00
      8.401  0.6198E-01  0.3415E+00
      8.487  0.3507E-01  0.3445E+00
      8.573  0.3819E-01  0.3478E+00
      8.658  0.3629E-01  0.3509E+00
      8.744  0.5988E-01  0.3560E+00
      8.830  0.4137E-01  0.3596E+00
      8.916  0.3603E-01  0.3627E+00
      9.001  0.4566E-01  0.3666E+00
      9.087  0.4601E-01  0.3705E+00
      9.173  0.4762E-01  0.3746E+00
      9.259  0.5959E-01  0.3797E+00
      9.345  0.5712E-01  0.3846E+00
      9.430  0.7372E-01  0.3909E+00
      9.516  0.6172E-01  0.3962E+00
      9.602  0.5386E-01  0.4009E+00
      9.688  0.5305E-01  0.4054E+00
      9.773  0.4687E-01  0.4094E+00
      9.859  0.6140E-01  0.4147E+00
      9.945  0.6706E-01  0.4204E+00
     10.031  0.6947E-01  0.4264E+00
     10.117  0.9258E-01  0.4343E+00
     10.202  0.5595E-01  0.4391E+00
     10.288  0.5204E-01  0.4436E+00
     10.374  0.6595E-01  0.4493E+00
     10.460  0.5423E-01  0.4539E+00
     10.545  0.4493E-01  0.4578E+00
     10.631  0.4286E-01  0.4615E+00
     10.717  0.4960E-01  0.4657E+00
     10.803  0.3139E-01  0.4684E+00
     10.889  0.2792E-01  0.4708E+00
     10.974  0.2711E-01  0.4731E+00
     11.060  0.1977E-01  0.4748E+00
     11.146  0.1084E-01  0.4757E+00
     11.232  0.1298E-01  0.4769E+00
     11.317  0.1222E-01  0.4779E+00
     11.403  0.8589E-02  0.4786E+00
     11.489  0.5876E-02  0.4791E+00
     11.575  0.5207E-02  0.4796E+00
     11.661  0.3976E-02  0.4799E+00
     11.746  0.7431E-03  0.4800E+00
     11.832  0.7286E-05  0.4800E+00
     11.918  0.6827E-09  0.4800E+00
     12.004  0.2399E-15  0.4800E+00
     12.090  0.0000E+00  0.4800E+00
     12.175  0.4412E-18  0.4800E+00
     12.261  0.1143E-10  0.4800E+00
     12.347  0.1152E-05  0.4800E+00
     12.433  0.4842E-03  0.4800E+00
     12.518  0.2062E-02  0.4802E+00
     12.604  0.2928E-02  0.4805E+00
     12.690  0.9520E-02  0.4813E+00
     12.776  0.5924E-02  0.4818E+00
     12.862  0.8680E-02  0.4825E+00
     12.947  0.1937E-01  0.4842E+00
     13.033  0.3247E-01  0.4870E+00
     13.119  0.2260E-01  0.4889E+00
     13.205  0.9805E-02  0.4898E+00
     13.290  0.1036E-01  0.4907E+00
     13.376  0.7557E-02  0.4913E+00
     13.462  0.1429E-01  0.4925E+00
     13.548  0.1461E-01  0.4938E+00
     13.634  0.2502E-01  0.4959E+00
     13.719  0.3865E-01  0.4992E+00
     13.805  0.3656E-01  0.5024E+00
     13.891  0.2817E-01  0.5048E+00
     13.977  0.2222E-01  0.5067E+00
     14.062  0.2159E-01  0.5086E+00
     14.148  0.2471E-01  0.5107E+00
     14.234  0.3548E-01  0.5137E+00
     14.320  0.4047E-01  0.5172E+00
     14.406  0.2244E-01  0.5191E+00
     14.491  0.2673E-01  0.5214E+00
     14.577  0.2407E-01  0.5235E+00
     14.663  0.1528E-01  0.5248E+00
     14.749  0.1929E-01  0.5264E+00
     14.834  0.1350E-01  0.5276E+00
     14.920  0.1854E-01  0.5292E+00
     15.006  0.2979E-01  0.5317E+00
     15.092  0.1666E-01  0.5332E+00
     15.178  0.3216E-01  0.5359E+00
     15.263  0.3952E-01  0.5393E+00
     15.349  0.5300E-01  0.5439E+00
     15.435  0.5093E-01  0.5482E+00
     15.521  0.5089E-01  0.5526E+00
     15.606  0.3205E-01  0.5553E+00
     15.692  0.3633E-01  0.5585E+00
     15.778  0.3456E-01  0.5614E+00
     15.864  0.4176E-01  0.5650E+00
     15.950  0.3715E-01  0.5682E+00
     16.035  0.4953E-01  0.5724E+00
     16.121  0.3750E-01  0.5757E+00
     16.207  0.3216E-01  0.5784E+00
     16.293  0.4270E-01  0.5821E+00
     16.379  0.4532E-01  0.5860E+00
     16.464  0.3310E-01  0.5888E+00
     16.550  0.3549E-01  0.5919E+00
     16.636  0.4644E-01  0.5958E+00
     16.722  0.4331E-01  0.5996E+00
     16.807  0.3395E-01  0.6025E+00
     16.893  0.4317E-01  0.6062E+00
     16.979  0.3731E-01  0.6094E+00
     17.065  0.3393E-01  0.6123E+00
     17.151  0.2757E-01  0.6146E+00
     17.236  0.3967E-01  0.6180E+00
     17.322  0.3641E-01  0.6212E+00
     17.408  0.3839E-01  0.6245E+00
     17.494  0.4229E-01  0.6281E+00
     17.579  0.3647E-01  0.6312E+00
     17.665  0.3179E-01  0.6339E+00
     17.751  0.2260E-01  0.6359E+00
     17.837  0.3400E-01  0.6388E+00
     17.923  0.3792E-01  0.6421E+00
     18.008  0.3516E-01  0.6451E+00
     18.094  0.3055E-01  0.6477E+00
     18.180  0.2499E-01  0.6498E+00
     18.266  0.1749E-01  0.6513E+00
     18.351  0.3057E-01  0.6540E+00
     18.437  0.3375E-01  0.6569E+00
     18.523  0.2666E-01  0.6591E+00
     18.609  0.8373E-02  0.6599E+00
     18.695  0.1596E-02  0.6600E+00
     18.780  0.8261E-04  0.6600E+00
     18.866  0.4759E-07  0.6600E+00
     18.952  0.1054E-12  0.6600E+00
     19.038  0.0000E+00  0.6600E+00
     19.123  0.0000E+00  0.6600E+00
     19.209  0.0000E+00  0.6600E+00
     19.295  0.0000E+00  0.6600E+00
     19.381  0.0000E+00  0.6600E+00
     19.467  0.0000E+00  0.6600E+00
     19.552  0.0000E+00  0.6600E+00
     19.638  0.0000E+00  0.6600E+00
     19.724  0.0000E+00  0.6600E+00
     19.810  0.0000E+00  0.6600E+00
