       N       E                     dE             d eps       ncg     rms          rms(c)
DAV:   1    -0.159503879096E+03   -0.15950E+03   -0.72416E-04  6318   0.212E-01    0.362E-03
DAV:   2    -0.159503878892E+03    0.20416E-06   -0.21816E-06  4464   0.552E-03
   1 F= -.10119487E+03 E0= -.10119487E+03  d E =-.101195E+03
       N       E                     dE             d eps       ncg     rms          rms(c)
DAV:   1    -0.164066083684E+03   -0.45622E+01   -0.14116E+01  8256   0.149E+01    0.396E+00
DAV:   2    -0.163715237774E+03    0.35085E+00   -0.10015E+00  8310   0.311E+00    0.171E+00
DAV:   3    -0.163691213629E+03    0.24024E-01   -0.12552E-01  8358   0.105E+00    0.540E-01
DAV:   4    -0.163686854214E+03    0.43594E-02   -0.88318E-03  8460   0.286E-01    0.188E-01
DAV:   5    -0.163686077533E+03    0.77668E-03   -0.12515E-03  8520   0.114E-01    0.100E-01
DAV:   6    -0.163685969331E+03    0.10820E-03   -0.23782E-04  8466   0.490E-02    0.255E-02
DAV:   7    -0.163685961619E+03    0.77126E-05   -0.17579E-05  5082   0.213E-02
   2 F= -.10089988E+03 E0= -.10089988E+03  d E =0.294994E+00
       N       E                     dE             d eps       ncg     rms          rms(c)
DAV:   1    -0.161561948718E+03    0.21240E+01   -0.54451E+00  8226   0.955E+00    0.241E+00
DAV:   2    -0.161433112588E+03    0.12884E+00   -0.36098E-01  8322   0.189E+00    0.107E+00
DAV:   3    -0.161423592826E+03    0.95198E-02   -0.47996E-02  8286   0.655E-01    0.331E-01
DAV:   4    -0.161422095375E+03    0.14975E-02   -0.30376E-03  8448   0.171E-01    0.116E-01
DAV:   5    -0.161421876194E+03    0.21918E-03   -0.38522E-04  8514   0.646E-02    0.641E-02
DAV:   6    -0.161421855478E+03    0.20716E-04   -0.75544E-05  8034   0.278E-02    0.134E-02
DAV:   7    -0.161421854519E+03    0.95937E-06   -0.58605E-06  4494   0.121E-02
   3 F= -.10140043E+03 E0= -.10140043E+03  d E =-.205564E+00
       N       E                     dE             d eps       ncg     rms          rms(c)
DAV:   1    -0.161402334304E+03    0.19521E-01   -0.29633E-04  8400   0.697E-02    0.176E-02
DAV:   2    -0.161402329109E+03    0.51954E-05   -0.18728E-05  4650   0.146E-02
   4 F= -.10140046E+03 E0= -.10140046E+03  d E =-.205595E+00
       N       E                     dE             d eps       ncg     rms          rms(c)
DAV:   1    -0.161398464852E+03    0.38695E-02   -0.55566E-06  4338   0.952E-03    0.424E-03
DAV:   2    -0.161398465346E+03   -0.49452E-06   -0.70864E-07  4272   0.273E-03
   5 F= -.10140047E+03 E0= -.10140047E+03  d E =-.205595E+00
       N       E                     dE             d eps       ncg     rms          rms(c)
DAV:   1    -0.161436553014E+03   -0.38088E-01   -0.37522E-01  7152   0.250E+00    0.126E-01
DAV:   2    -0.161436587796E+03   -0.34782E-04   -0.69447E-03  8748   0.311E-01    0.873E-02
DAV:   3    -0.161436377281E+03    0.21052E-03   -0.48759E-04  8598   0.909E-02    0.385E-02
DAV:   4    -0.161436363982E+03    0.13299E-04   -0.20483E-04  8532   0.500E-02    0.178E-02
DAV:   5    -0.161436363783E+03    0.19937E-06   -0.21245E-05  5226   0.171E-02
   6 F= -.10140477E+03 E0= -.10140477E+03  d E =-.430051E-02
       N       E                     dE             d eps       ncg     rms          rms(c)
DAV:   1    -0.161439230011E+03   -0.28660E-02   -0.27259E-03  7518   0.213E-01    0.116E-02
DAV:   2    -0.161439230359E+03   -0.34847E-06   -0.52815E-05  8766   0.275E-02
   7 F= -.10140480E+03 E0= -.10140480E+03  d E =-.433228E-02
       N       E                     dE             d eps       ncg     rms          rms(c)
DAV:   1    -0.161468818382E+03   -0.29588E-01   -0.34520E-01  7128   0.234E+00    0.112E-01
DAV:   2    -0.161468668136E+03    0.15025E-03   -0.70217E-03  8820   0.318E-01    0.701E-02
DAV:   3    -0.161468506725E+03    0.16141E-03   -0.49344E-04  8358   0.903E-02    0.292E-02
DAV:   4    -0.161468510003E+03   -0.32776E-05   -0.17733E-04  8484   0.414E-02    0.129E-02
DAV:   5    -0.161468510415E+03   -0.41163E-06   -0.69976E-06  4506   0.103E-02
   8 F= -.10140703E+03 E0= -.10140703E+03  d E =-.223721E-02
       N       E                     dE             d eps       ncg     rms          rms(c)
DAV:   1    -0.161469590071E+03   -0.10801E-02   -0.55974E-04  7590   0.941E-02    0.537E-03
DAV:   2    -0.161469589592E+03    0.47831E-06   -0.10946E-05  5256   0.130E-02
   9 F= -.10140704E+03 E0= -.10140704E+03  d E =-.224136E-02
       N       E                     dE             d eps       ncg     rms          rms(c)
DAV:   1    -0.161467176576E+03    0.24135E-02   -0.11473E-01  7134   0.138E+00    0.588E-02
DAV:   2    -0.161467239910E+03   -0.63334E-04   -0.24023E-03  8760   0.183E-01    0.425E-02
DAV:   3    -0.161467202548E+03    0.37362E-04   -0.10273E-04  8520   0.421E-02    0.248E-02
DAV:   4    -0.161467194517E+03    0.80308E-05   -0.80272E-05  8220   0.299E-02
  10 F= -.10140803E+03 E0= -.10140803E+03  d E =-.995149E-03
       N       E                     dE             d eps       ncg     rms          rms(c)
DAV:   1    -0.161466627136E+03    0.57541E-03   -0.35984E-03  7272   0.246E-01    0.131E-02
DAV:   2    -0.161466630773E+03   -0.36373E-05   -0.89962E-05  8832   0.350E-02
  11 F= -.10140807E+03 E0= -.10140807E+03  d E =-.102683E-02
       N       E                     dE             d eps       ncg     rms          rms(c)
DAV:   1    -0.161481706847E+03   -0.15080E-01   -0.31193E-02  7128   0.717E-01    0.344E-02
DAV:   2    -0.161481714444E+03   -0.75971E-05   -0.50801E-04  8610   0.853E-02    0.224E-02
DAV:   3    -0.161481698632E+03    0.15812E-04   -0.35708E-05  7470   0.253E-02    0.911E-03
DAV:   4    -0.161481698159E+03    0.47320E-06   -0.17052E-05  5052   0.145E-02
  12 F= -.10140853E+03 E0= -.10140853E+03  d E =-.466405E-03
       N       E                     dE             d eps       ncg     rms          rms(c)
DAV:   1    -0.161496928011E+03   -0.15229E-01   -0.33237E-02  7128   0.739E-01    0.338E-02
DAV:   2    -0.161496942080E+03   -0.14069E-04   -0.53792E-04  8622   0.875E-02    0.221E-02
DAV:   3    -0.161496926944E+03    0.15136E-04   -0.33057E-05  7230   0.246E-02    0.930E-03
DAV:   4    -0.161496926178E+03    0.76580E-06   -0.17065E-05  4860   0.147E-02
  13 F= -.10140870E+03 E0= -.10140870E+03  d E =-.637649E-03
       N       E                     dE             d eps       ncg     rms          rms(c)
DAV:   1    -0.161462748796E+03    0.34178E-01   -0.38239E-02  7128   0.800E-01    0.398E-02
DAV:   2    -0.161462748920E+03   -0.12392E-06   -0.45955E-04  8832   0.828E-02    0.248E-02
DAV:   3    -0.161462740556E+03    0.83636E-05   -0.42115E-05  8178   0.249E-02
  14 F= -.10140902E+03 E0= -.10140902E+03  d E =-.314170E-03
       N       E                     dE             d eps       ncg     rms          rms(c)
DAV:   1    -0.161451880537E+03    0.10868E-01   -0.38055E-03  7296   0.253E-01    0.152E-02
DAV:   2    -0.161451880504E+03    0.33419E-07   -0.41903E-05  8148   0.256E-02
  15 F= -.10140904E+03 E0= -.10140904E+03  d E =-.339322E-03
       N       E                     dE             d eps       ncg     rms          rms(c)
DAV:   1    -0.161473246488E+03   -0.21366E-01   -0.31634E-02  7128   0.723E-01    0.343E-02
DAV:   2    -0.161473239665E+03    0.68232E-05   -0.39171E-04  8928   0.766E-02    0.195E-02
DAV:   3    -0.161473226910E+03    0.12755E-04   -0.36956E-05  7578   0.242E-02    0.685E-03
DAV:   4    -0.161473226964E+03   -0.53131E-07   -0.96097E-06  4776   0.977E-03
  16 F= -.10140931E+03 E0= -.10140931E+03  d E =-.266262E-03
       N       E                     dE             d eps       ncg     rms          rms(c)
DAV:   1    -0.161494396588E+03   -0.21170E-01   -0.31697E-02  7128   0.723E-01    0.340E-02
DAV:   2    -0.161494392224E+03    0.43640E-05   -0.39823E-04  8904   0.772E-02    0.191E-02
DAV:   3    -0.161494379598E+03    0.12627E-04   -0.36436E-05  7578   0.242E-02    0.664E-03
DAV:   4    -0.161494379424E+03    0.17432E-06   -0.94527E-06  4764   0.996E-03
  17 F= -.10140940E+03 E0= -.10140940E+03  d E =-.355405E-03
       N       E                     dE             d eps       ncg     rms          rms(c)
DAV:   1    -0.161486491713E+03    0.78879E-02   -0.16648E-02  7146   0.528E-01    0.243E-02
DAV:   2    -0.161486492329E+03   -0.61601E-06   -0.23534E-04  8796   0.590E-02    0.153E-02
DAV:   3    -0.161486485064E+03    0.72643E-05   -0.26214E-05  6462   0.211E-02
  18 F= -.10140952E+03 E0= -.10140952E+03  d E =-.120127E-03
       N       E                     dE             d eps       ncg     rms          rms(c)
DAV:   1    -0.161483407561E+03    0.30848E-02   -0.24799E-03  7284   0.205E-01    0.105E-02
DAV:   2    -0.161483407806E+03   -0.24519E-06   -0.33322E-05  7860   0.226E-02
  19 F= -.10140953E+03 E0= -.10140953E+03  d E =-.134686E-03
       N       E                     dE             d eps       ncg     rms          rms(c)
DAV:   1    -0.161482441336E+03    0.96623E-03   -0.22739E-04  7584   0.624E-02    0.463E-03
DAV:   2    -0.161482441156E+03    0.17923E-06   -0.20989E-06  4224   0.609E-03
  20 F= -.10140953E+03 E0= -.10140953E+03  d E =-.134287E-03
       N       E                     dE             d eps       ncg     rms          rms(c)
DAV:   1    -0.161487079107E+03   -0.46378E-02   -0.38111E-03  7146   0.247E-01    0.133E-02
DAV:   2    -0.161487075329E+03    0.37784E-05   -0.79623E-05  8604   0.339E-02
  21 F= -.10140957E+03 E0= -.10140957E+03  d E =-.399495E-04
