Al4C3 Pnma (POSCAR.IV, symmetrized via s
   1.00000000000000     
     8.2890294394235049    0.0000000000000000    0.0000000000000000
     0.0000000000000000    2.8595645211794394    0.0000000000000000
     0.0000000000000000    0.0000000000000000    9.8533218385690624
   Al   C 
    16    12
Direct
  0.2629312655562072  0.2500000000000000  0.2981934154944613
  0.2370687344437928  0.7500000000000000  0.7981934154944613
  0.7370687344437928  0.7500000000000000  0.7018065845055387
  0.7629312655562072  0.2500000000000000  0.2018065845055387
  0.3469030433064250  0.2500000000000000  0.0112167087473821
  0.1530969566935750  0.7500000000000000  0.5112167087473821
  0.6530969566935749  0.7500000000000000  0.9887832912526179
  0.8469030433064251  0.2500000000000000  0.4887832912526179
  0.5225009079149764  0.2500000000000000  0.7942536374118344
  0.9774990920850236  0.7500000000000000  0.2942536374118344
  0.4774990920850237  0.7500000000000000  0.2057463625881656
  0.0225009079149763  0.2500000000000000  0.7057463625881656
  0.0689590485967116  0.2500000000000000  0.0894805905942223
  0.4310409514032955  0.7500000000000000  0.5894805905942223
  0.9310409514032884  0.7500000000000000  0.9105194094057777
  0.5689590485967116  0.2500000000000000  0.4105194094057777
  0.2592235199889221  0.2500000000000000  0.6419226335859984
  0.2407764800110779  0.7500000000000000  0.1419226335859984
  0.7407764800110779  0.7500000000000000  0.3580773664140016
  0.7592235199889221  0.2500000000000000  0.8580773664140016
  0.6043531701401923  0.2500000000000000  0.6081829935710156
  0.8956468298598077  0.7500000000000000  0.1081829935710156
  0.3956468298598077  0.7500000000000000  0.3918170064289844
  0.1043531701401923  0.2500000000000000  0.8918170064289844
  0.0641760130956121  0.2500000000000000  0.3891272411387470
  0.4358239869043878  0.7500000000000000  0.8891272411387470
  0.9358239869043878  0.7500000000000000  0.6108727588612530
  0.5641760130956122  0.2500000000000000  0.1108727588612530
 
  0.00000000E+00  0.00000000E+00  0.00000000E+00
  0.00000000E+00  0.00000000E+00  0.00000000E+00
  0.00000000E+00  0.00000000E+00  0.00000000E+00
  0.00000000E+00  0.00000000E+00  0.00000000E+00
  0.00000000E+00  0.00000000E+00  0.00000000E+00
  0.00000000E+00  0.00000000E+00  0.00000000E+00
  0.00000000E+00  0.00000000E+00  0.00000000E+00
  0.00000000E+00  0.00000000E+00  0.00000000E+00
  0.00000000E+00  0.00000000E+00  0.00000000E+00
  0.00000000E+00  0.00000000E+00  0.00000000E+00
  0.00000000E+00  0.00000000E+00  0.00000000E+00
  0.00000000E+00  0.00000000E+00  0.00000000E+00
  0.00000000E+00  0.00000000E+00  0.00000000E+00
  0.00000000E+00  0.00000000E+00  0.00000000E+00
  0.00000000E+00  0.00000000E+00  0.00000000E+00
  0.00000000E+00  0.00000000E+00  0.00000000E+00
  0.00000000E+00  0.00000000E+00  0.00000000E+00
  0.00000000E+00  0.00000000E+00  0.00000000E+00
  0.00000000E+00  0.00000000E+00  0.00000000E+00
  0.00000000E+00  0.00000000E+00  0.00000000E+00
  0.00000000E+00  0.00000000E+00  0.00000000E+00
  0.00000000E+00  0.00000000E+00  0.00000000E+00
  0.00000000E+00  0.00000000E+00  0.00000000E+00
  0.00000000E+00  0.00000000E+00  0.00000000E+00
  0.00000000E+00  0.00000000E+00  0.00000000E+00
  0.00000000E+00  0.00000000E+00  0.00000000E+00
  0.00000000E+00  0.00000000E+00  0.00000000E+00
  0.00000000E+00  0.00000000E+00  0.00000000E+00
