Al4C3 Pnma - H(P) scan @ 40 GPa (ISIF=8)
           1
     8.289029    0.000000    0.000000
     0.000000    2.859565    0.000000
     0.000000    0.000000    9.853322
   Al   C 
    16    12
Direct configuration=     1
   0.26293127  0.25000000  0.29819342
   0.23706873  0.75000000  0.79819342
   0.73706873  0.75000000  0.70180658
   0.76293127  0.25000000  0.20180658
   0.34690304  0.25000000  0.01121671
   0.15309696  0.75000000  0.51121671
   0.65309696  0.75000000  0.98878329
   0.84690304  0.25000000  0.48878329
   0.52250091  0.25000000  0.79425364
   0.97749909  0.75000000  0.29425364
   0.47749909  0.75000000  0.20574636
   0.02250091  0.25000000  0.70574636
   0.06895905  0.25000000  0.08948059
   0.43104095  0.75000000  0.58948059
   0.93104095  0.75000000  0.91051941
   0.56895905  0.25000000  0.41051941
   0.25922352  0.25000000  0.64192263
   0.24077648  0.75000000  0.14192263
   0.74077648  0.75000000  0.35807737
   0.75922352  0.25000000  0.85807737
   0.60435317  0.25000000  0.60818299
   0.89564683  0.75000000  0.10818299
   0.39564683  0.75000000  0.39181701
   0.10435317  0.25000000  0.89181701
   0.06417601  0.25000000  0.38912724
   0.43582399  0.75000000  0.88912724
   0.93582399  0.75000000  0.61087276
   0.56417601  0.25000000  0.11087276
Al4C3 Pnma - H(P) scan @ 40 GPa (ISIF=8)
           1
     8.495969    0.000000    0.000000
     0.000000    2.930955    0.000000
     0.000000    0.000000   10.099315
   Al   C 
    16    12
Direct configuration=     2
   0.26298787  0.25000000  0.29817835
   0.23701213  0.75000000  0.79817835
   0.73701213  0.75000000  0.70182165
   0.76298787  0.25000000  0.20182165
   0.34689414  0.25000000  0.01122872
   0.15310586  0.75000000  0.51122872
   0.65310586  0.75000000  0.98877128
   0.84689414  0.25000000  0.48877128
   0.52251880  0.25000000  0.79420704
   0.97748120  0.75000000  0.29420704
   0.47748120  0.75000000  0.20579296
   0.02251880  0.25000000  0.70579296
   0.06895500  0.25000000  0.08948434
   0.43104500  0.75000000  0.58948434
   0.93104500  0.75000000  0.91051566
   0.56895500  0.25000000  0.41051566
   0.25920475  0.25000000  0.64192315
   0.24079525  0.75000000  0.14192315
   0.74079525  0.75000000  0.35807685
   0.75920475  0.25000000  0.85807685
   0.60434432  0.25000000  0.60821841
   0.89565568  0.75000000  0.10821841
   0.39565568  0.75000000  0.39178159
   0.10434432  0.25000000  0.89178159
   0.06418489  0.25000000  0.38915002
   0.43581511  0.75000000  0.88915002
   0.93581511  0.75000000  0.61084998
   0.56418489  0.25000000  0.11084998
Al4C3 Pnma - H(P) scan @ 40 GPa (ISIF=8)
           1
     8.369392    0.000000    0.000000
     0.000000    2.887288    0.000000
     0.000000    0.000000    9.948850
   Al   C 
    16    12
Direct configuration=     3
   0.26295409  0.25000000  0.29818734
   0.23704591  0.75000000  0.79818734
   0.73704591  0.75000000  0.70181266
   0.76295409  0.25000000  0.20181266
   0.34689945  0.25000000  0.01122155
   0.15310055  0.75000000  0.51122155
   0.65310055  0.75000000  0.98877845
   0.84689945  0.25000000  0.48877845
   0.52250812  0.25000000  0.79423485
   0.97749188  0.75000000  0.29423485
   0.47749188  0.75000000  0.20576515
   0.02250812  0.25000000  0.70576515
   0.06895741  0.25000000  0.08948210
   0.43104259  0.75000000  0.58948210
   0.93104259  0.75000000  0.91051790
   0.56895741  0.25000000  0.41051790
   0.25921595  0.25000000  0.64192284
   0.24078405  0.75000000  0.14192284
   0.74078405  0.75000000  0.35807716
   0.75921595  0.25000000  0.85807716
   0.60434960  0.25000000  0.60819728
   0.89565040  0.75000000  0.10819728
   0.39565040  0.75000000  0.39180272
   0.10434960  0.25000000  0.89180272
   0.06417959  0.25000000  0.38913642
   0.43582041  0.75000000  0.88913642
   0.93582041  0.75000000  0.61086358
   0.56417959  0.25000000  0.11086358
Al4C3 Pnma - H(P) scan @ 40 GPa (ISIF=8)
           1
     8.368482    0.000000    0.000000
     0.000000    2.886974    0.000000
     0.000000    0.000000    9.947769
   Al   C 
    16    12
Direct configuration=     4
   0.26295384  0.25000000  0.29818740
   0.23704616  0.75000000  0.79818740
   0.73704616  0.75000000  0.70181260
   0.76295384  0.25000000  0.20181260
   0.34689949  0.25000000  0.01122150
   0.15310051  0.75000000  0.51122150
   0.65310051  0.75000000  0.98877850
   0.84689949  0.25000000  0.48877850
   0.52250805  0.25000000  0.79423505
   0.97749195  0.75000000  0.29423505
   0.47749195  0.75000000  0.20576495
   0.02250805  0.25000000  0.70576495
   0.06895743  0.25000000  0.08948209
   0.43104257  0.75000000  0.58948209
   0.93104257  0.75000000  0.91051791
   0.56895743  0.25000000  0.41051791
   0.25921603  0.25000000  0.64192284
   0.24078397  0.75000000  0.14192284
   0.74078397  0.75000000  0.35807716
   0.75921603  0.25000000  0.85807716
   0.60434964  0.25000000  0.60819712
   0.89565036  0.75000000  0.10819712
   0.39565036  0.75000000  0.39180288
   0.10434964  0.25000000  0.89180288
   0.06417955  0.25000000  0.38913633
   0.43582045  0.75000000  0.88913633
   0.93582045  0.75000000  0.61086367
   0.56417955  0.25000000  0.11086367
Al4C3 Pnma - H(P) scan @ 40 GPa (ISIF=8)
           1
     8.368303    0.000000    0.000000
     0.000000    2.886912    0.000000
     0.000000    0.000000    9.947556
   Al   C 
    16    12
Direct configuration=     5
   0.26295379  0.25000000  0.29818742
   0.23704621  0.75000000  0.79818742
   0.73704621  0.75000000  0.70181258
   0.76295379  0.25000000  0.20181258
   0.34689950  0.25000000  0.01122149
   0.15310050  0.75000000  0.51122149
   0.65310050  0.75000000  0.98877851
   0.84689950  0.25000000  0.48877851
   0.52250803  0.25000000  0.79423509
   0.97749197  0.75000000  0.29423509
   0.47749197  0.75000000  0.20576491
   0.02250803  0.25000000  0.70576491
   0.06895744  0.25000000  0.08948208
   0.43104256  0.75000000  0.58948208
   0.93104256  0.75000000  0.91051792
   0.56895744  0.25000000  0.41051792
   0.25921605  0.25000000  0.64192284
   0.24078395  0.75000000  0.14192284
   0.74078395  0.75000000  0.35807716
   0.75921605  0.25000000  0.85807716
   0.60434965  0.25000000  0.60819709
   0.89565035  0.75000000  0.10819709
   0.39565035  0.75000000  0.39180291
   0.10434965  0.25000000  0.89180291
   0.06417955  0.25000000  0.38913631
   0.43582045  0.75000000  0.88913631
   0.93582045  0.75000000  0.61086369
   0.56417955  0.25000000  0.11086369
Al4C3 Pnma - H(P) scan @ 40 GPa (ISIF=8)
           1
     8.369865    0.000000    0.000000
     0.000000    2.887451    0.000000
     0.000000    0.000000    9.949412
   Al   C 
    16    12
Direct configuration=     6
   0.26272106  0.25000000  0.29839814
   0.23727894  0.75000000  0.79839814
   0.73727894  0.75000000  0.70160186
   0.76272106  0.25000000  0.20160186
   0.34731831  0.25000000  0.01123284
   0.15268169  0.75000000  0.51123284
   0.65268169  0.75000000  0.98876716
   0.84731831  0.25000000  0.48876716
   0.52261448  0.25000000  0.79459132
   0.97738552  0.75000000  0.29459132
   0.47738552  0.75000000  0.20540868
   0.02261448  0.25000000  0.70540868
   0.06902060  0.25000000  0.08914929
   0.43097940  0.75000000  0.58914929
   0.93097940  0.75000000  0.91085071
   0.56902060  0.25000000  0.41085071
   0.25894451  0.25000000  0.64193445
   0.24105549  0.75000000  0.14193445
   0.74105549  0.75000000  0.35806555
   0.75894451  0.25000000  0.85806555
   0.60395693  0.25000000  0.60849409
   0.89604307  0.75000000  0.10849409
   0.39604307  0.75000000  0.39150591
   0.10395693  0.25000000  0.89150591
   0.06426852  0.25000000  0.38876816
   0.43573148  0.75000000  0.88876816
   0.93573148  0.75000000  0.61123184
   0.56426852  0.25000000  0.11123184
Al4C3 Pnma - H(P) scan @ 40 GPa (ISIF=8)
           1
     8.369996    0.000000    0.000000
     0.000000    2.887497    0.000000
     0.000000    0.000000    9.949569
   Al   C 
    16    12
Direct configuration=     7
   0.26270143  0.25000000  0.29841591
   0.23729857  0.75000000  0.79841591
   0.73729857  0.75000000  0.70158409
   0.76270143  0.25000000  0.20158409
   0.34735364  0.25000000  0.01123380
   0.15264636  0.75000000  0.51123380
   0.65264636  0.75000000  0.98876620
   0.84735364  0.25000000  0.48876620
   0.52262345  0.25000000  0.79462137
   0.97737655  0.75000000  0.29462137
   0.47737655  0.75000000  0.20537863
   0.02262345  0.25000000  0.70537863
   0.06902593  0.25000000  0.08912122
   0.43097407  0.75000000  0.58912122
   0.93097407  0.75000000  0.91087878
   0.56902593  0.25000000  0.41087878
   0.25892161  0.25000000  0.64193543
   0.24107839  0.75000000  0.14193543
   0.74107839  0.75000000  0.35806457
   0.75892161  0.25000000  0.85806457
   0.60392381  0.25000000  0.60851914
   0.89607619  0.75000000  0.10851914
   0.39607619  0.75000000  0.39148086
   0.10392381  0.25000000  0.89148086
   0.06427603  0.25000000  0.38873711
   0.43572397  0.75000000  0.88873711
   0.93572397  0.75000000  0.61126289
   0.56427603  0.25000000  0.11126289
Al4C3 Pnma - H(P) scan @ 40 GPa (ISIF=8)
           1
     8.371253    0.000000    0.000000
     0.000000    2.887930    0.000000
     0.000000    0.000000    9.951062
   Al   C 
    16    12
Direct configuration=     8
   0.26294514  0.25000000  0.29846790
   0.23705486  0.75000000  0.79846790
   0.73705486  0.75000000  0.70153210
   0.76294514  0.25000000  0.20153210
   0.34770119  0.25000000  0.01134787
   0.15229881  0.75000000  0.51134787
   0.65229881  0.75000000  0.98865213
   0.84770119  0.25000000  0.48865213
   0.52306400  0.25000000  0.79461235
   0.97693600  0.75000000  0.29461235
   0.47693600  0.75000000  0.20538765
   0.02306400  0.25000000  0.70538765
   0.06929477  0.25000000  0.08892422
   0.43070523  0.75000000  0.58892422
   0.93070523  0.75000000  0.91107578
   0.56929477  0.25000000  0.41107578
   0.25860785  0.25000000  0.64179623
   0.24139215  0.75000000  0.14179623
   0.74139215  0.75000000  0.35820377
   0.75860785  0.25000000  0.85820377
   0.60349624  0.25000000  0.60885739
   0.89650376  0.75000000  0.10885739
   0.39650376  0.75000000  0.39114261
   0.10349624  0.25000000  0.89114261
   0.06432346  0.25000000  0.38876234
   0.43567654  0.75000000  0.88876234
   0.93567654  0.75000000  0.61123766
   0.56432346  0.25000000  0.11123766
Al4C3 Pnma - H(P) scan @ 40 GPa (ISIF=8)
           1
     8.371303    0.000000    0.000000
     0.000000    2.887947    0.000000
     0.000000    0.000000    9.951122
   Al   C 
    16    12
Direct configuration=     9
   0.26295482  0.25000000  0.29846997
   0.23704518  0.75000000  0.79846997
   0.73704518  0.75000000  0.70153003
   0.76295482  0.25000000  0.20153003
   0.34771500  0.25000000  0.01135240
   0.15228500  0.75000000  0.51135240
   0.65228500  0.75000000  0.98864760
   0.84771500  0.25000000  0.48864760
   0.52308151  0.25000000  0.79461199
   0.97691849  0.75000000  0.29461199
   0.47691849  0.75000000  0.20538801
   0.02308151  0.25000000  0.70538801
   0.06930545  0.25000000  0.08891639
   0.43069455  0.75000000  0.58891639
   0.93069455  0.75000000  0.91108361
   0.56930545  0.25000000  0.41108361
   0.25859538  0.25000000  0.64179069
   0.24140462  0.75000000  0.14179069
   0.74140462  0.75000000  0.35820931
   0.75859538  0.25000000  0.85820931
   0.60347925  0.25000000  0.60887083
   0.89652075  0.75000000  0.10887083
   0.39652075  0.75000000  0.39112917
   0.10347925  0.25000000  0.89112917
   0.06432535  0.25000000  0.38876335
   0.43567465  0.75000000  0.88876335
   0.93567465  0.75000000  0.61123665
   0.56432535  0.25000000  0.11123665
Al4C3 Pnma - H(P) scan @ 40 GPa (ISIF=8)
           1
     8.371145    0.000000    0.000000
     0.000000    2.887893    0.000000
     0.000000    0.000000    9.950934
   Al   C 
    16    12
Direct configuration=    10
   0.26304292  0.25000000  0.29852563
   0.23695708  0.75000000  0.79852563
   0.73695708  0.75000000  0.70147437
   0.76304292  0.25000000  0.20147437
   0.34796819  0.25000000  0.01137180
   0.15203181  0.75000000  0.51137180
   0.65203181  0.75000000  0.98862820
   0.84796819  0.25000000  0.48862820
   0.52308127  0.25000000  0.79468349
   0.97691873  0.75000000  0.29468349
   0.47691873  0.75000000  0.20531651
   0.02308127  0.25000000  0.70531651
   0.06970982  0.25000000  0.08896941
   0.43029018  0.75000000  0.58896941
   0.93029018  0.75000000  0.91103059
   0.56970982  0.25000000  0.41103059
   0.25844516  0.25000000  0.64156703
   0.24155484  0.75000000  0.14156703
   0.74155484  0.75000000  0.35843297
   0.75844516  0.25000000  0.85843297
   0.60322638  0.25000000  0.60885278
   0.89677362  0.75000000  0.10885278
   0.39677362  0.75000000  0.39114722
   0.10322638  0.25000000  0.89114722
   0.06444599  0.25000000  0.38877135
   0.43555401  0.75000000  0.88877135
   0.93555401  0.75000000  0.61122865
   0.56444599  0.25000000  0.11122865
Al4C3 Pnma - H(P) scan @ 40 GPa (ISIF=8)
           1
     8.371118    0.000000    0.000000
     0.000000    2.887883    0.000000
     0.000000    0.000000    9.950902
   Al   C 
    16    12
Direct configuration=    11
   0.26305839  0.25000000  0.29853540
   0.23694161  0.75000000  0.79853540
   0.73694161  0.75000000  0.70146460
   0.76305839  0.25000000  0.20146460
   0.34801266  0.25000000  0.01137521
   0.15198734  0.75000000  0.51137521
   0.65198734  0.75000000  0.98862479
   0.84801266  0.25000000  0.48862479
   0.52308122  0.25000000  0.79469605
   0.97691878  0.75000000  0.29469605
   0.47691878  0.75000000  0.20530395
   0.02308122  0.25000000  0.70530395
   0.06978085  0.25000000  0.08897873
   0.43021915  0.75000000  0.58897873
   0.93021915  0.75000000  0.91102127
   0.56978085  0.25000000  0.41102127
   0.25841877  0.25000000  0.64152774
   0.24158123  0.75000000  0.14152774
   0.74158123  0.75000000  0.35847226
   0.75841877  0.25000000  0.85847226
   0.60318196  0.25000000  0.60884961
   0.89681804  0.75000000  0.10884961
   0.39681804  0.75000000  0.39115039
   0.10318196  0.25000000  0.89115039
   0.06446718  0.25000000  0.38877276
   0.43553282  0.75000000  0.88877276
   0.93553282  0.75000000  0.61122724
   0.56446718  0.25000000  0.11122724
Al4C3 Pnma - H(P) scan @ 40 GPa (ISIF=8)
           1
     8.371796    0.000000    0.000000
     0.000000    2.888117    0.000000
     0.000000    0.000000    9.951708
   Al   C 
    16    12
Direct configuration=    12
   0.26324969  0.25000000  0.29864850
   0.23675031  0.75000000  0.79864850
   0.73675031  0.75000000  0.70135150
   0.76324969  0.25000000  0.20135150
   0.34806147  0.25000000  0.01133425
   0.15193853  0.75000000  0.51133425
   0.65193853  0.75000000  0.98866575
   0.84806147  0.25000000  0.48866575
   0.52293088  0.25000000  0.79464712
   0.97706912  0.75000000  0.29464712
   0.47706912  0.75000000  0.20535288
   0.02293088  0.25000000  0.70535288
   0.06990111  0.25000000  0.08896362
   0.43009889  0.75000000  0.58896362
   0.93009889  0.75000000  0.91103638
   0.56990111  0.25000000  0.41103638
   0.25826767  0.25000000  0.64146666
   0.24173233  0.75000000  0.14146666
   0.74173233  0.75000000  0.35853334
   0.75826767  0.25000000  0.85853334
   0.60312259  0.25000000  0.60886748
   0.89687741  0.75000000  0.10886748
   0.39687741  0.75000000  0.39113252
   0.10312259  0.25000000  0.89113252
   0.06456957  0.25000000  0.38873365
   0.43543043  0.75000000  0.88873365
   0.93543043  0.75000000  0.61126635
   0.56456957  0.25000000  0.11126635
Al4C3 Pnma - H(P) scan @ 40 GPa (ISIF=8)
           1
     8.372495    0.000000    0.000000
     0.000000    2.888359    0.000000
     0.000000    0.000000    9.952539
   Al   C 
    16    12
Direct configuration=    13
   0.26344692  0.25000000  0.29876510
   0.23655308  0.75000000  0.79876510
   0.73655308  0.75000000  0.70123490
   0.76344692  0.25000000  0.20123490
   0.34811179  0.25000000  0.01129203
   0.15188821  0.75000000  0.51129203
   0.65188821  0.75000000  0.98870797
   0.84811179  0.25000000  0.48870797
   0.52277587  0.25000000  0.79459667
   0.97722413  0.75000000  0.29459667
   0.47722413  0.75000000  0.20540333
   0.02277587  0.25000000  0.70540333
   0.07002509  0.25000000  0.08894805
   0.42997491  0.75000000  0.58894805
   0.92997491  0.75000000  0.91105195
   0.57002509  0.25000000  0.41105195
   0.25811189  0.25000000  0.64140369
   0.24188811  0.75000000  0.14140369
   0.74188811  0.75000000  0.35859631
   0.75811189  0.25000000  0.85859631
   0.60306139  0.25000000  0.60888590
   0.89693861  0.75000000  0.10888590
   0.39693861  0.75000000  0.39111410
   0.10306139  0.25000000  0.89111410
   0.06467513  0.25000000  0.38869334
   0.43532487  0.75000000  0.88869334
   0.93532487  0.75000000  0.61130666
   0.56467513  0.25000000  0.11130666
Al4C3 Pnma - H(P) scan @ 40 GPa (ISIF=8)
           1
     8.370893    0.000000    0.000000
     0.000000    2.887806    0.000000
     0.000000    0.000000    9.950634
   Al   C 
    16    12
Direct configuration=    14
   0.26365862  0.25000000  0.29878029
   0.23634138  0.75000000  0.79878029
   0.73634138  0.75000000  0.70121971
   0.76365862  0.25000000  0.20121971
   0.34818611  0.25000000  0.01135982
   0.15181389  0.75000000  0.51135982
   0.65181389  0.75000000  0.98864018
   0.84818611  0.25000000  0.48864018
   0.52257205  0.25000000  0.79455543
   0.97742795  0.75000000  0.29455543
   0.47742795  0.75000000  0.20544457
   0.02257205  0.25000000  0.70544457
   0.07012866  0.25000000  0.08890448
   0.42987134  0.75000000  0.58890448
   0.92987134  0.75000000  0.91109552
   0.57012866  0.25000000  0.41109552
   0.25796756  0.25000000  0.64144378
   0.24203244  0.75000000  0.14144378
   0.74203244  0.75000000  0.35855622
   0.75796756  0.25000000  0.85855622
   0.60291667  0.25000000  0.60885834
   0.89708333  0.75000000  0.10885834
   0.39708333  0.75000000  0.39114166
   0.10291667  0.25000000  0.89114166
   0.06476692  0.25000000  0.38865073
   0.43523308  0.75000000  0.88865073
   0.93523308  0.75000000  0.61134927
   0.56476692  0.25000000  0.11134927
Al4C3 Pnma - H(P) scan @ 40 GPa (ISIF=8)
           1
     8.370387    0.000000    0.000000
     0.000000    2.887631    0.000000
     0.000000    0.000000    9.950033
   Al   C 
    16    12
Direct configuration=    15
   0.26372544  0.25000000  0.29878508
   0.23627456  0.75000000  0.79878508
   0.73627456  0.75000000  0.70121492
   0.76372544  0.25000000  0.20121492
   0.34820957  0.25000000  0.01138122
   0.15179043  0.75000000  0.51138122
   0.65179043  0.75000000  0.98861878
   0.84820957  0.25000000  0.48861878
   0.52250771  0.25000000  0.79454242
   0.97749229  0.75000000  0.29454242
   0.47749229  0.75000000  0.20545758
   0.02250771  0.25000000  0.70545758
   0.07016136  0.25000000  0.08889073
   0.42983864  0.75000000  0.58889073
   0.92983864  0.75000000  0.91110927
   0.57016136  0.25000000  0.41110927
   0.25792201  0.25000000  0.64145644
   0.24207799  0.75000000  0.14145644
   0.74207799  0.75000000  0.35854356
   0.75792201  0.25000000  0.85854356
   0.60287099  0.25000000  0.60884964
   0.89712901  0.75000000  0.10884964
   0.39712901  0.75000000  0.39115036
   0.10287099  0.25000000  0.89115036
   0.06479589  0.25000000  0.38863728
   0.43520411  0.75000000  0.88863728
   0.93520411  0.75000000  0.61136272
   0.56479589  0.25000000  0.11136272
Al4C3 Pnma - H(P) scan @ 40 GPa (ISIF=8)
           1
     8.371366    0.000000    0.000000
     0.000000    2.887969    0.000000
     0.000000    0.000000    9.951197
   Al   C 
    16    12
Direct configuration=    16
   0.26384066  0.25000000  0.29876396
   0.23615934  0.75000000  0.79876396
   0.73615934  0.75000000  0.70123604
   0.76384066  0.25000000  0.20123604
   0.34829007  0.25000000  0.01148083
   0.15170993  0.75000000  0.51148083
   0.65170993  0.75000000  0.98851917
   0.84829007  0.25000000  0.48851917
   0.52232975  0.25000000  0.79448649
   0.97767025  0.75000000  0.29448649
   0.47767025  0.75000000  0.20551351
   0.02232975  0.25000000  0.70551351
   0.07023133  0.25000000  0.08887177
   0.42976867  0.75000000  0.58887177
   0.92976867  0.75000000  0.91112823
   0.57023133  0.25000000  0.41112823
   0.25783614  0.25000000  0.64152331
   0.24216386  0.75000000  0.14152331
   0.74216386  0.75000000  0.35847669
   0.75783614  0.25000000  0.85847669
   0.60273279  0.25000000  0.60883381
   0.89726721  0.75000000  0.10883381
   0.39726721  0.75000000  0.39116619
   0.10273279  0.25000000  0.89116619
   0.06490971  0.25000000  0.38864438
   0.43509029  0.75000000  0.88864438
   0.93509029  0.75000000  0.61135562
   0.56490971  0.25000000  0.11135562
Al4C3 Pnma - H(P) scan @ 40 GPa (ISIF=8)
           1
     8.372345    0.000000    0.000000
     0.000000    2.888307    0.000000
     0.000000    0.000000    9.952360
   Al   C 
    16    12
Direct configuration=    17
   0.26395575  0.25000000  0.29874286
   0.23604425  0.75000000  0.79874286
   0.73604425  0.75000000  0.70125714
   0.76395575  0.25000000  0.20125714
   0.34837047  0.25000000  0.01158033
   0.15162953  0.75000000  0.51158033
   0.65162953  0.75000000  0.98841967
   0.84837047  0.25000000  0.48841967
   0.52215199  0.25000000  0.79443062
   0.97784801  0.75000000  0.29443062
   0.47784801  0.75000000  0.20556938
   0.02215199  0.25000000  0.70556938
   0.07030123  0.25000000  0.08885284
   0.42969877  0.75000000  0.58885284
   0.92969877  0.75000000  0.91114716
   0.57030123  0.25000000  0.41114716
   0.25775036  0.25000000  0.64159010
   0.24224964  0.75000000  0.14159010
   0.74224964  0.75000000  0.35840990
   0.75775036  0.25000000  0.85840990
   0.60259475  0.25000000  0.60881801
   0.89740525  0.75000000  0.10881801
   0.39740525  0.75000000  0.39118199
   0.10259475  0.25000000  0.89118199
   0.06502340  0.25000000  0.38865148
   0.43497660  0.75000000  0.88865148
   0.93497660  0.75000000  0.61134852
   0.56502340  0.25000000  0.11134852
Al4C3 Pnma - H(P) scan @ 40 GPa (ISIF=8)
           1
     8.371973    0.000000    0.000000
     0.000000    2.888178    0.000000
     0.000000    0.000000    9.951918
   Al   C 
    16    12
Direct configuration=    18
   0.26397600  0.25000000  0.29878044
   0.23602400  0.75000000  0.79878044
   0.73602400  0.75000000  0.70121956
   0.76397600  0.25000000  0.20121956
   0.34845374  0.25000000  0.01164711
   0.15154626  0.75000000  0.51164711
   0.65154626  0.75000000  0.98835289
   0.84845374  0.25000000  0.48835289
   0.52200002  0.25000000  0.79439140
   0.97799998  0.75000000  0.29439140
   0.47799998  0.75000000  0.20560860
   0.02200002  0.25000000  0.70560860
   0.07032747  0.25000000  0.08882661
   0.42967253  0.75000000  0.58882661
   0.92967253  0.75000000  0.91117339
   0.57032747  0.25000000  0.41117339
   0.25771252  0.25000000  0.64163023
   0.24228748  0.75000000  0.14163023
   0.74228748  0.75000000  0.35836977
   0.75771252  0.25000000  0.85836977
   0.60253264  0.25000000  0.60886834
   0.89746736  0.75000000  0.10886834
   0.39746736  0.75000000  0.39113166
   0.10253264  0.25000000  0.89113166
   0.06511973  0.25000000  0.38870162
   0.43488027  0.75000000  0.88870162
   0.93488027  0.75000000  0.61129838
   0.56511973  0.25000000  0.11129838
Al4C3 Pnma - H(P) scan @ 40 GPa (ISIF=8)
           1
     8.371829    0.000000    0.000000
     0.000000    2.888129    0.000000
     0.000000    0.000000    9.951747
   Al   C 
    16    12
Direct configuration=    19
   0.26398382  0.25000000  0.29879493
   0.23601618  0.75000000  0.79879493
   0.73601618  0.75000000  0.70120507
   0.76398382  0.25000000  0.20120507
   0.34848586  0.25000000  0.01167287
   0.15151414  0.75000000  0.51167287
   0.65151414  0.75000000  0.98832713
   0.84848586  0.25000000  0.48832713
   0.52194139  0.25000000  0.79437627
   0.97805861  0.75000000  0.29437627
   0.47805861  0.75000000  0.20562373
   0.02194139  0.25000000  0.70562373
   0.07033760  0.25000000  0.08881649
   0.42966240  0.75000000  0.58881649
   0.92966240  0.75000000  0.91118351
   0.57033760  0.25000000  0.41118351
   0.25769792  0.25000000  0.64164572
   0.24230208  0.75000000  0.14164572
   0.74230208  0.75000000  0.35835428
   0.75769792  0.25000000  0.85835428
   0.60250867  0.25000000  0.60888776
   0.89749133  0.75000000  0.10888776
   0.39749133  0.75000000  0.39111224
   0.10250867  0.25000000  0.89111224
   0.06515689  0.25000000  0.38872096
   0.43484311  0.75000000  0.88872096
   0.93484311  0.75000000  0.61127904
   0.56515689  0.25000000  0.11127904
Al4C3 Pnma - H(P) scan @ 40 GPa (ISIF=8)
           1
     8.371784    0.000000    0.000000
     0.000000    2.888113    0.000000
     0.000000    0.000000    9.951694
   Al   C 
    16    12
Direct configuration=    20
   0.26398626  0.25000000  0.29879947
   0.23601374  0.75000000  0.79879947
   0.73601374  0.75000000  0.70120053
   0.76398626  0.25000000  0.20120053
   0.34849591  0.25000000  0.01168092
   0.15150409  0.75000000  0.51168092
   0.65150409  0.75000000  0.98831908
   0.84849591  0.25000000  0.48831908
   0.52192307  0.25000000  0.79437155
   0.97807693  0.75000000  0.29437155
   0.47807693  0.75000000  0.20562845
   0.02192307  0.25000000  0.70562845
   0.07034076  0.25000000  0.08881333
   0.42965924  0.75000000  0.58881333
   0.92965924  0.75000000  0.91118667
   0.57034076  0.25000000  0.41118667
   0.25769336  0.25000000  0.64165056
   0.24230664  0.75000000  0.14165056
   0.74230664  0.75000000  0.35834944
   0.75769336  0.25000000  0.85834944
   0.60250118  0.25000000  0.60889382
   0.89749882  0.75000000  0.10889382
   0.39749882  0.75000000  0.39110618
   0.10250118  0.25000000  0.89110618
   0.06516850  0.25000000  0.38872701
   0.43483150  0.75000000  0.88872701
   0.93483150  0.75000000  0.61127299
   0.56516850  0.25000000  0.11127299
Al4C3 Pnma - H(P) scan @ 40 GPa (ISIF=8)
           1
     8.371997    0.000000    0.000000
     0.000000    2.888187    0.000000
     0.000000    0.000000    9.951947
   Al   C 
    16    12
Direct configuration=    21
   0.26403130  0.25000000  0.29883062
   0.23596870  0.75000000  0.79883062
   0.73596870  0.75000000  0.70116938
   0.76403130  0.25000000  0.20116938
   0.34852188  0.25000000  0.01173664
   0.15147812  0.75000000  0.51173664
   0.65147812  0.75000000  0.98826336
   0.84852188  0.25000000  0.48826336
   0.52184371  0.25000000  0.79436901
   0.97815629  0.75000000  0.29436901
   0.47815629  0.75000000  0.20563099
   0.02184371  0.25000000  0.70563099
   0.07036628  0.25000000  0.08877245
   0.42963372  0.75000000  0.58877245
   0.92963372  0.75000000  0.91122755
   0.57036628  0.25000000  0.41122755
   0.25769670  0.25000000  0.64164839
   0.24230330  0.75000000  0.14164839
   0.74230330  0.75000000  0.35835161
   0.75769670  0.25000000  0.85835161
   0.60248561  0.25000000  0.60891463
   0.89751439  0.75000000  0.10891463
   0.39751439  0.75000000  0.39108537
   0.10248561  0.25000000  0.89108537
   0.06515671  0.25000000  0.38877880
   0.43484329  0.75000000  0.88877880
   0.93484329  0.75000000  0.61122120
   0.56515671  0.25000000  0.11122120
