  14  14   0   0
  0.8868437E+01  0.8566528E-09  0.4946388E-09  0.2930098E-09  0.5000000E-15
  1.000000000000000E-004
  CAR 
 Al4C3 Pbam - H(P) scan @ 30 GPa (ISIF=8)
     19.79560455     -6.29540491  301     10.64153981      1.00000000
     -6.295  0.0000E+00  0.0000E+00
     -6.208  0.0000E+00  0.0000E+00
     -6.121  0.0000E+00  0.0000E+00
     -6.034  0.0000E+00  0.0000E+00
     -5.948  0.0000E+00  0.0000E+00
     -5.861  0.0000E+00  0.0000E+00
     -5.774  0.0000E+00  0.0000E+00
     -5.687  0.0000E+00  0.0000E+00
     -5.600  0.0000E+00  0.0000E+00
     -5.513  0.0000E+00  0.0000E+00
     -5.426  0.0000E+00  0.0000E+00
     -5.339  0.1655E-13  0.1439E-14
     -5.252  0.1062E-07  0.9239E-09
     -5.165  0.2193E-04  0.1908E-05
     -5.078  0.3221E-03  0.2992E-04
     -4.991  0.1431E-02  0.1544E-03
     -4.904  0.2612E-02  0.3816E-03
     -4.817  0.3247E-02  0.6640E-03
     -4.730  0.2673E-02  0.8965E-03
     -4.643  0.2190E-02  0.1087E-02
     -4.556  0.6025E-02  0.1611E-02
     -4.469  0.7502E-02  0.2263E-02
     -4.382  0.4072E-02  0.2618E-02
     -4.295  0.1528E-02  0.2750E-02
     -4.208  0.5144E-02  0.3198E-02
     -4.121  0.9675E-02  0.4039E-02
     -4.034  0.7259E-02  0.4671E-02
     -3.947  0.6114E-02  0.5202E-02
     -3.860  0.6522E-02  0.5769E-02
     -3.773  0.8103E-02  0.6474E-02
     -3.686  0.9250E-02  0.7279E-02
     -3.599  0.1030E-01  0.8174E-02
     -3.512  0.9112E-02  0.8967E-02
     -3.425  0.5438E-02  0.9440E-02
     -3.338  0.3827E-02  0.9772E-02
     -3.251  0.6913E-02  0.1037E-01
     -3.164  0.1005E-01  0.1125E-01
     -3.078  0.9552E-02  0.1208E-01
     -2.991  0.4830E-02  0.1250E-01
     -2.904  0.8135E-02  0.1321E-01
     -2.817  0.1335E-01  0.1437E-01
     -2.730  0.7723E-02  0.1504E-01
     -2.643  0.6219E-02  0.1558E-01
     -2.556  0.1217E-01  0.1664E-01
     -2.469  0.1743E-01  0.1815E-01
     -2.382  0.8003E-02  0.1885E-01
     -2.295  0.6157E-02  0.1939E-01
     -2.208  0.1651E-01  0.2082E-01
     -2.121  0.1430E-01  0.2207E-01
     -2.034  0.1149E-01  0.2306E-01
     -1.947  0.1485E-01  0.2436E-01
     -1.860  0.1047E-01  0.2527E-01
     -1.773  0.8002E-02  0.2596E-01
     -1.686  0.2033E-01  0.2773E-01
     -1.599  0.1608E-01  0.2913E-01
     -1.512  0.1144E-01  0.3012E-01
     -1.425  0.1876E-01  0.3176E-01
     -1.338  0.2056E-01  0.3354E-01
     -1.251  0.1999E-01  0.3528E-01
     -1.164  0.2735E-01  0.3766E-01
     -1.077  0.2116E-01  0.3950E-01
     -0.990  0.2658E-01  0.4181E-01
     -0.903  0.2776E-01  0.4423E-01
     -0.816  0.1929E-01  0.4590E-01
     -0.729  0.1378E-01  0.4710E-01
     -0.642  0.1722E-01  0.4860E-01
     -0.555  0.1360E-01  0.4978E-01
     -0.468  0.1073E-01  0.5072E-01
     -0.381  0.6289E-02  0.5126E-01
     -0.294  0.1028E-01  0.5216E-01
     -0.208  0.1325E-01  0.5331E-01
     -0.121  0.1260E-01  0.5440E-01
     -0.034  0.1065E-01  0.5533E-01
      0.053  0.4534E-02  0.5573E-01
      0.140  0.5920E-02  0.5624E-01
      0.227  0.8766E-02  0.5700E-01
      0.314  0.8107E-02  0.5771E-01
      0.401  0.2762E-02  0.5795E-01
      0.488  0.1127E-02  0.5805E-01
      0.575  0.2925E-02  0.5830E-01
      0.662  0.5920E-02  0.5881E-01
      0.749  0.2668E-02  0.5905E-01
      0.836  0.3155E-02  0.5932E-01
      0.923  0.4359E-03  0.5936E-01
      1.010  0.2280E-02  0.5956E-01
      1.097  0.1477E-02  0.5969E-01
      1.184  0.1682E-02  0.5983E-01
      1.271  0.1155E-02  0.5993E-01
      1.358  0.3067E-03  0.5996E-01
      1.445  0.4557E-03  0.6000E-01
      1.532  0.1217E-04  0.6000E-01
      1.619  0.1901E-08  0.6000E-01
      1.706  0.3622E-05  0.6000E-01
      1.793  0.2226E-03  0.6002E-01
      1.880  0.1105E-02  0.6012E-01
      1.967  0.2553E-02  0.6034E-01
      2.054  0.3254E-02  0.6062E-01
      2.141  0.3185E-02  0.6090E-01
      2.228  0.7338E-02  0.6154E-01
      2.315  0.1010E-01  0.6241E-01
      2.402  0.1534E-01  0.6375E-01
      2.489  0.1148E-01  0.6475E-01
      2.576  0.1246E-01  0.6583E-01
      2.663  0.1574E-01  0.6720E-01
      2.749  0.2933E-01  0.6975E-01
      2.836  0.2370E-01  0.7181E-01
      2.923  0.1879E-01  0.7345E-01
      3.010  0.2310E-01  0.7545E-01
      3.097  0.1936E-01  0.7714E-01
      3.184  0.2099E-01  0.7896E-01
      3.271  0.1708E-01  0.8045E-01
      3.358  0.1907E-01  0.8211E-01
      3.445  0.1524E-01  0.8343E-01
      3.532  0.1554E-01  0.8478E-01
      3.619  0.1802E-01  0.8635E-01
      3.706  0.1394E-01  0.8756E-01
      3.793  0.2572E-01  0.8980E-01
      3.880  0.2227E-01  0.9174E-01
      3.967  0.1834E-01  0.9333E-01
      4.054  0.2041E-01  0.9511E-01
      4.141  0.1628E-01  0.9652E-01
      4.228  0.1592E-01  0.9791E-01
      4.315  0.2381E-01  0.9998E-01
      4.402  0.1921E-01  0.1016E+00
      4.489  0.1940E-01  0.1033E+00
      4.576  0.1606E-01  0.1047E+00
      4.663  0.1491E-01  0.1060E+00
      4.750  0.1719E-01  0.1075E+00
      4.837  0.1253E-01  0.1086E+00
      4.924  0.1595E-01  0.1100E+00
      5.011  0.2419E-01  0.1121E+00
      5.098  0.2728E-01  0.1145E+00
      5.185  0.2575E-01  0.1167E+00
      5.272  0.2477E-01  0.1189E+00
      5.359  0.2528E-01  0.1211E+00
      5.446  0.1323E-01  0.1222E+00
      5.533  0.1171E-01  0.1232E+00
      5.619  0.1337E-01  0.1244E+00
      5.706  0.1906E-01  0.1261E+00
      5.793  0.2929E-01  0.1286E+00
      5.880  0.3433E-01  0.1316E+00
      5.967  0.2361E-01  0.1336E+00
      6.054  0.1913E-01  0.1353E+00
      6.141  0.1949E-01  0.1370E+00
      6.228  0.2106E-01  0.1388E+00
      6.315  0.1945E-01  0.1405E+00
      6.402  0.2735E-01  0.1429E+00
      6.489  0.2555E-01  0.1451E+00
      6.576  0.2894E-01  0.1476E+00
      6.663  0.2672E-01  0.1500E+00
      6.750  0.1874E-01  0.1516E+00
      6.837  0.1240E-01  0.1527E+00
      6.924  0.1832E-01  0.1543E+00
      7.011  0.2386E-01  0.1563E+00
      7.098  0.2397E-01  0.1584E+00
      7.185  0.2353E-01  0.1605E+00
      7.272  0.2245E-01  0.1624E+00
      7.359  0.3517E-01  0.1655E+00
      7.446  0.3419E-01  0.1685E+00
      7.533  0.2029E-01  0.1702E+00
      7.620  0.1466E-01  0.1715E+00
      7.707  0.2166E-01  0.1734E+00
      7.794  0.2636E-01  0.1757E+00
      7.881  0.2576E-01  0.1779E+00
      7.968  0.2693E-01  0.1803E+00
      8.055  0.2371E-01  0.1823E+00
      8.142  0.2032E-01  0.1841E+00
      8.229  0.2916E-01  0.1866E+00
      8.316  0.3161E-01  0.1894E+00
      8.403  0.3087E-01  0.1921E+00
      8.490  0.3025E-01  0.1947E+00
      8.576  0.2791E-01  0.1971E+00
      8.663  0.2968E-01  0.1997E+00
      8.750  0.2113E-01  0.2015E+00
      8.837  0.2618E-01  0.2038E+00
      8.924  0.3744E-01  0.2071E+00
      9.011  0.3031E-01  0.2097E+00
      9.098  0.1781E-01  0.2113E+00
      9.185  0.2218E-01  0.2132E+00
      9.272  0.2076E-01  0.2150E+00
      9.359  0.2843E-01  0.2175E+00
      9.446  0.3933E-01  0.2209E+00
      9.533  0.3001E-01  0.2235E+00
      9.620  0.2779E-01  0.2259E+00
      9.707  0.3083E-01  0.2286E+00
      9.794  0.2844E-01  0.2311E+00
      9.881  0.2293E-01  0.2331E+00
      9.968  0.2002E-01  0.2348E+00
     10.055  0.1718E-01  0.2363E+00
     10.142  0.1154E-01  0.2373E+00
     10.229  0.6102E-02  0.2378E+00
     10.316  0.6363E-02  0.2384E+00
     10.403  0.8210E-02  0.2391E+00
     10.490  0.5025E-02  0.2395E+00
     10.577  0.3544E-02  0.2398E+00
     10.664  0.2244E-02  0.2400E+00
     10.751  0.3855E-02  0.2404E+00
     10.838  0.2577E-02  0.2406E+00
     10.925  0.1423E-02  0.2407E+00
     11.012  0.6600E-03  0.2408E+00
     11.099  0.4254E-04  0.2408E+00
     11.186  0.2335E-03  0.2408E+00
     11.273  0.5161E-02  0.2412E+00
     11.360  0.2266E-02  0.2414E+00
     11.446  0.1921E-02  0.2416E+00
     11.533  0.4329E-02  0.2420E+00
     11.620  0.1898E-02  0.2422E+00
     11.707  0.2535E-02  0.2424E+00
     11.794  0.7044E-03  0.2424E+00
     11.881  0.4640E-02  0.2428E+00
     11.968  0.7528E-02  0.2435E+00
     12.055  0.4891E-02  0.2439E+00
     12.142  0.4959E-03  0.2440E+00
     12.229  0.7275E-03  0.2440E+00
     12.316  0.3946E-02  0.2444E+00
     12.403  0.5064E-02  0.2448E+00
     12.490  0.1034E-01  0.2457E+00
     12.577  0.8471E-02  0.2464E+00
     12.664  0.5450E-02  0.2469E+00
     12.751  0.3578E-02  0.2472E+00
     12.838  0.8962E-02  0.2480E+00
     12.925  0.1226E-01  0.2491E+00
     13.012  0.9425E-02  0.2499E+00
     13.099  0.1378E-01  0.2511E+00
     13.186  0.1147E-01  0.2521E+00
     13.273  0.1730E-01  0.2536E+00
     13.360  0.1402E-01  0.2548E+00
     13.447  0.2000E-01  0.2566E+00
     13.534  0.1233E-01  0.2576E+00
     13.621  0.1494E-01  0.2589E+00
     13.708  0.1462E-01  0.2602E+00
     13.795  0.1995E-01  0.2619E+00
     13.882  0.1328E-01  0.2631E+00
     13.969  0.1635E-01  0.2645E+00
     14.056  0.2129E-01  0.2664E+00
     14.143  0.2144E-01  0.2682E+00
     14.230  0.2030E-01  0.2700E+00
     14.316  0.2481E-01  0.2721E+00
     14.403  0.1327E-01  0.2733E+00
     14.490  0.1939E-01  0.2750E+00
     14.577  0.1964E-01  0.2767E+00
     14.664  0.1760E-01  0.2782E+00
     14.751  0.1677E-01  0.2797E+00
     14.838  0.9656E-02  0.2805E+00
     14.925  0.1585E-01  0.2819E+00
     15.012  0.1929E-01  0.2836E+00
     15.099  0.2049E-01  0.2854E+00
     15.186  0.2036E-01  0.2871E+00
     15.273  0.1499E-01  0.2884E+00
     15.360  0.2630E-01  0.2907E+00
     15.447  0.2310E-01  0.2927E+00
     15.534  0.2035E-01  0.2945E+00
     15.621  0.2448E-01  0.2966E+00
     15.708  0.3042E-01  0.2993E+00
     15.795  0.2813E-01  0.3017E+00
     15.882  0.2311E-01  0.3037E+00
     15.969  0.3283E-01  0.3066E+00
     16.056  0.2071E-01  0.3084E+00
     16.143  0.2172E-01  0.3103E+00
     16.230  0.3201E-01  0.3131E+00
     16.317  0.2649E-01  0.3154E+00
     16.404  0.1525E-01  0.3167E+00
     16.491  0.2420E-01  0.3188E+00
     16.578  0.4289E-01  0.3225E+00
     16.665  0.3179E-01  0.3253E+00
     16.752  0.2691E-01  0.3276E+00
     16.839  0.2705E-01  0.3300E+00
     16.926  0.2183E-01  0.3319E+00
     17.013  0.3013E-01  0.3345E+00
     17.100  0.2585E-01  0.3368E+00
     17.187  0.2862E-01  0.3392E+00
     17.273  0.2376E-01  0.3413E+00
     17.360  0.2220E-01  0.3432E+00
     17.447  0.2022E-01  0.3450E+00
     17.534  0.1765E-01  0.3465E+00
     17.621  0.2047E-01  0.3483E+00
     17.708  0.2455E-01  0.3505E+00
     17.795  0.2382E-01  0.3525E+00
     17.882  0.1886E-01  0.3542E+00
     17.969  0.2021E-01  0.3559E+00
     18.056  0.1399E-01  0.3571E+00
     18.143  0.1073E-01  0.3581E+00
     18.230  0.1118E-01  0.3590E+00
     18.317  0.5662E-02  0.3595E+00
     18.404  0.2311E-02  0.3597E+00
     18.491  0.3812E-03  0.3598E+00
     18.578  0.8660E-03  0.3598E+00
     18.665  0.1668E-02  0.3600E+00
     18.752  0.1121E-03  0.3600E+00
     18.839  0.4630E-07  0.3600E+00
     18.926  0.6223E-13  0.3600E+00
     19.013  0.0000E+00  0.3600E+00
     19.100  0.0000E+00  0.3600E+00
     19.187  0.0000E+00  0.3600E+00
     19.274  0.0000E+00  0.3600E+00
     19.361  0.0000E+00  0.3600E+00
     19.448  0.0000E+00  0.3600E+00
     19.535  0.0000E+00  0.3600E+00
     19.622  0.0000E+00  0.3600E+00
     19.709  0.0000E+00  0.3600E+00
     19.796  0.0000E+00  0.3600E+00
