       N       E                     dE             d eps       ncg     rms          rms(c)
DAV:   1    -0.819977935125E+02   -0.81998E+02   -0.37476E-02  5208   0.281E+00    0.125E-02
DAV:   2    -0.819977967297E+02   -0.32172E-05   -0.13022E-06  2904   0.861E-03
   1 F= -.58749786E+02 E0= -.58749603E+02  d E =-.587498E+02
       N       E                     dE             d eps       ncg     rms          rms(c)
DAV:   1    -0.840219508297E+02   -0.20242E+01   -0.79854E+00  6204   0.146E+01    0.304E+00
DAV:   2    -0.838048066423E+02    0.21714E+00   -0.58632E-01  6324   0.318E+00    0.127E+00
DAV:   3    -0.837925794910E+02    0.12227E-01   -0.63359E-02  6600   0.103E+00    0.423E-01
DAV:   4    -0.837898213953E+02    0.27581E-02   -0.50138E-03  6252   0.274E-01    0.151E-01
DAV:   5    -0.837892748482E+02    0.54655E-03   -0.98289E-04  6576   0.123E-01    0.786E-02
DAV:   6    -0.837892147992E+02    0.60049E-04   -0.12066E-04  6456   0.456E-02    0.332E-02
DAV:   7    -0.837892102045E+02    0.45947E-05   -0.20981E-05  3948   0.194E-02
   2 F= -.58625447E+02 E0= -.58625103E+02  d E =0.124339E+00
       N       E                     dE             d eps       ncg     rms          rms(c)
DAV:   1    -0.829787393915E+02    0.81048E+00   -0.28588E+00  6180   0.902E+00    0.181E+00
DAV:   2    -0.829036653824E+02    0.75074E-01   -0.20138E-01  6228   0.188E+00    0.755E-01
DAV:   3    -0.828992885243E+02    0.43769E-02   -0.18865E-02  6600   0.594E-01    0.261E-01
DAV:   4    -0.828983982352E+02    0.89029E-03   -0.11360E-03  6228   0.148E-01    0.860E-02
DAV:   5    -0.828982536739E+02    0.14456E-03   -0.10887E-04  6612   0.474E-02    0.489E-02
DAV:   6    -0.828982463929E+02    0.72810E-05   -0.73960E-06  4236   0.183E-02
   3 F= -.58874603E+02 E0= -.58874390E+02  d E =-.124817E+00
       N       E                     dE             d eps       ncg     rms          rms(c)
DAV:   1    -0.828904545854E+02    0.77991E-02   -0.15697E-04  6432   0.653E-02    0.123E-02
DAV:   2    -0.828904517580E+02    0.28274E-05   -0.97742E-06  3324   0.140E-02
   4 F= -.58874619E+02 E0= -.58874406E+02  d E =-.124833E+00
       N       E                     dE             d eps       ncg     rms          rms(c)
DAV:   1    -0.828882433721E+02    0.22112E-02   -0.57876E-06  3036   0.133E-02    0.356E-03
DAV:   2    -0.828882435594E+02   -0.18734E-06   -0.49331E-07  3000   0.350E-03
   5 F= -.58874620E+02 E0= -.58874407E+02  d E =-.124834E+00
       N       E                     dE             d eps       ncg     rms          rms(c)
DAV:   1    -0.828891507361E+02   -0.90736E-03   -0.26161E-06  2880   0.828E-03    0.195E-03
DAV:   2    -0.828891506791E+02    0.57023E-07   -0.18991E-07  2808   0.217E-03
   6 F= -.58874620E+02 E0= -.58874408E+02  d E =-.124835E+00
       N       E                     dE             d eps       ncg     rms          rms(c)
DAV:   1    -0.829022135858E+02   -0.13063E-01   -0.18534E-01  5184   0.220E+00    0.810E-02
DAV:   2    -0.829020936109E+02    0.11997E-03   -0.28840E-03  6792   0.265E-01    0.488E-02
DAV:   3    -0.829020243250E+02    0.69286E-04   -0.21075E-04  6684   0.784E-02    0.201E-02
DAV:   4    -0.829020259964E+02   -0.16714E-05   -0.61222E-05  5676   0.328E-02
   7 F= -.58876729E+02 E0= -.58876524E+02  d E =-.210881E-02
       N       E                     dE             d eps       ncg     rms          rms(c)
DAV:   1    -0.829048730502E+02   -0.28487E-02   -0.11977E-02  5232   0.560E-01    0.211E-02
DAV:   2    -0.829048663278E+02    0.67223E-05   -0.18385E-04  6816   0.669E-02    0.127E-02
DAV:   3    -0.829048620209E+02    0.43069E-05   -0.11681E-05  4344   0.197E-02
   8 F= -.58876821E+02 E0= -.58876617E+02  d E =-.220029E-02
       N       E                     dE             d eps       ncg     rms          rms(c)
DAV:   1    -0.829088983762E+02   -0.40320E-02   -0.16438E-02  5208   0.657E-01    0.268E-02
DAV:   2    -0.829088977125E+02    0.66373E-06   -0.26699E-04  6852   0.855E-02    0.165E-02
DAV:   3    -0.829088881410E+02    0.95715E-05   -0.32380E-05  5616   0.331E-02
   9 F= -.58877128E+02 E0= -.58876929E+02  d E =-.307124E-03
       N       E                     dE             d eps       ncg     rms          rms(c)
DAV:   1    -0.829113311715E+02   -0.24335E-02   -0.67538E-03  5196   0.423E-01    0.182E-02
DAV:   2    -0.829113322407E+02   -0.10691E-05   -0.11580E-04  6828   0.553E-02    0.113E-02
DAV:   3    -0.829113281183E+02    0.41224E-05   -0.89793E-06  3888   0.195E-02
  10 F= -.58877191E+02 E0= -.58876995E+02  d E =-.370636E-03
       N       E                     dE             d eps       ncg     rms          rms(c)
DAV:   1    -0.829060955750E+02    0.52367E-02   -0.24274E-03  5256   0.254E-01    0.177E-02
DAV:   2    -0.829060991533E+02   -0.35783E-05   -0.93331E-05  6792   0.466E-02
  11 F= -.58877305E+02 E0= -.58877113E+02  d E =-.113987E-03
       N       E                     dE             d eps       ncg     rms          rms(c)
DAV:   1    -0.829065912847E+02   -0.49571E-03   -0.25339E-05  4680   0.272E-02    0.562E-03
DAV:   2    -0.829065915923E+02   -0.30763E-06   -0.28894E-06  2676   0.808E-03
  12 F= -.58877306E+02 E0= -.58877114E+02  d E =-.114710E-03
       N       E                     dE             d eps       ncg     rms          rms(c)
DAV:   1    -0.829114662273E+02   -0.48749E-02   -0.20123E-03  5220   0.229E-01    0.128E-02
DAV:   2    -0.829114640823E+02    0.21450E-05   -0.61120E-05  6888   0.391E-02
  13 F= -.58877334E+02 E0= -.58877144E+02  d E =-.283908E-04
