Al4C3 Pnma (CIF findsym, P21/n21/m21/a) 
   1.00000000000000     
     8.8859015735501998    0.0000000000000000    0.0000000000000000
     0.0000000000000000    3.0530791279359799    0.0000000000000000
     0.0000000000000000    0.0000000000000000    9.3673721232495986
   Al   C 
    16    12
Direct
  0.2683820334658190  0.2500000000000000  0.2663526975174220
  0.7683820334658188  0.2500000000000000  0.2336473024825780
  0.7316179665341812  0.7500000000000000  0.7336473024825779
  0.2316179665341810  0.7500000000000000  0.7663526975174221
  0.4661317817790356  0.2500000000000000  0.8917557836827298
  0.9661317817790356  0.2500000000000000  0.6082442163172702
  0.5338682182209644  0.7500000000000000  0.1082442163172701
  0.0338682182209644  0.7500000000000000  0.3917557836827299
  0.5056599766853377  0.2500000000000000  0.6044931319326020
  0.0056599766853378  0.2500000000000000  0.8955068680673980
  0.4943400233146622  0.7500000000000000  0.3955068680673982
  0.9943400233146623  0.7500000000000000  0.1044931319326020
  0.2370353590321259  0.2500000000000000  0.5580753366520724
  0.7370353590321258  0.2500000000000000  0.9419246633479276
  0.7629646409678742  0.7500000000000000  0.4419246633479275
  0.2629646409678741  0.7500000000000000  0.0580753366520726
  0.3847622378608168  0.2500000000000000  0.4252256507071210
  0.8847622378608166  0.2500000000000000  0.0747743492928791
  0.6152377621391834  0.7500000000000000  0.5747743492928791
  0.1152377621391833  0.7500000000000000  0.9252256507071209
  0.3940770404748821  0.2500000000000000  0.0875215719116286
  0.8940770404748820  0.2500000000000000  0.4124784280883714
  0.6059229595251180  0.7500000000000000  0.9124784280883713
  0.1059229595251180  0.7500000000000000  0.5875215719116287
  0.3471742808487656  0.2500000000000000  0.7344760067539413
  0.8471742808487659  0.2500000000000000  0.7655239932460587
  0.6528257191512341  0.7500000000000000  0.2655239932460588
  0.1528257191512344  0.7500000000000000  0.2344760067539412
 
  0.00000000E+00  0.00000000E+00  0.00000000E+00
  0.00000000E+00  0.00000000E+00  0.00000000E+00
  0.00000000E+00  0.00000000E+00  0.00000000E+00
  0.00000000E+00  0.00000000E+00  0.00000000E+00
  0.00000000E+00  0.00000000E+00  0.00000000E+00
  0.00000000E+00  0.00000000E+00  0.00000000E+00
  0.00000000E+00  0.00000000E+00  0.00000000E+00
  0.00000000E+00  0.00000000E+00  0.00000000E+00
  0.00000000E+00  0.00000000E+00  0.00000000E+00
  0.00000000E+00  0.00000000E+00  0.00000000E+00
  0.00000000E+00  0.00000000E+00  0.00000000E+00
  0.00000000E+00  0.00000000E+00  0.00000000E+00
  0.00000000E+00  0.00000000E+00  0.00000000E+00
  0.00000000E+00  0.00000000E+00  0.00000000E+00
  0.00000000E+00  0.00000000E+00  0.00000000E+00
  0.00000000E+00  0.00000000E+00  0.00000000E+00
  0.00000000E+00  0.00000000E+00  0.00000000E+00
  0.00000000E+00  0.00000000E+00  0.00000000E+00
  0.00000000E+00  0.00000000E+00  0.00000000E+00
  0.00000000E+00  0.00000000E+00  0.00000000E+00
  0.00000000E+00  0.00000000E+00  0.00000000E+00
  0.00000000E+00  0.00000000E+00  0.00000000E+00
  0.00000000E+00  0.00000000E+00  0.00000000E+00
  0.00000000E+00  0.00000000E+00  0.00000000E+00
  0.00000000E+00  0.00000000E+00  0.00000000E+00
  0.00000000E+00  0.00000000E+00  0.00000000E+00
  0.00000000E+00  0.00000000E+00  0.00000000E+00
  0.00000000E+00  0.00000000E+00  0.00000000E+00
