Al4C3 R-3m polymorph (findsym-output, fr
   1.00000000000000     
     3.0190001070787496    0.0000000000000000    0.0000000000000000
    -1.5095000535393748    2.6145307867917116    0.0000000000000000
     0.0000000000000000    0.0000000000000000   22.5700568320704669
   Al   C 
    12     9
Direct
  0.0000000000000000  0.0000000000000000  0.6294220965246157
 -0.0000000000000000 -0.0000000000000000  0.3705779034753843
  0.6666666870000029  0.3333333429999996  0.9627554095246128
  0.6666666870000029  0.3333333429999996  0.7039112174753851
  0.3333333429999996  0.6666666870000029  0.2960887525246125
  0.3333333429999996  0.6666666870000029  0.0372445714753891
  0.0000000000000000 -0.0000000000000000  0.2059123274941094
 -0.0000000000000000  0.0000000000000000  0.7940876725058907
  0.6666666870000029  0.3333333429999996  0.5392456414941100
  0.6666666870000029  0.3333333429999996  0.1274210005058926
  0.3333333429999996  0.6666666870000029  0.8725790144941121
  0.3333333429999996  0.6666666870000029  0.4607543285058874
 -0.0000000000000000  0.0000000000000000  0.7167129888663828
  0.0000000000000000 -0.0000000000000000  0.2832870111336174
  0.6666666870000029  0.3333333429999996  0.0500463208663849
  0.6666666870000029  0.3333333429999996  0.6166203241336143
  0.3333333429999996  0.6666666870000029  0.3833796458663830
  0.3333333429999996  0.6666666870000029  0.9499536981336130
  0.0000000000000000  0.0000000000000000  0.5000000000000000
  0.6666666870000029  0.3333333429999996  0.8333333129999971
  0.3333333429999996  0.6666666870000029  0.1666666719999981
 
  0.00000000E+00  0.00000000E+00  0.00000000E+00
  0.00000000E+00  0.00000000E+00  0.00000000E+00
  0.00000000E+00  0.00000000E+00  0.00000000E+00
  0.00000000E+00  0.00000000E+00  0.00000000E+00
  0.00000000E+00  0.00000000E+00  0.00000000E+00
  0.00000000E+00  0.00000000E+00  0.00000000E+00
  0.00000000E+00  0.00000000E+00  0.00000000E+00
  0.00000000E+00  0.00000000E+00  0.00000000E+00
  0.00000000E+00  0.00000000E+00  0.00000000E+00
  0.00000000E+00  0.00000000E+00  0.00000000E+00
  0.00000000E+00  0.00000000E+00  0.00000000E+00
  0.00000000E+00  0.00000000E+00  0.00000000E+00
  0.00000000E+00  0.00000000E+00  0.00000000E+00
  0.00000000E+00  0.00000000E+00  0.00000000E+00
  0.00000000E+00  0.00000000E+00  0.00000000E+00
  0.00000000E+00  0.00000000E+00  0.00000000E+00
  0.00000000E+00  0.00000000E+00  0.00000000E+00
  0.00000000E+00  0.00000000E+00  0.00000000E+00
  0.00000000E+00  0.00000000E+00  0.00000000E+00
  0.00000000E+00  0.00000000E+00  0.00000000E+00
  0.00000000E+00  0.00000000E+00  0.00000000E+00
