  21  21   0   0
  0.8535041E+01  0.3025113E-09  0.3025113E-09  0.2261576E-08  0.5000000E-15
  1.000000000000000E-004
  CAR 
 Al4C3 R-3m - r2SCAN H(P) scan @ 90 GPa (
     20.39787339     -7.33280391  301     10.88856197      1.00000000
     -7.333  0.0000E+00  0.0000E+00
     -7.240  0.0000E+00  0.0000E+00
     -7.148  0.0000E+00  0.0000E+00
     -7.055  0.0000E+00  0.0000E+00
     -6.963  0.0000E+00  0.0000E+00
     -6.871  0.0000E+00  0.0000E+00
     -6.778  0.0000E+00  0.0000E+00
     -6.686  0.0000E+00  0.0000E+00
     -6.593  0.0000E+00  0.0000E+00
     -6.501  0.0000E+00  0.0000E+00
     -6.408  0.0000E+00  0.0000E+00
     -6.316  0.1029E-14  0.9510E-16
     -6.224  0.3571E-08  0.3301E-09
     -6.131  0.2040E-04  0.1886E-05
     -6.039  0.6409E-03  0.6113E-04
     -5.946  0.2382E-02  0.2813E-03
     -5.854  0.6144E-02  0.8493E-03
     -5.761  0.5104E-02  0.1321E-02
     -5.669  0.4124E-02  0.1702E-02
     -5.577  0.6200E-02  0.2275E-02
     -5.484  0.1013E-01  0.3212E-02
     -5.392  0.5894E-02  0.3757E-02
     -5.299  0.2143E-02  0.3955E-02
     -5.207  0.1125E-02  0.4059E-02
     -5.114  0.1042E-01  0.5022E-02
     -5.022  0.1044E-01  0.5988E-02
     -4.929  0.6675E-02  0.6604E-02
     -4.837  0.6038E-02  0.7163E-02
     -4.745  0.6156E-02  0.7732E-02
     -4.652  0.3295E-02  0.8036E-02
     -4.560  0.5496E-02  0.8544E-02
     -4.467  0.9587E-02  0.9430E-02
     -4.375  0.1922E-01  0.1121E-01
     -4.282  0.1985E-01  0.1304E-01
     -4.190  0.9194E-02  0.1389E-01
     -4.098  0.4674E-02  0.1432E-01
     -4.005  0.1226E-01  0.1546E-01
     -3.913  0.1262E-01  0.1662E-01
     -3.820  0.1122E-01  0.1766E-01
     -3.728  0.1138E-01  0.1871E-01
     -3.635  0.1618E-01  0.2021E-01
     -3.543  0.2099E-01  0.2215E-01
     -3.451  0.1564E-01  0.2359E-01
     -3.358  0.1734E-01  0.2520E-01
     -3.266  0.1010E-01  0.2613E-01
     -3.173  0.1036E-01  0.2709E-01
     -3.081  0.1117E-01  0.2812E-01
     -2.988  0.9963E-02  0.2904E-01
     -2.896  0.1614E-01  0.3053E-01
     -2.803  0.2742E-01  0.3307E-01
     -2.711  0.2125E-01  0.3503E-01
     -2.619  0.2674E-01  0.3750E-01
     -2.526  0.2261E-01  0.3959E-01
     -2.434  0.1067E-01  0.4058E-01
     -2.341  0.1884E-01  0.4232E-01
     -2.249  0.2057E-01  0.4422E-01
     -2.156  0.3050E-01  0.4704E-01
     -2.064  0.2346E-01  0.4921E-01
     -1.972  0.1211E-01  0.5033E-01
     -1.879  0.1360E-01  0.5159E-01
     -1.787  0.2234E-01  0.5365E-01
     -1.694  0.3029E-01  0.5645E-01
     -1.602  0.2605E-01  0.5886E-01
     -1.509  0.2215E-01  0.6091E-01
     -1.417  0.1702E-01  0.6248E-01
     -1.324  0.1608E-01  0.6397E-01
     -1.232  0.2216E-01  0.6602E-01
     -1.140  0.2630E-01  0.6845E-01
     -1.047  0.1183E-01  0.6954E-01
     -0.955  0.1383E-01  0.7082E-01
     -0.862  0.1755E-01  0.7244E-01
     -0.770  0.3920E-01  0.7606E-01
     -0.677  0.3181E-01  0.7900E-01
     -0.585  0.5785E-01  0.8435E-01
     -0.493  0.4753E-01  0.8875E-01
     -0.400  0.1244E-01  0.8990E-01
     -0.308  0.1122E-02  0.9000E-01
     -0.215  0.3052E-05  0.9000E-01
     -0.123  0.2142E-10  0.9000E-01
     -0.030  0.2502E-18  0.9000E-01
      0.062  0.0000E+00  0.9000E-01
      0.154  0.0000E+00  0.9000E-01
      0.247  0.0000E+00  0.9000E-01
      0.339  0.0000E+00  0.9000E-01
      0.432  0.0000E+00  0.9000E-01
      0.524  0.0000E+00  0.9000E-01
      0.617  0.0000E+00  0.9000E-01
      0.709  0.0000E+00  0.9000E-01
      0.802  0.0000E+00  0.9000E-01
      0.894  0.9226E-14  0.9000E-01
      0.986  0.2128E-07  0.9000E-01
      1.079  0.7454E-04  0.9001E-01
      1.171  0.1177E-02  0.9012E-01
      1.264  0.1967E-02  0.9030E-01
      1.356  0.2310E-02  0.9051E-01
      1.449  0.9263E-02  0.9137E-01
      1.541  0.9580E-02  0.9225E-01
      1.633  0.9443E-02  0.9313E-01
      1.726  0.1297E-01  0.9432E-01
      1.818  0.7592E-02  0.9503E-01
      1.911  0.5552E-02  0.9554E-01
      2.003  0.5334E-02  0.9603E-01
      2.096  0.1569E-01  0.9748E-01
      2.188  0.2382E-01  0.9968E-01
      2.280  0.2089E-01  0.1016E+00
      2.373  0.5200E-02  0.1021E+00
      2.465  0.1358E-01  0.1034E+00
      2.558  0.1334E-01  0.1046E+00
      2.650  0.2035E-01  0.1065E+00
      2.743  0.1083E-01  0.1075E+00
      2.835  0.1765E-02  0.1076E+00
      2.928  0.8158E-02  0.1084E+00
      3.020  0.8663E-02  0.1092E+00
      3.112  0.1400E-01  0.1105E+00
      3.205  0.2687E-01  0.1130E+00
      3.297  0.2086E-01  0.1149E+00
      3.390  0.2241E-01  0.1170E+00
      3.482  0.2656E-01  0.1194E+00
      3.575  0.2498E-01  0.1217E+00
      3.667  0.2856E-01  0.1244E+00
      3.759  0.3436E-01  0.1275E+00
      3.852  0.2532E-01  0.1299E+00
      3.944  0.2988E-01  0.1326E+00
      4.037  0.2822E-01  0.1353E+00
      4.129  0.3735E-01  0.1387E+00
      4.222  0.1891E-01  0.1405E+00
      4.314  0.1505E-01  0.1418E+00
      4.407  0.1767E-01  0.1435E+00
      4.499  0.2775E-01  0.1460E+00
      4.591  0.3220E-01  0.1490E+00
      4.684  0.3632E-01  0.1524E+00
      4.776  0.3263E-01  0.1554E+00
      4.869  0.3991E-01  0.1591E+00
      4.961  0.3538E-01  0.1624E+00
      5.054  0.2596E-01  0.1648E+00
      5.146  0.2727E-01  0.1673E+00
      5.238  0.1707E-01  0.1689E+00
      5.331  0.4617E-01  0.1731E+00
      5.423  0.4696E-01  0.1775E+00
      5.516  0.4001E-01  0.1812E+00
      5.608  0.3622E-01  0.1845E+00
      5.701  0.3163E-01  0.1874E+00
      5.793  0.2191E-01  0.1895E+00
      5.885  0.2172E-01  0.1915E+00
      5.978  0.1711E-01  0.1930E+00
      6.070  0.2347E-01  0.1952E+00
      6.163  0.2707E-01  0.1977E+00
      6.255  0.5001E-01  0.2023E+00
      6.348  0.3581E-01  0.2056E+00
      6.440  0.2437E-01  0.2079E+00
      6.533  0.4625E-01  0.2122E+00
      6.625  0.2942E-01  0.2149E+00
      6.717  0.2539E-01  0.2172E+00
      6.810  0.2624E-01  0.2197E+00
      6.902  0.2223E-01  0.2217E+00
      6.995  0.4239E-01  0.2256E+00
      7.087  0.4378E-01  0.2297E+00
      7.180  0.3722E-01  0.2331E+00
      7.272  0.3764E-01  0.2366E+00
      7.364  0.2312E-01  0.2387E+00
      7.457  0.3713E-01  0.2422E+00
      7.549  0.3859E-01  0.2457E+00
      7.642  0.3053E-01  0.2486E+00
      7.734  0.3483E-01  0.2518E+00
      7.827  0.3041E-01  0.2546E+00
      7.919  0.2622E-01  0.2570E+00
      8.012  0.2284E-01  0.2591E+00
      8.104  0.4312E-01  0.2631E+00
      8.196  0.6201E-01  0.2688E+00
      8.289  0.3719E-01  0.2723E+00
      8.381  0.4470E-01  0.2764E+00
      8.474  0.2904E-01  0.2791E+00
      8.566  0.5052E-01  0.2838E+00
      8.659  0.5609E-01  0.2890E+00
      8.751  0.4790E-01  0.2934E+00
      8.843  0.4320E-01  0.2974E+00
      8.936  0.4013E-01  0.3011E+00
      9.028  0.5426E-01  0.3061E+00
      9.121  0.4658E-01  0.3104E+00
      9.213  0.3208E-01  0.3134E+00
      9.306  0.4610E-01  0.3176E+00
      9.398  0.5208E-01  0.3225E+00
      9.490  0.3667E-01  0.3258E+00
      9.583  0.4749E-01  0.3302E+00
      9.675  0.5073E-01  0.3349E+00
      9.768  0.4531E-01  0.3391E+00
      9.860  0.3606E-01  0.3424E+00
      9.953  0.3320E-01  0.3455E+00
     10.045  0.3164E-01  0.3484E+00
     10.138  0.2389E-01  0.3506E+00
     10.230  0.2710E-01  0.3531E+00
     10.322  0.1832E-01  0.3548E+00
     10.415  0.1705E-01  0.3564E+00
     10.507  0.1452E-01  0.3578E+00
     10.600  0.1207E-01  0.3589E+00
     10.692  0.1158E-01  0.3599E+00
     10.785  0.5677E-03  0.3600E+00
     10.877  0.1678E-06  0.3600E+00
     10.969  0.1059E-12  0.3600E+00
     11.062  0.0000E+00  0.3600E+00
     11.154  0.0000E+00  0.3600E+00
     11.247  0.0000E+00  0.3600E+00
     11.339  0.0000E+00  0.3600E+00
     11.432  0.0000E+00  0.3600E+00
     11.524  0.0000E+00  0.3600E+00
     11.616  0.0000E+00  0.3600E+00
     11.709  0.0000E+00  0.3600E+00
     11.801  0.0000E+00  0.3600E+00
     11.894  0.0000E+00  0.3600E+00
     11.986  0.1544E-13  0.3600E+00
     12.079  0.2943E-07  0.3600E+00
     12.171  0.8591E-04  0.3600E+00
     12.264  0.1053E-02  0.3601E+00
     12.356  0.1936E-02  0.3603E+00
     12.448  0.1223E-02  0.3604E+00
     12.541  0.5717E-02  0.3609E+00
     12.633  0.4273E-02  0.3613E+00
     12.726  0.4515E-02  0.3617E+00
     12.818  0.3699E-02  0.3621E+00
     12.911  0.9027E-02  0.3629E+00
     13.003  0.1077E-01  0.3639E+00
     13.095  0.4981E-02  0.3644E+00
     13.188  0.6250E-03  0.3644E+00
     13.280  0.8442E-02  0.3652E+00
     13.373  0.1765E-01  0.3668E+00
     13.465  0.1644E-01  0.3684E+00
     13.558  0.1383E-01  0.3696E+00
     13.650  0.1773E-01  0.3713E+00
     13.743  0.1715E-01  0.3729E+00
     13.835  0.9091E-02  0.3737E+00
     13.927  0.8544E-02  0.3745E+00
     14.020  0.1019E-01  0.3754E+00
     14.112  0.7145E-02  0.3761E+00
     14.205  0.1747E-01  0.3777E+00
     14.297  0.2659E-01  0.3802E+00
     14.390  0.2324E-01  0.3823E+00
     14.482  0.1213E-01  0.3834E+00
     14.574  0.5986E-02  0.3840E+00
     14.667  0.1588E-01  0.3855E+00
     14.759  0.7654E-02  0.3862E+00
     14.852  0.1318E-01  0.3874E+00
     14.944  0.1499E-01  0.3888E+00
     15.037  0.2060E-01  0.3907E+00
     15.129  0.9151E-02  0.3915E+00
     15.221  0.2002E-01  0.3934E+00
     15.314  0.2236E-01  0.3954E+00
     15.406  0.4027E-01  0.3992E+00
     15.499  0.3436E-01  0.4023E+00
     15.591  0.1483E-01  0.4037E+00
     15.684  0.1642E-01  0.4052E+00
     15.776  0.1010E-01  0.4062E+00
     15.869  0.1267E-01  0.4073E+00
     15.961  0.1326E-01  0.4086E+00
     16.053  0.1088E-01  0.4096E+00
     16.146  0.8885E-02  0.4104E+00
     16.238  0.1543E-01  0.4118E+00
     16.331  0.1587E-01  0.4133E+00
     16.423  0.2017E-01  0.4151E+00
     16.516  0.3321E-01  0.4182E+00
     16.608  0.7953E-02  0.4189E+00
     16.700  0.1320E-01  0.4202E+00
     16.793  0.2632E-01  0.4226E+00
     16.885  0.2968E-01  0.4253E+00
     16.978  0.3251E-01  0.4283E+00
     17.070  0.2084E-01  0.4303E+00
     17.163  0.3014E-01  0.4331E+00
     17.255  0.3389E-01  0.4362E+00
     17.347  0.2433E-01  0.4384E+00
     17.440  0.3572E-01  0.4417E+00
     17.532  0.4055E-01  0.4455E+00
     17.625  0.3443E-01  0.4487E+00
     17.717  0.5030E-01  0.4533E+00
     17.810  0.4819E-01  0.4578E+00
     17.902  0.4196E-01  0.4617E+00
     17.995  0.3377E-01  0.4648E+00
     18.087  0.1851E-01  0.4665E+00
     18.179  0.2263E-01  0.4686E+00
     18.272  0.1907E-01  0.4703E+00
     18.364  0.2024E-01  0.4722E+00
     18.457  0.2073E-01  0.4741E+00
     18.549  0.1107E-01  0.4752E+00
     18.642  0.1354E-01  0.4764E+00
     18.734  0.2071E-01  0.4783E+00
     18.826  0.6738E-02  0.4789E+00
     18.919  0.1998E-02  0.4791E+00
     19.011  0.5693E-02  0.4797E+00
     19.104  0.1879E-02  0.4798E+00
     19.196  0.1773E-02  0.4800E+00
     19.289  0.1083E-03  0.4800E+00
     19.381  0.2123E-07  0.4800E+00
     19.474  0.6169E-14  0.4800E+00
     19.566  0.0000E+00  0.4800E+00
     19.658  0.0000E+00  0.4800E+00
     19.751  0.0000E+00  0.4800E+00
     19.843  0.0000E+00  0.4800E+00
     19.936  0.0000E+00  0.4800E+00
     20.028  0.0000E+00  0.4800E+00
     20.121  0.0000E+00  0.4800E+00
     20.213  0.0000E+00  0.4800E+00
     20.305  0.0000E+00  0.4800E+00
     20.398  0.0000E+00  0.4800E+00
