Al4C3 R-3m - r2SCAN H(P) scan @ 90 GPa (
           1
     3.025113    0.000000    0.000000
    -1.512556    2.619825    0.000000
     0.000000    0.000000   22.615756
   Al   C 
    12     9
Direct configuration=     1
   0.00000000  0.00000000  0.62922726
   0.00000000  0.00000000  0.37077274
   0.66666669  0.33333334  0.96256057
   0.66666669  0.33333334  0.70410606
   0.33333334  0.66666669  0.29589391
   0.33333334  0.66666669  0.03743941
   0.00000000  0.00000000  0.20592832
   0.00000000  0.00000000  0.79407168
   0.66666669  0.33333334  0.53926163
   0.66666669  0.33333334  0.12740501
   0.33333334  0.66666669  0.87259500
   0.33333334  0.66666669  0.46073834
   0.00000000  0.00000000  0.71664402
   0.00000000  0.00000000  0.28335598
   0.66666669  0.33333334  0.04997735
   0.66666669  0.33333334  0.61668930
   0.33333334  0.66666669  0.38331067
   0.33333334  0.66666669  0.95002267
   0.00000000  0.00000000  0.50000000
   0.66666669  0.33333334  0.83333331
   0.33333334  0.66666669  0.16666667
Al4C3 R-3m - r2SCAN H(P) scan @ 90 GPa (
           1
     3.002702    0.000000    0.000000
    -1.501351    2.600416    0.000000
     0.000000    0.000000   22.448212
   Al   C 
    12     9
Direct configuration=     2
   0.00000000 -0.00000000  0.62950655
  -0.00000000  0.00000000  0.37049345
   0.66666669  0.33333334  0.96283987
   0.66666669  0.33333334  0.70382676
   0.33333334  0.66666669  0.29617321
   0.33333334  0.66666669  0.03716011
   0.00000000  0.00000000  0.20598844
  -0.00000000  0.00000000  0.79401156
   0.66666669  0.33333334  0.53932175
   0.66666669  0.33333334  0.12734489
   0.33333334  0.66666669  0.87265512
   0.33333334  0.66666669  0.46067822
  -0.00000000  0.00000000  0.71680175
   0.00000000 -0.00000000  0.28319825
   0.66666669  0.33333334  0.05013508
   0.66666669  0.33333334  0.61653156
   0.33333334  0.66666669  0.38346841
   0.33333334  0.66666669  0.94986494
   0.00000000 -0.00000000  0.50000000
   0.66666669  0.33333334  0.83333331
   0.33333334  0.66666669  0.16666667
Al4C3 R-3m - r2SCAN H(P) scan @ 90 GPa (
           1
     3.018699    0.000000    0.000000
    -1.509350    2.614270    0.000000
     0.000000    0.000000   22.567806
   Al   C 
    12     9
Direct configuration=     3
   0.00000000 -0.00000000  0.62930570
  -0.00000000  0.00000000  0.37069430
   0.66666669  0.33333334  0.96263902
   0.66666669  0.33333334  0.70402761
   0.33333334  0.66666669  0.29597236
   0.33333334  0.66666669  0.03736097
   0.00000000  0.00000000  0.20594520
  -0.00000000  0.00000000  0.79405480
   0.66666669  0.33333334  0.53927852
   0.66666669  0.33333334  0.12738812
   0.33333334  0.66666669  0.87261189
   0.33333334  0.66666669  0.46072145
  -0.00000000  0.00000000  0.71668832
   0.00000000 -0.00000000  0.28331168
   0.66666669  0.33333334  0.05002165
   0.66666669  0.33333334  0.61664500
   0.33333334  0.66666669  0.38335497
   0.33333334  0.66666669  0.94997837
   0.00000000 -0.00000000  0.50000000
   0.66666669  0.33333334  0.83333331
   0.33333334  0.66666669  0.16666667
Al4C3 R-3m - r2SCAN H(P) scan @ 90 GPa (
           1
     3.018735    0.000000    0.000000
    -1.509368    2.614302    0.000000
     0.000000    0.000000   22.568078
   Al   C 
    12     9
Direct configuration=     4
   0.00000000 -0.00000000  0.62930525
  -0.00000000  0.00000000  0.37069475
   0.66666669  0.33333334  0.96263856
   0.66666669  0.33333334  0.70402807
   0.33333334  0.66666669  0.29597190
   0.33333334  0.66666669  0.03736142
   0.00000000  0.00000000  0.20594511
  -0.00000000  0.00000000  0.79405489
   0.66666669  0.33333334  0.53927842
   0.66666669  0.33333334  0.12738822
   0.33333334  0.66666669  0.87261179
   0.33333334  0.66666669  0.46072155
  -0.00000000  0.00000000  0.71668806
   0.00000000 -0.00000000  0.28331194
   0.66666669  0.33333334  0.05002139
   0.66666669  0.33333334  0.61664525
   0.33333334  0.66666669  0.38335472
   0.33333334  0.66666669  0.94997863
   0.00000000 -0.00000000  0.50000000
   0.66666669  0.33333334  0.83333331
   0.33333334  0.66666669  0.16666667
Al4C3 R-3m - r2SCAN H(P) scan @ 90 GPa (
           1
     3.018918    0.000000    0.000000
    -1.509459    2.614460    0.000000
     0.000000    0.000000   22.569446
   Al   C 
    12     9
Direct configuration=     5
   0.00000000  0.00000000  0.62944646
  -0.00000000 -0.00000000  0.37055354
   0.66666669  0.33333334  0.96277977
   0.66666669  0.33333334  0.70388685
   0.33333334  0.66666669  0.29611312
   0.33333334  0.66666669  0.03722021
   0.00000000 -0.00000000  0.20587969
  -0.00000000  0.00000000  0.79412031
   0.66666669  0.33333334  0.53921301
   0.66666669  0.33333334  0.12745363
   0.33333334  0.66666669  0.87254638
   0.33333334  0.66666669  0.46078696
  -0.00000000 -0.00000000  0.71669690
  -0.00000000 -0.00000000  0.28330310
   0.66666669  0.33333334  0.05003023
   0.66666669  0.33333334  0.61663642
   0.33333334  0.66666669  0.38336355
   0.33333334  0.66666669  0.94996979
   0.00000000 -0.00000000  0.50000000
   0.66666669  0.33333334  0.83333331
   0.33333334  0.66666669  0.16666667
Al4C3 R-3m - r2SCAN H(P) scan @ 90 GPa (
           1
     3.018861    0.000000    0.000000
    -1.509430    2.614410    0.000000
     0.000000    0.000000   22.569017
   Al   C 
    12     9
Direct configuration=     6
   0.00000000  0.00000000  0.62940217
  -0.00000000 -0.00000000  0.37059783
   0.66666669  0.33333334  0.96273548
   0.66666669  0.33333334  0.70393115
   0.33333334  0.66666669  0.29606882
   0.33333334  0.66666669  0.03726450
   0.00000000 -0.00000000  0.20590021
  -0.00000000  0.00000000  0.79409979
   0.66666669  0.33333334  0.53923352
   0.66666669  0.33333334  0.12743312
   0.33333334  0.66666669  0.87256690
   0.33333334  0.66666669  0.46076645
  -0.00000000 -0.00000000  0.71669413
  -0.00000000 -0.00000000  0.28330587
   0.66666669  0.33333334  0.05002746
   0.66666669  0.33333334  0.61663919
   0.33333334  0.66666669  0.38336078
   0.33333334  0.66666669  0.94997256
   0.00000000 -0.00000000  0.50000000
   0.66666669  0.33333334  0.83333331
   0.33333334  0.66666669  0.16666667
Al4C3 R-3m - r2SCAN H(P) scan @ 90 GPa (
           1
     3.019250    0.000000    0.000000
    -1.509625    2.614747    0.000000
     0.000000    0.000000   22.571923
   Al   C 
    12     9
Direct configuration=     7
   0.00000000  0.00000000  0.62945784
  -0.00000000 -0.00000000  0.37054216
   0.66666669  0.33333334  0.96279115
   0.66666669  0.33333334  0.70387548
   0.33333334  0.66666669  0.29612449
   0.33333334  0.66666669  0.03720883
   0.00000000 -0.00000000  0.20593406
  -0.00000000  0.00000000  0.79406594
   0.66666669  0.33333334  0.53926737
   0.66666669  0.33333334  0.12739927
   0.33333334  0.66666669  0.87260074
   0.33333334  0.66666669  0.46073260
  -0.00000000  0.00000000  0.71674682
   0.00000000 -0.00000000  0.28325318
   0.66666669  0.33333334  0.05008015
   0.66666669  0.33333334  0.61658650
   0.33333334  0.66666669  0.38341347
   0.33333334  0.66666669  0.94991987
   0.00000000  0.00000000  0.50000000
   0.66666669  0.33333334  0.83333331
   0.33333334  0.66666669  0.16666667
Al4C3 R-3m - r2SCAN H(P) scan @ 90 GPa (
           1
     3.019000    0.000000    0.000000
    -1.509500    2.614531    0.000000
     0.000000    0.000000   22.570057
   Al   C 
    12     9
Direct configuration=     8
   0.00000000  0.00000000  0.62942210
  -0.00000000 -0.00000000  0.37057790
   0.66666669  0.33333334  0.96275541
   0.66666669  0.33333334  0.70391122
   0.33333334  0.66666669  0.29608875
   0.33333334  0.66666669  0.03724457
   0.00000000 -0.00000000  0.20591233
  -0.00000000  0.00000000  0.79408767
   0.66666669  0.33333334  0.53924564
   0.66666669  0.33333334  0.12742100
   0.33333334  0.66666669  0.87257901
   0.33333334  0.66666669  0.46075433
  -0.00000000  0.00000000  0.71671299
   0.00000000 -0.00000000  0.28328701
   0.66666669  0.33333334  0.05004632
   0.66666669  0.33333334  0.61662032
   0.33333334  0.66666669  0.38337965
   0.33333334  0.66666669  0.94995370
   0.00000000  0.00000000  0.50000000
   0.66666669  0.33333334  0.83333331
   0.33333334  0.66666669  0.16666667
