Al4C3 Pnma (POSCAR.IV, symmetrized via s
   1.00000000000000     
     8.4276431937238083    0.0000000000000000    0.0000000000000000
     0.0000000000000000    2.9073837474038546    0.0000000000000000
     0.0000000000000000    0.0000000000000000   10.0180945592300947
   Al   C 
    16    12
Direct
  0.2662130008806758  0.2500000000000000  0.2997386864345276
  0.2337869991193242  0.7500000000000000  0.7997386864345275
  0.7337869991193240  0.7500000000000000  0.7002613135654725
  0.7662130008806760  0.2500000000000000  0.2002613135654724
  0.3508538998824540  0.2500000000000000  0.0126767440824120
  0.1491461001175460  0.7500000000000000  0.5126767440824120
  0.6491461001175461  0.7500000000000000  0.9873232559175880
  0.8508538998824539  0.2500000000000000  0.4873232559175880
  0.5206145662308784  0.2500000000000000  0.7945252322349375
  0.9793854337691216  0.7500000000000000  0.2945252322349375
  0.4793854337691216  0.7500000000000000  0.2054747677650625
  0.0206145662308784  0.2500000000000000  0.7054747677650625
  0.0724600714929683  0.2500000000000000  0.0880211430589271
  0.4275399285070387  0.7500000000000000  0.5880211430589274
  0.9275399285070318  0.7500000000000000  0.9119788569410726
  0.5724600714929682  0.2500000000000000  0.4119788569410729
  0.2549545112193528  0.2500000000000000  0.6413222410934842
  0.2450454887806471  0.7500000000000000  0.1413222410934841
  0.7450454887806470  0.7500000000000000  0.3586777589065159
  0.7549545112193530  0.2500000000000000  0.8586777589065158
  0.5992857851931621  0.2500000000000000  0.6098392695272543
  0.9007142148068379  0.7500000000000000  0.1098392695272545
  0.4007142148068450  0.7500000000000000  0.3901607304727455
  0.0992857851931621  0.2500000000000000  0.8901607304727457
  0.0668414205795650  0.2500000000000000  0.3879365316533835
  0.4331585794204351  0.7500000000000000  0.8879365316533838
  0.9331585794204349  0.7500000000000000  0.6120634683466162
  0.5668414205795651  0.2500000000000000  0.1120634683466164
 
  0.00000000E+00  0.00000000E+00  0.00000000E+00
  0.00000000E+00  0.00000000E+00  0.00000000E+00
  0.00000000E+00  0.00000000E+00  0.00000000E+00
  0.00000000E+00  0.00000000E+00  0.00000000E+00
  0.00000000E+00  0.00000000E+00  0.00000000E+00
  0.00000000E+00  0.00000000E+00  0.00000000E+00
  0.00000000E+00  0.00000000E+00  0.00000000E+00
  0.00000000E+00  0.00000000E+00  0.00000000E+00
  0.00000000E+00  0.00000000E+00  0.00000000E+00
  0.00000000E+00  0.00000000E+00  0.00000000E+00
  0.00000000E+00  0.00000000E+00  0.00000000E+00
  0.00000000E+00  0.00000000E+00  0.00000000E+00
  0.00000000E+00  0.00000000E+00  0.00000000E+00
  0.00000000E+00  0.00000000E+00  0.00000000E+00
  0.00000000E+00  0.00000000E+00  0.00000000E+00
  0.00000000E+00  0.00000000E+00  0.00000000E+00
  0.00000000E+00  0.00000000E+00  0.00000000E+00
  0.00000000E+00  0.00000000E+00  0.00000000E+00
  0.00000000E+00  0.00000000E+00  0.00000000E+00
  0.00000000E+00  0.00000000E+00  0.00000000E+00
  0.00000000E+00  0.00000000E+00  0.00000000E+00
  0.00000000E+00  0.00000000E+00  0.00000000E+00
  0.00000000E+00  0.00000000E+00  0.00000000E+00
  0.00000000E+00  0.00000000E+00  0.00000000E+00
  0.00000000E+00  0.00000000E+00  0.00000000E+00
  0.00000000E+00  0.00000000E+00  0.00000000E+00
  0.00000000E+00  0.00000000E+00  0.00000000E+00
  0.00000000E+00  0.00000000E+00  0.00000000E+00
