  28  28   0   0
  0.8887350E+01  0.8466132E-09  0.2920662E-09  0.1006385E-08  0.5000000E-15
  1.000000000000000E-004
  CAR 
 Al4C3 Pnma - r2SCAN H(P) scan @ 30 GPa (
     20.04672670     -6.96550787  301     11.58852075      1.00000000
     -6.966  0.0000E+00  0.0000E+00
     -6.875  0.0000E+00  0.0000E+00
     -6.785  0.0000E+00  0.0000E+00
     -6.695  0.0000E+00  0.0000E+00
     -6.605  0.0000E+00  0.0000E+00
     -6.515  0.0000E+00  0.0000E+00
     -6.425  0.0000E+00  0.0000E+00
     -6.335  0.0000E+00  0.0000E+00
     -6.245  0.0000E+00  0.0000E+00
     -6.155  0.0000E+00  0.0000E+00
     -6.065  0.0000E+00  0.0000E+00
     -5.975  0.5969E-14  0.5375E-15
     -5.885  0.9721E-08  0.8753E-09
     -5.795  0.3321E-04  0.2991E-05
     -5.705  0.6108E-03  0.5799E-04
     -5.615  0.2448E-02  0.2784E-03
     -5.525  0.4864E-02  0.7163E-03
     -5.435  0.5662E-02  0.1226E-02
     -5.345  0.5107E-02  0.1686E-02
     -5.255  0.5738E-02  0.2203E-02
     -5.165  0.9005E-02  0.3013E-02
     -5.075  0.1176E-01  0.4072E-02
     -4.985  0.8738E-02  0.4859E-02
     -4.895  0.7370E-02  0.5522E-02
     -4.805  0.9720E-02  0.6397E-02
     -4.714  0.1054E-01  0.7347E-02
     -4.624  0.7715E-02  0.8041E-02
     -4.534  0.8394E-02  0.8797E-02
     -4.444  0.1575E-01  0.1021E-01
     -4.354  0.1809E-01  0.1184E-01
     -4.264  0.1144E-01  0.1287E-01
     -4.174  0.9163E-02  0.1370E-01
     -4.084  0.1309E-01  0.1488E-01
     -3.994  0.1798E-01  0.1650E-01
     -3.904  0.1452E-01  0.1780E-01
     -3.814  0.1529E-01  0.1918E-01
     -3.724  0.7816E-02  0.1988E-01
     -3.634  0.1482E-01  0.2122E-01
     -3.544  0.1638E-01  0.2269E-01
     -3.454  0.2389E-01  0.2484E-01
     -3.364  0.2037E-01  0.2668E-01
     -3.274  0.2118E-01  0.2859E-01
     -3.184  0.1450E-01  0.2989E-01
     -3.094  0.1548E-01  0.3129E-01
     -3.004  0.1511E-01  0.3265E-01
     -2.914  0.1970E-01  0.3442E-01
     -2.824  0.2618E-01  0.3678E-01
     -2.734  0.1518E-01  0.3814E-01
     -2.644  0.1805E-01  0.3977E-01
     -2.554  0.2810E-01  0.4230E-01
     -2.463  0.3490E-01  0.4544E-01
     -2.373  0.2267E-01  0.4748E-01
     -2.283  0.2718E-01  0.4993E-01
     -2.193  0.1863E-01  0.5161E-01
     -2.103  0.2280E-01  0.5366E-01
     -2.013  0.2318E-01  0.5575E-01
     -1.923  0.3269E-01  0.5869E-01
     -1.833  0.3483E-01  0.6183E-01
     -1.743  0.3062E-01  0.6458E-01
     -1.653  0.4176E-01  0.6835E-01
     -1.563  0.3933E-01  0.7189E-01
     -1.473  0.3495E-01  0.7503E-01
     -1.383  0.4500E-01  0.7909E-01
     -1.293  0.5590E-01  0.8412E-01
     -1.203  0.5746E-01  0.8929E-01
     -1.113  0.3475E-01  0.9242E-01
     -1.023  0.2921E-01  0.9505E-01
     -0.933  0.3001E-01  0.9775E-01
     -0.843  0.2699E-01  0.1002E+00
     -0.753  0.2221E-01  0.1022E+00
     -0.663  0.1479E-01  0.1035E+00
     -0.573  0.1551E-01  0.1049E+00
     -0.483  0.8966E-02  0.1057E+00
     -0.393  0.1562E-01  0.1071E+00
     -0.302  0.1970E-01  0.1089E+00
     -0.212  0.1540E-01  0.1103E+00
     -0.122  0.1804E-01  0.1119E+00
     -0.032  0.1487E-01  0.1132E+00
      0.058  0.1204E-01  0.1143E+00
      0.148  0.8463E-02  0.1151E+00
      0.238  0.1012E-01  0.1160E+00
      0.328  0.1433E-01  0.1173E+00
      0.418  0.7139E-02  0.1179E+00
      0.508  0.1058E-01  0.1189E+00
      0.598  0.8359E-02  0.1196E+00
      0.688  0.3718E-02  0.1200E+00
      0.778  0.2194E-03  0.1200E+00
      0.868  0.8103E-07  0.1200E+00
      0.958  0.6864E-13  0.1200E+00
      1.048  0.0000E+00  0.1200E+00
      1.138  0.0000E+00  0.1200E+00
      1.228  0.0000E+00  0.1200E+00
      1.318  0.0000E+00  0.1200E+00
      1.408  0.0000E+00  0.1200E+00
      1.498  0.2371E-12  0.1200E+00
      1.588  0.9732E-07  0.1200E+00
      1.678  0.9137E-04  0.1200E+00
      1.768  0.8361E-03  0.1201E+00
      1.858  0.2843E-02  0.1203E+00
      1.949  0.3708E-02  0.1207E+00
      2.039  0.4057E-02  0.1210E+00
      2.129  0.5660E-02  0.1215E+00
      2.219  0.1100E-01  0.1225E+00
      2.309  0.2381E-01  0.1247E+00
      2.399  0.2834E-01  0.1272E+00
      2.489  0.2051E-01  0.1291E+00
      2.579  0.2822E-01  0.1316E+00
      2.669  0.3659E-01  0.1349E+00
      2.759  0.2367E-01  0.1370E+00
      2.849  0.4416E-01  0.1410E+00
      2.939  0.3601E-01  0.1443E+00
      3.029  0.3715E-01  0.1476E+00
      3.119  0.2965E-01  0.1503E+00
      3.209  0.4007E-01  0.1539E+00
      3.299  0.4239E-01  0.1577E+00
      3.389  0.3714E-01  0.1611E+00
      3.479  0.3609E-01  0.1643E+00
      3.569  0.3460E-01  0.1674E+00
      3.659  0.3601E-01  0.1707E+00
      3.749  0.3543E-01  0.1738E+00
      3.839  0.4920E-01  0.1783E+00
      3.929  0.5084E-01  0.1829E+00
      4.019  0.2074E-01  0.1847E+00
      4.110  0.2532E-01  0.1870E+00
      4.200  0.3678E-01  0.1903E+00
      4.290  0.2734E-01  0.1928E+00
      4.380  0.3055E-01  0.1955E+00
      4.470  0.3240E-01  0.1984E+00
      4.560  0.3309E-01  0.2014E+00
      4.650  0.3832E-01  0.2049E+00
      4.740  0.3799E-01  0.2083E+00
      4.830  0.4270E-01  0.2121E+00
      4.920  0.4271E-01  0.2160E+00
      5.010  0.3609E-01  0.2192E+00
      5.100  0.3076E-01  0.2220E+00
      5.190  0.3585E-01  0.2252E+00
      5.280  0.3258E-01  0.2282E+00
      5.370  0.2957E-01  0.2308E+00
      5.460  0.3164E-01  0.2337E+00
      5.550  0.3111E-01  0.2365E+00
      5.640  0.2672E-01  0.2389E+00
      5.730  0.4458E-01  0.2429E+00
      5.820  0.4677E-01  0.2471E+00
      5.910  0.4891E-01  0.2515E+00
      6.000  0.4261E-01  0.2554E+00
      6.090  0.5327E-01  0.2601E+00
      6.180  0.3762E-01  0.2635E+00
      6.270  0.5345E-01  0.2683E+00
      6.361  0.3416E-01  0.2714E+00
      6.451  0.3440E-01  0.2745E+00
      6.541  0.4688E-01  0.2787E+00
      6.631  0.4142E-01  0.2825E+00
      6.721  0.4582E-01  0.2866E+00
      6.811  0.4175E-01  0.2904E+00
      6.901  0.3722E-01  0.2937E+00
      6.991  0.3417E-01  0.2968E+00
      7.081  0.4106E-01  0.3005E+00
      7.171  0.4021E-01  0.3041E+00
      7.261  0.4629E-01  0.3083E+00
      7.351  0.4977E-01  0.3128E+00
      7.441  0.3800E-01  0.3162E+00
      7.531  0.3466E-01  0.3193E+00
      7.621  0.4224E-01  0.3231E+00
      7.711  0.4257E-01  0.3269E+00
      7.801  0.4737E-01  0.3312E+00
      7.891  0.5438E-01  0.3361E+00
      7.981  0.5867E-01  0.3414E+00
      8.071  0.3772E-01  0.3448E+00
      8.161  0.3533E-01  0.3480E+00
      8.251  0.3472E-01  0.3511E+00
      8.341  0.6325E-01  0.3568E+00
      8.431  0.4026E-01  0.3604E+00
      8.522  0.3708E-01  0.3637E+00
      8.612  0.4199E-01  0.3675E+00
      8.702  0.3752E-01  0.3709E+00
      8.792  0.5045E-01  0.3754E+00
      8.882  0.5873E-01  0.3807E+00
      8.972  0.5096E-01  0.3853E+00
      9.062  0.6434E-01  0.3911E+00
      9.152  0.5887E-01  0.3964E+00
      9.242  0.4864E-01  0.4008E+00
      9.332  0.5508E-01  0.4058E+00
      9.422  0.5629E-01  0.4108E+00
      9.512  0.5464E-01  0.4157E+00
      9.602  0.6612E-01  0.4217E+00
      9.692  0.7445E-01  0.4284E+00
      9.782  0.7768E-01  0.4354E+00
      9.872  0.4899E-01  0.4398E+00
      9.962  0.5855E-01  0.4451E+00
     10.052  0.6773E-01  0.4512E+00
     10.142  0.4494E-01  0.4552E+00
     10.232  0.4194E-01  0.4590E+00
     10.322  0.4744E-01  0.4633E+00
     10.412  0.4483E-01  0.4673E+00
     10.502  0.2553E-01  0.4696E+00
     10.592  0.2915E-01  0.4722E+00
     10.682  0.2189E-01  0.4742E+00
     10.773  0.1490E-01  0.4755E+00
     10.863  0.1058E-01  0.4765E+00
     10.953  0.1137E-01  0.4775E+00
     11.043  0.1007E-01  0.4784E+00
     11.133  0.5876E-02  0.4790E+00
     11.223  0.5866E-02  0.4795E+00
     11.313  0.4282E-02  0.4799E+00
     11.403  0.1480E-02  0.4800E+00
     11.493  0.3061E-04  0.4800E+00
     11.583  0.5903E-08  0.4800E+00
     11.673  0.2696E-14  0.4800E+00
     11.763  0.0000E+00  0.4800E+00
     11.853  0.0000E+00  0.4800E+00
     11.943  0.0000E+00  0.4800E+00
     12.033  0.0000E+00  0.4800E+00
     12.123  0.0000E+00  0.4800E+00
     12.213  0.4571E-14  0.4800E+00
     12.303  0.1338E-07  0.4800E+00
     12.393  0.7976E-04  0.4800E+00
     12.483  0.1830E-02  0.4802E+00
     12.573  0.1826E-02  0.4803E+00
     12.663  0.9287E-02  0.4812E+00
     12.753  0.5797E-02  0.4817E+00
     12.843  0.7226E-02  0.4823E+00
     12.934  0.2117E-01  0.4843E+00
     13.024  0.2788E-01  0.4868E+00
     13.114  0.2367E-01  0.4889E+00
     13.204  0.1251E-01  0.4900E+00
     13.294  0.8051E-02  0.4907E+00
     13.384  0.6486E-02  0.4913E+00
     13.474  0.1485E-01  0.4927E+00
     13.564  0.1197E-01  0.4937E+00
     13.654  0.2930E-01  0.4964E+00
     13.744  0.3518E-01  0.4995E+00
     13.834  0.3350E-01  0.5026E+00
     13.924  0.2952E-01  0.5052E+00
     14.014  0.1959E-01  0.5070E+00
     14.104  0.2096E-01  0.5089E+00
     14.194  0.2441E-01  0.5111E+00
     14.284  0.4054E-01  0.5147E+00
     14.374  0.3284E-01  0.5177E+00
     14.464  0.2365E-01  0.5198E+00
     14.554  0.2312E-01  0.5219E+00
     14.644  0.2150E-01  0.5238E+00
     14.734  0.1588E-01  0.5253E+00
     14.824  0.1568E-01  0.5267E+00
     14.914  0.1287E-01  0.5278E+00
     15.004  0.2656E-01  0.5302E+00
     15.094  0.2431E-01  0.5324E+00
     15.185  0.1692E-01  0.5339E+00
     15.275  0.4286E-01  0.5378E+00
     15.365  0.4308E-01  0.5417E+00
     15.455  0.5315E-01  0.5465E+00
     15.545  0.4670E-01  0.5507E+00
     15.635  0.3749E-01  0.5540E+00
     15.725  0.3621E-01  0.5573E+00
     15.815  0.3567E-01  0.5605E+00
     15.905  0.2236E-01  0.5625E+00
     15.995  0.4048E-01  0.5662E+00
     16.085  0.4686E-01  0.5704E+00
     16.175  0.4718E-01  0.5746E+00
     16.265  0.2978E-01  0.5773E+00
     16.355  0.2594E-01  0.5796E+00
     16.445  0.4393E-01  0.5836E+00
     16.535  0.3745E-01  0.5870E+00
     16.625  0.2916E-01  0.5896E+00
     16.715  0.3618E-01  0.5929E+00
     16.805  0.4644E-01  0.5970E+00
     16.895  0.4053E-01  0.6007E+00
     16.985  0.2620E-01  0.6030E+00
     17.075  0.4185E-01  0.6068E+00
     17.165  0.4007E-01  0.6104E+00
     17.255  0.3195E-01  0.6133E+00
     17.346  0.3652E-01  0.6166E+00
     17.436  0.3394E-01  0.6196E+00
     17.526  0.3819E-01  0.6231E+00
     17.616  0.3321E-01  0.6261E+00
     17.706  0.3889E-01  0.6296E+00
     17.796  0.3470E-01  0.6327E+00
     17.886  0.2491E-01  0.6349E+00
     17.976  0.3441E-01  0.6380E+00
     18.066  0.3668E-01  0.6413E+00
     18.156  0.3673E-01  0.6447E+00
     18.246  0.2652E-01  0.6470E+00
     18.336  0.2647E-01  0.6494E+00
     18.426  0.1892E-01  0.6511E+00
     18.516  0.3006E-01  0.6538E+00
     18.606  0.3017E-01  0.6565E+00
     18.696  0.2641E-01  0.6589E+00
     18.786  0.1027E-01  0.6599E+00
     18.876  0.1572E-02  0.6600E+00
     18.966  0.6755E-04  0.6600E+00
     19.056  0.1945E-07  0.6600E+00
     19.146  0.1194E-13  0.6600E+00
     19.236  0.0000E+00  0.6600E+00
     19.326  0.0000E+00  0.6600E+00
     19.416  0.0000E+00  0.6600E+00
     19.506  0.0000E+00  0.6600E+00
     19.597  0.0000E+00  0.6600E+00
     19.687  0.0000E+00  0.6600E+00
     19.777  0.0000E+00  0.6600E+00
     19.867  0.0000E+00  0.6600E+00
     19.957  0.0000E+00  0.6600E+00
     20.047  0.0000E+00  0.6600E+00
