Al4C3 Pnma - r2SCAN H(P) scan @ 30 GPa (
           1
     8.466132    0.000000    0.000000
     0.000000    2.920662    0.000000
     0.000000    0.000000   10.063847
   Al   C 
    16    12
Direct configuration=     1
   0.26536628  0.25000000  0.29980943
   0.23463372  0.75000000  0.79980943
   0.73463372  0.75000000  0.70019057
   0.76536628  0.25000000  0.20019057
   0.35056840  0.25000000  0.01250821
   0.14943160  0.75000000  0.51250821
   0.64943160  0.75000000  0.98749179
   0.85056840  0.25000000  0.48749179
   0.52107318  0.25000000  0.79449425
   0.97892682  0.75000000  0.29449425
   0.47892682  0.75000000  0.20550575
   0.02107318  0.25000000  0.70550575
   0.07210947  0.25000000  0.08792491
   0.42789053  0.75000000  0.58792491
   0.92789053  0.75000000  0.91207509
   0.57210947  0.25000000  0.41207509
   0.25584580  0.25000000  0.64130133
   0.24415420  0.75000000  0.14130133
   0.74415420  0.75000000  0.35869867
   0.75584580  0.25000000  0.85869867
   0.60016448  0.25000000  0.60973107
   0.89983552  0.75000000  0.10973107
   0.39983552  0.75000000  0.39026893
   0.10016448  0.25000000  0.89026893
   0.06628710  0.25000000  0.38838729
   0.43371290  0.75000000  0.88838729
   0.93371290  0.75000000  0.61161271
   0.56628710  0.25000000  0.11161271
Al4C3 Pnma - r2SCAN H(P) scan @ 30 GPa (
           1
     8.369629    0.000000    0.000000
     0.000000    2.887370    0.000000
     0.000000    0.000000    9.949132
   Al   C 
    16    12
Direct configuration=     2
   0.26544149  0.25000000  0.29979360
   0.23455851  0.75000000  0.79979360
   0.73455851  0.75000000  0.70020640
   0.76544149  0.25000000  0.20020640
   0.35075629  0.25000000  0.01262790
   0.14924371  0.75000000  0.51262790
   0.64924371  0.75000000  0.98737210
   0.85075629  0.25000000  0.48737210
   0.52121097  0.25000000  0.79473159
   0.97878903  0.75000000  0.29473159
   0.47878903  0.75000000  0.20526841
   0.02121097  0.25000000  0.70526841
   0.07210501  0.25000000  0.08791318
   0.42789499  0.75000000  0.58791318
   0.92789499  0.75000000  0.91208682
   0.57210501  0.25000000  0.41208682
   0.25539952  0.25000000  0.64145293
   0.24460048  0.75000000  0.14145293
   0.74460048  0.75000000  0.35854707
   0.75539952  0.25000000  0.85854707
   0.59972739  0.25000000  0.60994039
   0.90027261  0.75000000  0.10994039
   0.40027261  0.75000000  0.39005961
   0.09972739  0.25000000  0.89005961
   0.06627989  0.25000000  0.38776895
   0.43372011  0.75000000  0.88776895
   0.93372011  0.75000000  0.61223105
   0.56627989  0.25000000  0.11223105
Al4C3 Pnma - r2SCAN H(P) scan @ 30 GPa (
           1
     8.427257    0.000000    0.000000
     0.000000    2.907251    0.000000
     0.000000    0.000000   10.017636
   Al   C 
    16    12
Direct configuration=     3
   0.26539606  0.25000000  0.29980316
   0.23460394  0.75000000  0.79980316
   0.73460394  0.75000000  0.70019684
   0.76539606  0.25000000  0.20019684
   0.35064279  0.25000000  0.01255560
   0.14935721  0.75000000  0.51255560
   0.64935721  0.75000000  0.98744440
   0.85064279  0.25000000  0.48744440
   0.52112774  0.25000000  0.79458823
   0.97887226  0.75000000  0.29458823
   0.47887226  0.75000000  0.20541177
   0.02112774  0.25000000  0.70541177
   0.07210771  0.25000000  0.08792026
   0.42789229  0.75000000  0.58792026
   0.92789229  0.75000000  0.91207974
   0.57210771  0.25000000  0.41207974
   0.25566909  0.25000000  0.64136136
   0.24433091  0.75000000  0.14136136
   0.74433091  0.75000000  0.35863864
   0.75566909  0.25000000  0.85863864
   0.59999141  0.25000000  0.60981395
   0.90000859  0.75000000  0.10981395
   0.40000859  0.75000000  0.39018605
   0.09999141  0.25000000  0.89018605
   0.06628424  0.25000000  0.38814246
   0.43371576  0.75000000  0.88814246
   0.93371576  0.75000000  0.61185754
   0.56628424  0.25000000  0.11185754
Al4C3 Pnma - r2SCAN H(P) scan @ 30 GPa (
           1
     8.426783    0.000000    0.000000
     0.000000    2.907087    0.000000
     0.000000    0.000000   10.017073
   Al   C 
    16    12
Direct configuration=     4
   0.26539643  0.25000000  0.29980308
   0.23460357  0.75000000  0.79980308
   0.73460357  0.75000000  0.70019692
   0.76539643  0.25000000  0.20019692
   0.35064372  0.25000000  0.01255619
   0.14935628  0.75000000  0.51255619
   0.64935628  0.75000000  0.98744381
   0.85064372  0.25000000  0.48744381
   0.52112842  0.25000000  0.79458940
   0.97887158  0.75000000  0.29458940
   0.47887158  0.75000000  0.20541060
   0.02112842  0.25000000  0.70541060
   0.07210768  0.25000000  0.08792021
   0.42789232  0.75000000  0.58792021
   0.92789232  0.75000000  0.91207979
   0.57210768  0.25000000  0.41207979
   0.25566689  0.25000000  0.64136211
   0.24433311  0.75000000  0.14136211
   0.74433311  0.75000000  0.35863789
   0.75566689  0.25000000  0.85863789
   0.59998926  0.25000000  0.60981498
   0.90001074  0.75000000  0.10981498
   0.40001074  0.75000000  0.39018502
   0.09998926  0.25000000  0.89018502
   0.06628421  0.25000000  0.38813941
   0.43371579  0.75000000  0.88813941
   0.93371579  0.75000000  0.61186059
   0.56628421  0.25000000  0.11186059
Al4C3 Pnma - r2SCAN H(P) scan @ 30 GPa (
           1
     8.426838    0.000000    0.000000
     0.000000    2.907106    0.000000
     0.000000    0.000000   10.017137
   Al   C 
    16    12
Direct configuration=     5
   0.26539639  0.25000000  0.29980309
   0.23460361  0.75000000  0.79980309
   0.73460361  0.75000000  0.70019691
   0.76539639  0.25000000  0.20019691
   0.35064361  0.25000000  0.01255612
   0.14935639  0.75000000  0.51255612
   0.64935639  0.75000000  0.98744388
   0.85064361  0.25000000  0.48744388
   0.52112834  0.25000000  0.79458926
   0.97887166  0.75000000  0.29458926
   0.47887166  0.75000000  0.20541074
   0.02112834  0.25000000  0.70541074
   0.07210769  0.25000000  0.08792021
   0.42789231  0.75000000  0.58792021
   0.92789231  0.75000000  0.91207979
   0.57210769  0.25000000  0.41207979
   0.25566714  0.25000000  0.64136202
   0.24433286  0.75000000  0.14136202
   0.74433286  0.75000000  0.35863798
   0.75566714  0.25000000  0.85863798
   0.59998950  0.25000000  0.60981486
   0.90001050  0.75000000  0.10981486
   0.40001050  0.75000000  0.39018514
   0.09998950  0.25000000  0.89018514
   0.06628421  0.25000000  0.38813975
   0.43371579  0.75000000  0.88813975
   0.93371579  0.75000000  0.61186025
   0.56628421  0.25000000  0.11186025
Al4C3 Pnma - r2SCAN H(P) scan @ 30 GPa (
           1
     8.426742    0.000000    0.000000
     0.000000    2.907073    0.000000
     0.000000    0.000000   10.017023
   Al   C 
    16    12
Direct configuration=     6
   0.26565445  0.25000000  0.29966522
   0.23434555  0.75000000  0.79966522
   0.73434555  0.75000000  0.70033478
   0.76565445  0.25000000  0.20033478
   0.35056631  0.25000000  0.01259639
   0.14943369  0.75000000  0.51259639
   0.64943369  0.75000000  0.98740361
   0.85056631  0.25000000  0.48740361
   0.52120952  0.25000000  0.79449997
   0.97879048  0.75000000  0.29449997
   0.47879048  0.75000000  0.20550003
   0.02120952  0.25000000  0.70550003
   0.07212820  0.25000000  0.08808294
   0.42787180  0.75000000  0.58808294
   0.92787180  0.75000000  0.91191706
   0.57212820  0.25000000  0.41191706
   0.25549757  0.25000000  0.64140329
   0.24450243  0.75000000  0.14140329
   0.74450243  0.75000000  0.35859671
   0.75549757  0.25000000  0.85859671
   0.59987209  0.25000000  0.60977016
   0.90012791  0.75000000  0.10977016
   0.40012791  0.75000000  0.39022984
   0.09987209  0.25000000  0.89022984
   0.06630163  0.25000000  0.38803059
   0.43369837  0.75000000  0.88803059
   0.93369837  0.75000000  0.61196941
   0.56630163  0.25000000  0.11196941
Al4C3 Pnma - r2SCAN H(P) scan @ 30 GPa (
           1
     8.426739    0.000000    0.000000
     0.000000    2.907072    0.000000
     0.000000    0.000000   10.017019
   Al   C 
    16    12
Direct configuration=     7
   0.26566266  0.25000000  0.29966084
   0.23433734  0.75000000  0.79966084
   0.73433734  0.75000000  0.70033916
   0.76566266  0.25000000  0.20033916
   0.35056385  0.25000000  0.01259767
   0.14943615  0.75000000  0.51259767
   0.64943615  0.75000000  0.98740233
   0.85056385  0.25000000  0.48740233
   0.52121210  0.25000000  0.79449713
   0.97878790  0.75000000  0.29449713
   0.47878790  0.75000000  0.20550287
   0.02121210  0.25000000  0.70550287
   0.07212886  0.25000000  0.08808812
   0.42787114  0.75000000  0.58808812
   0.92787114  0.75000000  0.91191188
   0.57212886  0.25000000  0.41191188
   0.25549218  0.25000000  0.64140460
   0.24450782  0.75000000  0.14140460
   0.74450782  0.75000000  0.35859540
   0.75549218  0.25000000  0.85859540
   0.59986835  0.25000000  0.60976874
   0.90013165  0.75000000  0.10976874
   0.40013165  0.75000000  0.39023126
   0.09986835  0.25000000  0.89023126
   0.06630219  0.25000000  0.38802712
   0.43369781  0.75000000  0.88802712
   0.93369781  0.75000000  0.61197288
   0.56630219  0.25000000  0.11197288
Al4C3 Pnma - r2SCAN H(P) scan @ 30 GPa (
           1
     8.427142    0.000000    0.000000
     0.000000    2.907211    0.000000
     0.000000    0.000000   10.017499
   Al   C 
    16    12
Direct configuration=     8
   0.26572721  0.25000000  0.29964145
   0.23427279  0.75000000  0.79964145
   0.73427279  0.75000000  0.70035855
   0.76572721  0.25000000  0.20035855
   0.35058218  0.25000000  0.01253920
   0.14941782  0.75000000  0.51253920
   0.64941782  0.75000000  0.98746080
   0.85058218  0.25000000  0.48746080
   0.52111820  0.25000000  0.79454882
   0.97888180  0.75000000  0.29454882
   0.47888180  0.75000000  0.20545118
   0.02111820  0.25000000  0.70545118
   0.07213844  0.25000000  0.08818003
   0.42786156  0.75000000  0.58818003
   0.92786156  0.75000000  0.91181997
   0.57213844  0.25000000  0.41181997
   0.25533823  0.25000000  0.64141501
   0.24466177  0.75000000  0.14141501
   0.74466177  0.75000000  0.35858499
   0.75533823  0.25000000  0.85858499
   0.59976905  0.25000000  0.60966909
   0.90023095  0.75000000  0.10966909
   0.40023095  0.75000000  0.39033091
   0.09976905  0.25000000  0.89033091
   0.06643154  0.25000000  0.38787573
   0.43356846  0.75000000  0.88787573
   0.93356846  0.75000000  0.61212427
   0.56643154  0.25000000  0.11212427
Al4C3 Pnma - r2SCAN H(P) scan @ 30 GPa (
           1
     8.427093    0.000000    0.000000
     0.000000    2.907194    0.000000
     0.000000    0.000000   10.017441
   Al   C 
    16    12
Direct configuration=     9
   0.26571944  0.25000000  0.29964378
   0.23428056  0.75000000  0.79964378
   0.73428056  0.75000000  0.70035622
   0.76571944  0.25000000  0.20035622
   0.35057997  0.25000000  0.01254624
   0.14942003  0.75000000  0.51254624
   0.64942003  0.75000000  0.98745376
   0.85057997  0.25000000  0.48745376
   0.52112950  0.25000000  0.79454261
   0.97887050  0.75000000  0.29454261
   0.47887050  0.75000000  0.20545739
   0.02112950  0.25000000  0.70545739
   0.07213729  0.25000000  0.08816897
   0.42786271  0.75000000  0.58816897
   0.92786271  0.75000000  0.91183103
   0.57213729  0.25000000  0.41183103
   0.25535675  0.25000000  0.64141375
   0.24464325  0.75000000  0.14141375
   0.74464325  0.75000000  0.35858625
   0.75535675  0.25000000  0.85858625
   0.59978099  0.25000000  0.60968108
   0.90021901  0.75000000  0.10968108
   0.40021901  0.75000000  0.39031892
   0.09978099  0.25000000  0.89031892
   0.06641598  0.25000000  0.38789395
   0.43358402  0.75000000  0.88789395
   0.93358402  0.75000000  0.61210605
   0.56641598  0.25000000  0.11210605
Al4C3 Pnma - r2SCAN H(P) scan @ 30 GPa (
           1
     8.427084    0.000000    0.000000
     0.000000    2.907191    0.000000
     0.000000    0.000000   10.017430
   Al   C 
    16    12
Direct configuration=    10
   0.26582243  0.25000000  0.29966713
   0.23417757  0.75000000  0.79966713
   0.73417757  0.75000000  0.70033287
   0.76582243  0.25000000  0.20033287
   0.35058990  0.25000000  0.01249947
   0.14941010  0.75000000  0.51249947
   0.64941010  0.75000000  0.98750053
   0.85058990  0.25000000  0.48750053
   0.52108856  0.25000000  0.79453102
   0.97891144  0.75000000  0.29453102
   0.47891144  0.75000000  0.20546898
   0.02108856  0.25000000  0.70546898
   0.07214063  0.25000000  0.08815179
   0.42785937  0.75000000  0.58815179
   0.92785937  0.75000000  0.91184821
   0.57214063  0.25000000  0.41184821
   0.25524684  0.25000000  0.64140061
   0.24475316  0.75000000  0.14140061
   0.74475316  0.75000000  0.35859939
   0.75524684  0.25000000  0.85859939
   0.59974073  0.25000000  0.60968479
   0.90025927  0.75000000  0.10968479
   0.40025927  0.75000000  0.39031521
   0.09974073  0.25000000  0.89031521
   0.06650170  0.25000000  0.38789955
   0.43349830  0.75000000  0.88789955
   0.93349830  0.75000000  0.61210045
   0.56650170  0.25000000  0.11210045
Al4C3 Pnma - r2SCAN H(P) scan @ 30 GPa (
           1
     8.427079    0.000000    0.000000
     0.000000    2.907189    0.000000
     0.000000    0.000000   10.017424
   Al   C 
    16    12
Direct configuration=    11
   0.26588242  0.25000000  0.29968073
   0.23411758  0.75000000  0.79968073
   0.73411758  0.75000000  0.70031927
   0.76588242  0.25000000  0.20031927
   0.35059568  0.25000000  0.01247222
   0.14940432  0.75000000  0.51247222
   0.64940432  0.75000000  0.98752778
   0.85059568  0.25000000  0.48752778
   0.52106472  0.25000000  0.79452427
   0.97893528  0.75000000  0.29452427
   0.47893528  0.75000000  0.20547573
   0.02106472  0.25000000  0.70547573
   0.07214257  0.25000000  0.08814179
   0.42785743  0.75000000  0.58814179
   0.92785743  0.75000000  0.91185821
   0.57214257  0.25000000  0.41185821
   0.25518281  0.25000000  0.64139295
   0.24481719  0.75000000  0.14139295
   0.74481719  0.75000000  0.35860705
   0.75518281  0.25000000  0.85860705
   0.59971728  0.25000000  0.60968695
   0.90028272  0.75000000  0.10968695
   0.40028272  0.75000000  0.39031305
   0.09971728  0.25000000  0.89031305
   0.06655164  0.25000000  0.38790282
   0.43344836  0.75000000  0.88790282
   0.93344836  0.75000000  0.61209718
   0.56655164  0.25000000  0.11209718
Al4C3 Pnma - r2SCAN H(P) scan @ 30 GPa (
           1
     8.427194    0.000000    0.000000
     0.000000    2.907229    0.000000
     0.000000    0.000000   10.017561
   Al   C 
    16    12
Direct configuration=    12
   0.26596946  0.25000000  0.29968650
   0.23403054  0.75000000  0.79968650
   0.73403054  0.75000000  0.70031350
   0.76596946  0.25000000  0.20031350
   0.35062243  0.25000000  0.01248364
   0.14937757  0.75000000  0.51248364
   0.64937757  0.75000000  0.98751636
   0.85062243  0.25000000  0.48751636
   0.52097107  0.25000000  0.79454992
   0.97902893  0.75000000  0.29454992
   0.47902893  0.75000000  0.20545008
   0.02097107  0.25000000  0.70545008
   0.07223573  0.25000000  0.08812098
   0.42776427  0.75000000  0.58812098
   0.92776427  0.75000000  0.91187902
   0.57223573  0.25000000  0.41187902
   0.25511298  0.25000000  0.64136243
   0.24488702  0.75000000  0.14136243
   0.74488702  0.75000000  0.35863757
   0.75511298  0.25000000  0.85863757
   0.59964097  0.25000000  0.60970416
   0.90035903  0.75000000  0.10970416
   0.40035903  0.75000000  0.39029584
   0.09964097  0.25000000  0.89029584
   0.06661662  0.25000000  0.38791272
   0.43338338  0.75000000  0.88791272
   0.93338338  0.75000000  0.61208728
   0.56661662  0.25000000  0.11208728
Al4C3 Pnma - r2SCAN H(P) scan @ 30 GPa (
           1
     8.427357    0.000000    0.000000
     0.000000    2.907285    0.000000
     0.000000    0.000000   10.017755
   Al   C 
    16    12
Direct configuration=    13
   0.26609270  0.25000000  0.29969468
   0.23390730  0.75000000  0.79969468
   0.73390730  0.75000000  0.70030532
   0.76609270  0.25000000  0.20030532
   0.35066030  0.25000000  0.01249982
   0.14933970  0.75000000  0.51249982
   0.64933970  0.75000000  0.98750018
   0.85066030  0.25000000  0.48750018
   0.52083847  0.25000000  0.79458624
   0.97916153  0.75000000  0.29458624
   0.47916153  0.75000000  0.20541376
   0.02083847  0.25000000  0.70541376
   0.07236765  0.25000000  0.08809151
   0.42763235  0.75000000  0.58809151
   0.92763235  0.75000000  0.91190849
   0.57236765  0.25000000  0.41190849
   0.25501410  0.25000000  0.64131920
   0.24498590  0.75000000  0.14131920
   0.74498590  0.75000000  0.35868080
   0.75501410  0.25000000  0.85868080
   0.59953292  0.25000000  0.60972852
   0.90046708  0.75000000  0.10972852
   0.40046708  0.75000000  0.39027148
   0.09953292  0.25000000  0.89027148
   0.06670864  0.25000000  0.38792675
   0.43329136  0.75000000  0.88792675
   0.93329136  0.75000000  0.61207325
   0.56670864  0.25000000  0.11207325
Al4C3 Pnma - r2SCAN H(P) scan @ 30 GPa (
           1
     8.427477    0.000000    0.000000
     0.000000    2.907327    0.000000
     0.000000    0.000000   10.017898
   Al   C 
    16    12
Direct configuration=    14
   0.26616539  0.25000000  0.29970588
   0.23383461  0.75000000  0.79970588
   0.73383461  0.75000000  0.70029412
   0.76616539  0.25000000  0.20029412
   0.35072217  0.25000000  0.01256939
   0.14927783  0.75000000  0.51256939
   0.64927783  0.75000000  0.98743061
   0.85072217  0.25000000  0.48743061
   0.52075984  0.25000000  0.79454890
   0.97924016  0.75000000  0.29454890
   0.47924016  0.75000000  0.20545110
   0.02075984  0.25000000  0.70545110
   0.07242356  0.25000000  0.08807042
   0.42757644  0.75000000  0.58807042
   0.92757644  0.75000000  0.91192958
   0.57242356  0.25000000  0.41192958
   0.25498002  0.25000000  0.64130798
   0.24501998  0.75000000  0.14130798
   0.74501998  0.75000000  0.35869202
   0.75498002  0.25000000  0.85869202
   0.59941818  0.25000000  0.60980142
   0.90058182  0.75000000  0.10980142
   0.40058182  0.75000000  0.39019858
   0.09941818  0.25000000  0.89019858
   0.06677888  0.25000000  0.38793893
   0.43322112  0.75000000  0.88793893
   0.93322112  0.75000000  0.61206107
   0.56677888  0.25000000  0.11206107
Al4C3 Pnma - r2SCAN H(P) scan @ 30 GPa (
           1
     8.427531    0.000000    0.000000
     0.000000    2.907345    0.000000
     0.000000    0.000000   10.017961
   Al   C 
    16    12
Direct configuration=    15
   0.26619793  0.25000000  0.29971089
   0.23380207  0.75000000  0.79971089
   0.73380207  0.75000000  0.70028911
   0.76619793  0.25000000  0.20028911
   0.35074987  0.25000000  0.01260053
   0.14925013  0.75000000  0.51260053
   0.64925013  0.75000000  0.98739947
   0.85074987  0.25000000  0.48739947
   0.52072465  0.25000000  0.79453218
   0.97927535  0.75000000  0.29453218
   0.47927535  0.75000000  0.20546782
   0.02072465  0.25000000  0.70546782
   0.07244858  0.25000000  0.08806098
   0.42755142  0.75000000  0.58806098
   0.92755142  0.75000000  0.91193902
   0.57244858  0.25000000  0.41193902
   0.25496476  0.25000000  0.64130296
   0.24503524  0.75000000  0.14130296
   0.74503524  0.75000000  0.35869704
   0.75496476  0.25000000  0.85869704
   0.59936682  0.25000000  0.60983405
   0.90063318  0.75000000  0.10983405
   0.40063318  0.75000000  0.39016595
   0.09936682  0.25000000  0.89016595
   0.06681032  0.25000000  0.38794439
   0.43318968  0.75000000  0.88794439
   0.93318968  0.75000000  0.61205561
   0.56681032  0.25000000  0.11205561
Al4C3 Pnma - r2SCAN H(P) scan @ 30 GPa (
           1
     8.427643    0.000000    0.000000
     0.000000    2.907384    0.000000
     0.000000    0.000000   10.018095
   Al   C 
    16    12
Direct configuration=    16
   0.26621300  0.25000000  0.29973869
   0.23378700  0.75000000  0.79973869
   0.73378700  0.75000000  0.70026131
   0.76621300  0.25000000  0.20026131
   0.35085390  0.25000000  0.01267674
   0.14914610  0.75000000  0.51267674
   0.64914610  0.75000000  0.98732326
   0.85085390  0.25000000  0.48732326
   0.52061457  0.25000000  0.79452523
   0.97938543  0.75000000  0.29452523
   0.47938543  0.75000000  0.20547477
   0.02061457  0.25000000  0.70547477
   0.07246007  0.25000000  0.08802114
   0.42753993  0.75000000  0.58802114
   0.92753993  0.75000000  0.91197886
   0.57246007  0.25000000  0.41197886
   0.25495451  0.25000000  0.64132224
   0.24504549  0.75000000  0.14132224
   0.74504549  0.75000000  0.35867776
   0.75495451  0.25000000  0.85867776
   0.59928579  0.25000000  0.60983927
   0.90071421  0.75000000  0.10983927
   0.40071421  0.75000000  0.39016073
   0.09928579  0.25000000  0.89016073
   0.06684142  0.25000000  0.38793653
   0.43315858  0.75000000  0.88793653
   0.93315858  0.75000000  0.61206347
   0.56684142  0.25000000  0.11206347
