Al4C3 Pnma (POSCAR.III, symmetrized via 
   1.00000000000000     
     8.7032434407543473    0.0000000000000000    0.0000000000000000
     0.0000000000000000    2.9349047670972270    0.0000000000000000
     0.0000000000000000    0.0000000000000000    9.4892012168552959
   Al   C 
    16    12
Direct
     0.7372093599188955    0.2500000000000000    0.7136306477819160
     0.7627906400811045    0.7500000000000000    0.2136306477819160
     0.2627906400811046    0.7500000000000000    0.2863693522180840
     0.2372093599188953    0.2500000000000000    0.7863693522180840
     0.6063043166502831    0.2500000000000000    0.4707003951628894
     0.8936956833497169    0.7500000000000000    0.9707003951628895
     0.3936956833497169    0.7500000000000000    0.5292996048371105
     0.1063043166502831    0.2500000000000000    0.0292996048371106
     0.1374957759450336    0.2500000000000000    0.5177890409486776
     0.3625042240549664    0.7500000000000000    0.0177890409486777
     0.8625042240549663    0.7500000000000000    0.4822109590513224
     0.6374957759450337    0.2500000000000000    0.9822109590513224
     0.9932809183437681    0.2500000000000000    0.2795179626542911
     0.5067190816562319    0.7500000000000000    0.7795179626542913
     0.0067190816562321    0.7500000000000000    0.7204820373457087
     0.4932809183437679    0.2500000000000000    0.2204820373457088
     0.9285470810138589    0.2500000000000000    0.6187220005827869
     0.5714529189861411    0.7500000000000000    0.1187220005827870
     0.0714529189861414    0.7500000000000000    0.3812779994172131
     0.4285470810138585    0.2500000000000000    0.8812779994172131
     0.3911565475003396    0.2500000000000000    0.4018945523721094
     0.1088434524996604    0.7500000000000000    0.9018945523721090
     0.6088434524996604    0.7500000000000000    0.5981054476278910
     0.8911565475003396    0.2500000000000000    0.0981054476278908
     0.7744048364141994    0.2500000000000000    0.3539263382519589
     0.7255951635858006    0.7500000000000000    0.8539263382519590
     0.2255951635858004    0.7500000000000000    0.6460736617480410
     0.2744048364141997    0.2500000000000000    0.1460736617480412
 
  0.00000000E+00  0.00000000E+00  0.00000000E+00
  0.00000000E+00  0.00000000E+00  0.00000000E+00
  0.00000000E+00  0.00000000E+00  0.00000000E+00
  0.00000000E+00  0.00000000E+00  0.00000000E+00
  0.00000000E+00  0.00000000E+00  0.00000000E+00
  0.00000000E+00  0.00000000E+00  0.00000000E+00
  0.00000000E+00  0.00000000E+00  0.00000000E+00
  0.00000000E+00  0.00000000E+00  0.00000000E+00
  0.00000000E+00  0.00000000E+00  0.00000000E+00
  0.00000000E+00  0.00000000E+00  0.00000000E+00
  0.00000000E+00  0.00000000E+00  0.00000000E+00
  0.00000000E+00  0.00000000E+00  0.00000000E+00
  0.00000000E+00  0.00000000E+00  0.00000000E+00
  0.00000000E+00  0.00000000E+00  0.00000000E+00
  0.00000000E+00  0.00000000E+00  0.00000000E+00
  0.00000000E+00  0.00000000E+00  0.00000000E+00
  0.00000000E+00  0.00000000E+00  0.00000000E+00
  0.00000000E+00  0.00000000E+00  0.00000000E+00
  0.00000000E+00  0.00000000E+00  0.00000000E+00
  0.00000000E+00  0.00000000E+00  0.00000000E+00
  0.00000000E+00  0.00000000E+00  0.00000000E+00
  0.00000000E+00  0.00000000E+00  0.00000000E+00
  0.00000000E+00  0.00000000E+00  0.00000000E+00
  0.00000000E+00  0.00000000E+00  0.00000000E+00
  0.00000000E+00  0.00000000E+00  0.00000000E+00
  0.00000000E+00  0.00000000E+00  0.00000000E+00
  0.00000000E+00  0.00000000E+00  0.00000000E+00
  0.00000000E+00  0.00000000E+00  0.00000000E+00
