Al4C3 Pnma-III - H(P) scan @ 50 GPa (ISI
           1
     8.703243    0.000000    0.000000
     0.000000    2.934905    0.000000
     0.000000    0.000000    9.489201
   Al   C 
    16    12
Direct configuration=     1
   0.73720936  0.25000000  0.71363065
   0.76279064  0.75000000  0.21363065
   0.26279064  0.75000000  0.28636935
   0.23720936  0.25000000  0.78636935
   0.60630432  0.25000000  0.47070040
   0.89369568  0.75000000  0.97070040
   0.39369568  0.75000000  0.52929960
   0.10630432  0.25000000  0.02929960
   0.13749578  0.25000000  0.51778904
   0.36250422  0.75000000  0.01778904
   0.86250422  0.75000000  0.48221096
   0.63749578  0.25000000  0.98221096
   0.99328092  0.25000000  0.27951796
   0.50671908  0.75000000  0.77951796
   0.00671908  0.75000000  0.72048204
   0.49328092  0.25000000  0.22048204
   0.92854708  0.25000000  0.61872200
   0.57145292  0.75000000  0.11872200
   0.07145292  0.75000000  0.38127800
   0.42854708  0.25000000  0.88127800
   0.39115655  0.25000000  0.40189455
   0.10884345  0.75000000  0.90189455
   0.60884345  0.75000000  0.59810545
   0.89115655  0.25000000  0.09810545
   0.77440484  0.25000000  0.35392634
   0.72559516  0.75000000  0.85392634
   0.22559516  0.75000000  0.64607366
   0.27440484  0.25000000  0.14607366
