Al4C3 Fd-3m polymorph (findsym-output) -
   1.00000000000000     
     7.8194077933090647    0.0000000000000000    0.0000000000000000
     0.0000000000000000    7.8194077933090647    0.0000000000000000
     0.0000000000000000    0.0000000000000000    7.8194077933090647
   Al   C 
    32    24
Direct
  0.7597259947628402  0.7597259947628402  0.7597259947628402
  0.2402740052371598  0.2402740052371598  0.2402740052371598
  0.9902740052371598  0.4902740052371598  0.2597259947628402
  0.0097259947628402  0.5097259947628402  0.7402740052371598
  0.4902740052371598  0.2597259947628402  0.9902740052371598
  0.5097259947628402  0.7402740052371598  0.0097259947628402
  0.2597259947628402  0.9902740052371598  0.4902740052371598
  0.7402740052371598  0.0097259947628402  0.5097259947628402
  0.5097259947628402  0.0097259947628402  0.7402740052371598
  0.4902740052371598  0.9902740052371598  0.2597259947628402
  0.0097259947628402  0.7402740052371598  0.5097259947628402
  0.9902740052371598  0.2597259947628402  0.4902740052371598
  0.7402740052371598  0.5097259947628402  0.0097259947628402
  0.2597259947628402  0.4902740052371598  0.9902740052371598
  0.7597259947628402  0.2597259947628402  0.2597259947628402
  0.2402740052371598  0.7402740052371598  0.7402740052371598
  0.9902740052371598  0.9902740052371598  0.7597259947628402
  0.0097259947628402  0.0097259947628402  0.2402740052371598
  0.4902740052371598  0.7597259947628402  0.4902740052371598
  0.5097259947628402  0.2402740052371598  0.5097259947628402
  0.5097259947628402  0.5097259947628402  0.2402740052371598
  0.4902740052371598  0.4902740052371598  0.7597259947628402
  0.0097259947628402  0.2402740052371598  0.0097259947628402
  0.9902740052371598  0.7597259947628402  0.9902740052371598
  0.2597259947628402  0.7597259947628402  0.2597259947628402
  0.7402740052371598  0.2402740052371598  0.7402740052371598
  0.7597259947628402  0.9902740052371598  0.9902740052371598
  0.2402740052371598  0.0097259947628402  0.0097259947628402
  0.2402740052371598  0.5097259947628402  0.5097259947628402
  0.7597259947628402  0.4902740052371598  0.4902740052371598
  0.2597259947628402  0.2597259947628402  0.7597259947628402
  0.7402740052371598  0.7402740052371598  0.2402740052371598
  0.0000000000000000 -0.0000000000000000 -0.0000000000000000
  0.7500000000000000  0.2500000000000000  0.5000000000000000
  0.2500000000000000  0.7500000000000000  0.5000000000000000
  0.2500000000000000  0.5000000000000000  0.7500000000000000
  0.7500000000000000  0.5000000000000000  0.2500000000000000
  0.5000000000000000  0.7500000000000000  0.2500000000000000
  0.5000000000000000  0.2500000000000000  0.7500000000000000
  0.0000000000000000  0.5000000000000000  0.5000000000000000
  0.7500000000000000  0.7500000000000000 -0.0000000000000000
  0.2500000000000000  0.2500000000000000 -0.0000000000000000
  0.2500000000000000 -0.0000000000000000  0.2500000000000000
  0.7500000000000000 -0.0000000000000000  0.7500000000000000
  0.5000000000000000 -0.0000000000000000  0.5000000000000000
  0.0000000000000000  0.7500000000000000  0.7500000000000000
  0.0000000000000000  0.2500000000000000  0.2500000000000000
  0.5000000000000000  0.5000000000000000 -0.0000000000000000
  0.3750000000000000  0.3750000000000000  0.3750000000000000
  0.6250000000000000  0.6250000000000000  0.6250000000000000
  0.3750000000000000  0.8750000000000000  0.8750000000000000
  0.6250000000000000  0.1250000000000000  0.1250000000000000
  0.8750000000000000  0.8750000000000000  0.3750000000000000
  0.1250000000000000  0.1250000000000000  0.6250000000000000
  0.8750000000000000  0.3750000000000000  0.8750000000000000
  0.1250000000000000  0.6250000000000000  0.1250000000000000
 
  0.00000000E+00  0.00000000E+00  0.00000000E+00
  0.00000000E+00  0.00000000E+00  0.00000000E+00
  0.00000000E+00  0.00000000E+00  0.00000000E+00
  0.00000000E+00  0.00000000E+00  0.00000000E+00
  0.00000000E+00  0.00000000E+00  0.00000000E+00
  0.00000000E+00  0.00000000E+00  0.00000000E+00
  0.00000000E+00  0.00000000E+00  0.00000000E+00
  0.00000000E+00  0.00000000E+00  0.00000000E+00
  0.00000000E+00  0.00000000E+00  0.00000000E+00
  0.00000000E+00  0.00000000E+00  0.00000000E+00
  0.00000000E+00  0.00000000E+00  0.00000000E+00
  0.00000000E+00  0.00000000E+00  0.00000000E+00
  0.00000000E+00  0.00000000E+00  0.00000000E+00
  0.00000000E+00  0.00000000E+00  0.00000000E+00
  0.00000000E+00  0.00000000E+00  0.00000000E+00
  0.00000000E+00  0.00000000E+00  0.00000000E+00
  0.00000000E+00  0.00000000E+00  0.00000000E+00
  0.00000000E+00  0.00000000E+00  0.00000000E+00
  0.00000000E+00  0.00000000E+00  0.00000000E+00
  0.00000000E+00  0.00000000E+00  0.00000000E+00
  0.00000000E+00  0.00000000E+00  0.00000000E+00
  0.00000000E+00  0.00000000E+00  0.00000000E+00
  0.00000000E+00  0.00000000E+00  0.00000000E+00
  0.00000000E+00  0.00000000E+00  0.00000000E+00
  0.00000000E+00  0.00000000E+00  0.00000000E+00
  0.00000000E+00  0.00000000E+00  0.00000000E+00
  0.00000000E+00  0.00000000E+00  0.00000000E+00
  0.00000000E+00  0.00000000E+00  0.00000000E+00
  0.00000000E+00  0.00000000E+00  0.00000000E+00
  0.00000000E+00  0.00000000E+00  0.00000000E+00
  0.00000000E+00  0.00000000E+00  0.00000000E+00
  0.00000000E+00  0.00000000E+00  0.00000000E+00
  0.00000000E+00  0.00000000E+00  0.00000000E+00
  0.00000000E+00  0.00000000E+00  0.00000000E+00
  0.00000000E+00  0.00000000E+00  0.00000000E+00
  0.00000000E+00  0.00000000E+00  0.00000000E+00
  0.00000000E+00  0.00000000E+00  0.00000000E+00
  0.00000000E+00  0.00000000E+00  0.00000000E+00
  0.00000000E+00  0.00000000E+00  0.00000000E+00
  0.00000000E+00  0.00000000E+00  0.00000000E+00
  0.00000000E+00  0.00000000E+00  0.00000000E+00
  0.00000000E+00  0.00000000E+00  0.00000000E+00
  0.00000000E+00  0.00000000E+00  0.00000000E+00
  0.00000000E+00  0.00000000E+00  0.00000000E+00
  0.00000000E+00  0.00000000E+00  0.00000000E+00
  0.00000000E+00  0.00000000E+00  0.00000000E+00
  0.00000000E+00  0.00000000E+00  0.00000000E+00
  0.00000000E+00  0.00000000E+00  0.00000000E+00
  0.00000000E+00  0.00000000E+00  0.00000000E+00
  0.00000000E+00  0.00000000E+00  0.00000000E+00
  0.00000000E+00  0.00000000E+00  0.00000000E+00
  0.00000000E+00  0.00000000E+00  0.00000000E+00
  0.00000000E+00  0.00000000E+00  0.00000000E+00
  0.00000000E+00  0.00000000E+00  0.00000000E+00
  0.00000000E+00  0.00000000E+00  0.00000000E+00
  0.00000000E+00  0.00000000E+00  0.00000000E+00
