Al4C3 Pnma (CIF findsym, P21/n21/m21/a) 
   1.00000000000000     
     9.0599799578870197    0.0000000000000000    0.0000000000000000
     0.0000000000000000    3.1128901755201168    0.0000000000000000
     0.0000000000000000    0.0000000000000000    9.5508827092267037
   Al   C 
    16    12
Direct
  0.2674028220024348  0.2500000000000000  0.2665883442535650
  0.7674028220024347  0.2500000000000000  0.2334116557464349
  0.7325971779975653  0.7500000000000000  0.7334116557464352
  0.2325971779975653  0.7500000000000000  0.7665883442535648
  0.4671441612971406  0.2500000000000000  0.8917732412121828
  0.9671441612971406  0.2500000000000000  0.6082267587878172
  0.5328558387028594  0.7500000000000000  0.1082267587878172
  0.0328558387028595  0.7500000000000000  0.3917732412121828
  0.5059933495636072  0.2500000000000000  0.6037918940471323
  0.0059933495636072  0.2500000000000000  0.8962081059528677
  0.4940066504363927  0.7500000000000000  0.3962081059528678
  0.9940066504363928  0.7500000000000000  0.1037918940471323
  0.2382902262037567  0.2500000000000000  0.5588481513511634
  0.7382902262037567  0.2500000000000000  0.9411518486488366
  0.7617097737962433  0.7500000000000000  0.4411518486488364
  0.2617097737962432  0.7500000000000000  0.0588481513511635
  0.3847131999325382  0.2500000000000000  0.4248713731800889
  0.8847131999325384  0.2500000000000000  0.0751286268199111
  0.6152868000674616  0.7500000000000000  0.5751286268199109
  0.1152868000674618  0.7500000000000000  0.9248713731800891
  0.3929143521630901  0.2500000000000000  0.0863998272961191
  0.8929143521630901  0.2500000000000000  0.4136001727038809
  0.6070856478369099  0.7500000000000000  0.9136001727038808
  0.1070856478369098  0.7500000000000000  0.5863998272961192
  0.3479479810408930  0.2500000000000000  0.7346121768192838
  0.8479479810408929  0.2500000000000000  0.7653878231807162
  0.6520520189591071  0.7500000000000000  0.2653878231807163
  0.1520520189591072  0.7500000000000000  0.2346121768192838
 
  0.00000000E+00  0.00000000E+00  0.00000000E+00
  0.00000000E+00  0.00000000E+00  0.00000000E+00
  0.00000000E+00  0.00000000E+00  0.00000000E+00
  0.00000000E+00  0.00000000E+00  0.00000000E+00
  0.00000000E+00  0.00000000E+00  0.00000000E+00
  0.00000000E+00  0.00000000E+00  0.00000000E+00
  0.00000000E+00  0.00000000E+00  0.00000000E+00
  0.00000000E+00  0.00000000E+00  0.00000000E+00
  0.00000000E+00  0.00000000E+00  0.00000000E+00
  0.00000000E+00  0.00000000E+00  0.00000000E+00
  0.00000000E+00  0.00000000E+00  0.00000000E+00
  0.00000000E+00  0.00000000E+00  0.00000000E+00
  0.00000000E+00  0.00000000E+00  0.00000000E+00
  0.00000000E+00  0.00000000E+00  0.00000000E+00
  0.00000000E+00  0.00000000E+00  0.00000000E+00
  0.00000000E+00  0.00000000E+00  0.00000000E+00
  0.00000000E+00  0.00000000E+00  0.00000000E+00
  0.00000000E+00  0.00000000E+00  0.00000000E+00
  0.00000000E+00  0.00000000E+00  0.00000000E+00
  0.00000000E+00  0.00000000E+00  0.00000000E+00
  0.00000000E+00  0.00000000E+00  0.00000000E+00
  0.00000000E+00  0.00000000E+00  0.00000000E+00
  0.00000000E+00  0.00000000E+00  0.00000000E+00
  0.00000000E+00  0.00000000E+00  0.00000000E+00
  0.00000000E+00  0.00000000E+00  0.00000000E+00
  0.00000000E+00  0.00000000E+00  0.00000000E+00
  0.00000000E+00  0.00000000E+00  0.00000000E+00
  0.00000000E+00  0.00000000E+00  0.00000000E+00
