  28  28   0   0
  0.9710266E+01  0.9088219E-09  0.3122593E-09  0.9580652E-09  0.5000000E-15
  1.000000000000000E-004
  CAR 
 Al4C3 Pnma-VII - r2SCAN H(P) scan @ 40 G
     18.59801812     -7.65867466  301      9.41364579      1.00000000
     -7.659  0.0000E+00  0.0000E+00
     -7.571  0.0000E+00  0.0000E+00
     -7.484  0.0000E+00  0.0000E+00
     -7.396  0.0000E+00  0.0000E+00
     -7.309  0.0000E+00  0.0000E+00
     -7.221  0.0000E+00  0.0000E+00
     -7.134  0.0000E+00  0.0000E+00
     -7.046  0.0000E+00  0.0000E+00
     -6.958  0.0000E+00  0.0000E+00
     -6.871  0.0000E+00  0.0000E+00
     -6.783  0.0000E+00  0.0000E+00
     -6.696  0.2188E-13  0.1915E-14
     -6.608  0.1657E-07  0.1450E-08
     -6.521  0.3752E-04  0.3285E-05
     -6.433  0.7144E-03  0.6581E-04
     -6.346  0.3306E-02  0.3551E-03
     -6.258  0.6488E-02  0.9230E-03
     -6.171  0.6435E-02  0.1486E-02
     -6.083  0.6239E-02  0.2032E-02
     -5.996  0.1141E-01  0.3031E-02
     -5.908  0.1449E-01  0.4299E-02
     -5.821  0.1026E-01  0.5197E-02
     -5.733  0.9262E-02  0.6007E-02
     -5.646  0.1445E-01  0.7272E-02
     -5.558  0.7437E-02  0.7923E-02
     -5.471  0.6297E-02  0.8474E-02
     -5.383  0.1582E-01  0.9858E-02
     -5.296  0.1371E-01  0.1106E-01
     -5.208  0.1552E-01  0.1242E-01
     -5.121  0.1953E-01  0.1413E-01
     -5.033  0.1030E-01  0.1503E-01
     -4.945  0.1716E-01  0.1653E-01
     -4.858  0.2480E-01  0.1870E-01
     -4.770  0.1514E-01  0.2002E-01
     -4.683  0.1244E-01  0.2111E-01
     -4.595  0.1395E-01  0.2233E-01
     -4.508  0.1943E-01  0.2403E-01
     -4.420  0.2824E-01  0.2651E-01
     -4.333  0.1541E-01  0.2786E-01
     -4.245  0.1464E-01  0.2914E-01
     -4.158  0.2428E-01  0.3126E-01
     -4.070  0.2195E-01  0.3318E-01
     -3.983  0.2288E-01  0.3519E-01
     -3.895  0.2219E-01  0.3713E-01
     -3.808  0.2570E-01  0.3938E-01
     -3.720  0.2660E-01  0.4171E-01
     -3.633  0.3025E-01  0.4435E-01
     -3.545  0.2396E-01  0.4645E-01
     -3.458  0.2874E-01  0.4897E-01
     -3.370  0.2810E-01  0.5143E-01
     -3.283  0.2951E-01  0.5401E-01
     -3.195  0.2259E-01  0.5599E-01
     -3.108  0.2962E-01  0.5858E-01
     -3.020  0.5667E-01  0.6354E-01
     -2.932  0.4873E-01  0.6780E-01
     -2.845  0.3699E-01  0.7104E-01
     -2.757  0.4109E-01  0.7464E-01
     -2.670  0.4301E-01  0.7840E-01
     -2.582  0.5052E-01  0.8282E-01
     -2.495  0.3460E-01  0.8585E-01
     -2.407  0.3303E-01  0.8874E-01
     -2.320  0.3105E-01  0.9146E-01
     -2.232  0.3721E-01  0.9471E-01
     -2.145  0.4052E-01  0.9826E-01
     -2.057  0.5616E-01  0.1032E+00
     -1.970  0.4789E-01  0.1074E+00
     -1.882  0.4960E-01  0.1117E+00
     -1.795  0.6183E-01  0.1171E+00
     -1.707  0.3167E-01  0.1199E+00
     -1.620  0.1235E-02  0.1200E+00
     -1.532  0.5306E-06  0.1200E+00
     -1.445  0.9880E-12  0.1200E+00
     -1.357  0.0000E+00  0.1200E+00
     -1.270  0.0000E+00  0.1200E+00
     -1.182  0.0000E+00  0.1200E+00
     -1.095  0.0000E+00  0.1200E+00
     -1.007  0.0000E+00  0.1200E+00
     -0.919  0.0000E+00  0.1200E+00
     -0.832  0.0000E+00  0.1200E+00
     -0.744  0.0000E+00  0.1200E+00
     -0.657  0.0000E+00  0.1200E+00
     -0.569  0.0000E+00  0.1200E+00
     -0.482  0.0000E+00  0.1200E+00
     -0.394  0.0000E+00  0.1200E+00
     -0.307  0.0000E+00  0.1200E+00
     -0.219  0.0000E+00  0.1200E+00
     -0.132  0.0000E+00  0.1200E+00
     -0.044  0.0000E+00  0.1200E+00
      0.043  0.0000E+00  0.1200E+00
      0.131  0.0000E+00  0.1200E+00
      0.218  0.0000E+00  0.1200E+00
      0.306  0.0000E+00  0.1200E+00
      0.393  0.7640E-17  0.1200E+00
      0.481  0.1027E-09  0.1200E+00
      0.568  0.3692E-05  0.1200E+00
      0.656  0.6002E-03  0.1201E+00
      0.743  0.4305E-02  0.1204E+00
      0.831  0.8388E-02  0.1212E+00
      0.919  0.6750E-02  0.1218E+00
      1.006  0.6567E-02  0.1223E+00
      1.094  0.1645E-01  0.1238E+00
      1.181  0.1379E-01  0.1250E+00
      1.269  0.2066E-01  0.1268E+00
      1.356  0.2584E-01  0.1290E+00
      1.444  0.2776E-01  0.1315E+00
      1.531  0.2586E-01  0.1337E+00
      1.619  0.2373E-01  0.1358E+00
      1.706  0.1622E-01  0.1372E+00
      1.794  0.1344E-01  0.1384E+00
      1.881  0.2259E-01  0.1404E+00
      1.969  0.2751E-01  0.1428E+00
      2.056  0.3591E-01  0.1459E+00
      2.144  0.2607E-01  0.1482E+00
      2.231  0.2574E-01  0.1505E+00
      2.319  0.2571E-01  0.1527E+00
      2.406  0.2207E-01  0.1547E+00
      2.494  0.2623E-01  0.1570E+00
      2.581  0.3028E-01  0.1596E+00
      2.669  0.5086E-01  0.1641E+00
      2.756  0.5593E-01  0.1689E+00
      2.844  0.5713E-01  0.1739E+00
      2.932  0.5940E-01  0.1791E+00
      3.019  0.3922E-01  0.1826E+00
      3.107  0.3951E-01  0.1860E+00
      3.194  0.5495E-01  0.1908E+00
      3.282  0.5039E-01  0.1953E+00
      3.369  0.4275E-01  0.1990E+00
      3.457  0.3950E-01  0.2025E+00
      3.544  0.3911E-01  0.2059E+00
      3.632  0.3458E-01  0.2089E+00
      3.719  0.3618E-01  0.2121E+00
      3.807  0.3606E-01  0.2152E+00
      3.894  0.3842E-01  0.2186E+00
      3.982  0.3577E-01  0.2217E+00
      4.069  0.3000E-01  0.2243E+00
      4.157  0.3222E-01  0.2272E+00
      4.244  0.4552E-01  0.2312E+00
      4.332  0.4166E-01  0.2348E+00
      4.419  0.2970E-01  0.2374E+00
      4.507  0.3977E-01  0.2409E+00
      4.594  0.3711E-01  0.2441E+00
      4.682  0.4262E-01  0.2479E+00
      4.769  0.4877E-01  0.2521E+00
      4.857  0.5279E-01  0.2567E+00
      4.945  0.3844E-01  0.2601E+00
      5.032  0.4429E-01  0.2640E+00
      5.120  0.5127E-01  0.2685E+00
      5.207  0.5155E-01  0.2730E+00
      5.295  0.3848E-01  0.2764E+00
      5.382  0.5091E-01  0.2808E+00
      5.470  0.3752E-01  0.2841E+00
      5.557  0.4568E-01  0.2881E+00
      5.645  0.4685E-01  0.2922E+00
      5.732  0.4243E-01  0.2959E+00
      5.820  0.4863E-01  0.3002E+00
      5.907  0.5787E-01  0.3052E+00
      5.995  0.5852E-01  0.3103E+00
      6.082  0.5595E-01  0.3152E+00
      6.170  0.5920E-01  0.3204E+00
      6.257  0.5583E-01  0.3253E+00
      6.345  0.5385E-01  0.3300E+00
      6.432  0.6730E-01  0.3359E+00
      6.520  0.7680E-01  0.3426E+00
      6.607  0.5639E-01  0.3476E+00
      6.695  0.5464E-01  0.3524E+00
      6.783  0.6431E-01  0.3580E+00
      6.870  0.5860E-01  0.3631E+00
      6.958  0.7446E-01  0.3696E+00
      7.045  0.8795E-01  0.3773E+00
      7.133  0.6592E-01  0.3831E+00
      7.220  0.6342E-01  0.3886E+00
      7.308  0.7359E-01  0.3951E+00
      7.395  0.6867E-01  0.4011E+00
      7.483  0.4905E-01  0.4054E+00
      7.570  0.5489E-01  0.4102E+00
      7.658  0.6246E-01  0.4157E+00
      7.745  0.8079E-01  0.4227E+00
      7.833  0.7351E-01  0.4292E+00
      7.920  0.7122E-01  0.4354E+00
      8.008  0.6289E-01  0.4409E+00
      8.095  0.4627E-01  0.4450E+00
      8.183  0.4558E-01  0.4489E+00
      8.270  0.6605E-01  0.4547E+00
      8.358  0.5988E-01  0.4600E+00
      8.445  0.5158E-01  0.4645E+00
      8.533  0.3277E-01  0.4673E+00
      8.620  0.3158E-01  0.4701E+00
      8.708  0.3359E-01  0.4731E+00
      8.796  0.3540E-01  0.4761E+00
      8.883  0.2188E-01  0.4781E+00
      8.971  0.1433E-02  0.4782E+00
      9.058  0.7609E-02  0.4789E+00
      9.146  0.1138E-01  0.4799E+00
      9.233  0.1695E-02  0.4800E+00
      9.321  0.4924E-05  0.4800E+00
      9.408  0.8413E-10  0.4800E+00
      9.496  0.4613E-17  0.4800E+00
      9.583  0.0000E+00  0.4800E+00
      9.671  0.0000E+00  0.4800E+00
      9.758  0.1816E-13  0.4800E+00
      9.846  0.2570E-07  0.4800E+00
      9.933  0.1060E-03  0.4800E+00
     10.021  0.2283E-02  0.4802E+00
     10.108  0.1008E-02  0.4803E+00
     10.196  0.2698E-02  0.4805E+00
     10.283  0.1042E-02  0.4806E+00
     10.371  0.6667E-03  0.4807E+00
     10.458  0.7011E-02  0.4813E+00
     10.546  0.3887E-02  0.4816E+00
     10.633  0.8379E-02  0.4824E+00
     10.721  0.8635E-02  0.4831E+00
     10.809  0.3781E-02  0.4835E+00
     10.896  0.1808E-02  0.4836E+00
     10.984  0.5362E-02  0.4841E+00
     11.071  0.1385E-01  0.4853E+00
     11.159  0.7614E-02  0.4860E+00
     11.246  0.5822E-02  0.4865E+00
     11.334  0.1216E-01  0.4875E+00
     11.421  0.1403E-01  0.4888E+00
     11.509  0.1542E-01  0.4901E+00
     11.596  0.1314E-01  0.4913E+00
     11.684  0.9805E-02  0.4921E+00
     11.771  0.9241E-02  0.4929E+00
     11.859  0.1535E-01  0.4943E+00
     11.946  0.1415E-01  0.4955E+00
     12.034  0.2148E-01  0.4974E+00
     12.121  0.1588E-01  0.4988E+00
     12.209  0.1722E-01  0.5003E+00
     12.296  0.1511E-01  0.5016E+00
     12.384  0.1844E-01  0.5032E+00
     12.471  0.1364E-01  0.5044E+00
     12.559  0.1241E-01  0.5055E+00
     12.647  0.2375E-01  0.5076E+00
     12.734  0.2106E-01  0.5094E+00
     12.822  0.1747E-01  0.5110E+00
     12.909  0.3251E-01  0.5138E+00
     12.997  0.2838E-01  0.5163E+00
     13.084  0.2704E-01  0.5187E+00
     13.172  0.2983E-01  0.5213E+00
     13.259  0.3194E-01  0.5241E+00
     13.347  0.2860E-01  0.5266E+00
     13.434  0.2485E-01  0.5287E+00
     13.522  0.3186E-01  0.5315E+00
     13.609  0.3167E-01  0.5343E+00
     13.697  0.2096E-01  0.5361E+00
     13.784  0.2815E-01  0.5386E+00
     13.872  0.2702E-01  0.5410E+00
     13.959  0.2528E-01  0.5432E+00
     14.047  0.1903E-01  0.5448E+00
     14.134  0.4567E-01  0.5488E+00
     14.222  0.3475E-01  0.5519E+00
     14.309  0.2910E-01  0.5544E+00
     14.397  0.3144E-01  0.5572E+00
     14.484  0.3079E-01  0.5599E+00
     14.572  0.3122E-01  0.5626E+00
     14.660  0.2644E-01  0.5649E+00
     14.747  0.2338E-01  0.5670E+00
     14.835  0.2282E-01  0.5690E+00
     14.922  0.2314E-01  0.5710E+00
     15.010  0.2996E-01  0.5736E+00
     15.097  0.3358E-01  0.5765E+00
     15.185  0.3497E-01  0.5796E+00
     15.272  0.4470E-01  0.5835E+00
     15.360  0.4322E-01  0.5873E+00
     15.447  0.4199E-01  0.5910E+00
     15.535  0.3518E-01  0.5941E+00
     15.622  0.2659E-01  0.5964E+00
     15.710  0.3032E-01  0.5990E+00
     15.797  0.2936E-01  0.6016E+00
     15.885  0.3211E-01  0.6044E+00
     15.972  0.4415E-01  0.6083E+00
     16.060  0.4653E-01  0.6124E+00
     16.147  0.4470E-01  0.6163E+00
     16.235  0.3611E-01  0.6194E+00
     16.322  0.4224E-01  0.6231E+00
     16.410  0.5058E-01  0.6275E+00
     16.497  0.4954E-01  0.6319E+00
     16.585  0.4357E-01  0.6357E+00
     16.673  0.4501E-01  0.6396E+00
     16.760  0.3597E-01  0.6428E+00
     16.848  0.3384E-01  0.6457E+00
     16.935  0.3740E-01  0.6490E+00
     17.023  0.3882E-01  0.6524E+00
     17.110  0.2694E-01  0.6548E+00
     17.198  0.2442E-01  0.6569E+00
     17.285  0.2010E-01  0.6587E+00
     17.373  0.1080E-01  0.6596E+00
     17.460  0.4184E-02  0.6600E+00
     17.548  0.1708E-03  0.6600E+00
     17.635  0.6720E-07  0.6600E+00
     17.723  0.8763E-13  0.6600E+00
     17.810  0.0000E+00  0.6600E+00
     17.898  0.0000E+00  0.6600E+00
     17.985  0.0000E+00  0.6600E+00
     18.073  0.0000E+00  0.6600E+00
     18.160  0.0000E+00  0.6600E+00
     18.248  0.0000E+00  0.6600E+00
     18.335  0.0000E+00  0.6600E+00
     18.423  0.0000E+00  0.6600E+00
     18.510  0.0000E+00  0.6600E+00
     18.598  0.0000E+00  0.6600E+00
