       N       E                     dE             d eps       ncg     rms          rms(c)
DAV:   1    -0.272026394570E+03   -0.27203E+03   -0.13072E+02  8310   0.317E+01    0.326E+01
DAV:   2    -0.227995713266E+03    0.44031E+02   -0.75487E+01  7998   0.254E+01    0.131E+01
DAV:   3    -0.228370797693E+03   -0.37508E+00   -0.95620E+00  8220   0.101E+01    0.899E+00
DAV:   4    -0.228831088184E+03   -0.46029E+00   -0.61647E-01  8772   0.278E+00    0.597E+00
DAV:   5    -0.228967920120E+03   -0.13683E+00   -0.22610E-01  8046   0.232E+00    0.902E-01
DAV:   6    -0.228967419578E+03    0.50054E-03   -0.23134E-02  8178   0.640E-01    0.317E-01
DAV:   7    -0.228967942243E+03   -0.52266E-03   -0.37787E-03  8760   0.245E-01    0.247E-01
DAV:   8    -0.228968881583E+03   -0.93934E-03   -0.24652E-03  8976   0.199E-01    0.116E-01
DAV:   9    -0.228968945770E+03   -0.64187E-04   -0.39979E-04  8250   0.868E-02    0.740E-02
DAV:  10    -0.228968937298E+03    0.84720E-05   -0.29026E-04  8436   0.614E-02    0.217E-02
DAV:  11    -0.228968937130E+03    0.16864E-06   -0.13207E-05  5250   0.141E-02
   1 F= -.16108945E+03 E0= -.16108945E+03  d E =-.161089E+03
       N       E                     dE             d eps       ncg     rms          rms(c)
DAV:   1    -0.227143349191E+03    0.18256E+01   -0.20788E+00  7896   0.608E+00    0.146E+00
DAV:   2    -0.227113855014E+03    0.29494E-01   -0.13441E-01  8586   0.122E+00    0.754E-01
DAV:   3    -0.227112544254E+03    0.13108E-02   -0.23386E-02  8298   0.456E-01    0.251E-01
DAV:   4    -0.227112827950E+03   -0.28370E-03   -0.72059E-04  8520   0.114E-01    0.142E-01
DAV:   5    -0.227112851600E+03   -0.23649E-04   -0.18430E-04  8346   0.546E-02    0.114E-01
DAV:   6    -0.227112881180E+03   -0.29580E-04   -0.10995E-04  7932   0.421E-02    0.227E-02
DAV:   7    -0.227112877459E+03    0.37209E-05   -0.17829E-05  4500   0.137E-02
   2 F= -.16103680E+03 E0= -.16103680E+03  d E =0.526448E-01
       N       E                     dE             d eps       ncg     rms          rms(c)
DAV:   1    -0.228327605856E+03   -0.12147E+01   -0.79806E-01  7896   0.372E+00    0.913E-01
DAV:   2    -0.228317137365E+03    0.10468E-01   -0.52455E-02  8610   0.758E-01    0.468E-01
DAV:   3    -0.228316767068E+03    0.37030E-03   -0.91534E-03  8208   0.283E-01    0.155E-01
DAV:   4    -0.228316885897E+03   -0.11883E-03   -0.28149E-04  8526   0.713E-02    0.876E-02
DAV:   5    -0.228316891543E+03   -0.56465E-05   -0.75883E-05  8142   0.347E-02
   3 F= -.16111886E+03 E0= -.16111886E+03  d E =-.294077E-01
       N       E                     dE             d eps       ncg     rms          rms(c)
DAV:   1    -0.228311715770E+03    0.51701E-02   -0.75447E-05  7848   0.299E-02    0.179E-02
DAV:   2    -0.228311706969E+03    0.88003E-05   -0.12264E-05  4368   0.113E-02
   4 F= -.16111885E+03 E0= -.16111885E+03  d E =-.293988E-01
       N       E                     dE             d eps       ncg     rms          rms(c)
DAV:   1    -0.228353110536E+03   -0.41395E-01   -0.11143E-01  7176   0.140E+00    0.623E-02
DAV:   2    -0.228353148528E+03   -0.37992E-04   -0.16188E-03  8868   0.152E-01    0.419E-02
DAV:   3    -0.228353118512E+03    0.30015E-04   -0.62064E-05  8580   0.318E-02    0.280E-02
DAV:   4    -0.228353095267E+03    0.23245E-04   -0.30980E-05  7374   0.218E-02    0.112E-02
DAV:   5    -0.228353089021E+03    0.62462E-05   -0.98823E-06  5064   0.104E-02
   5 F= -.16112112E+03 E0= -.16112112E+03  d E =-.226904E-02
       N       E                     dE             d eps       ncg     rms          rms(c)
DAV:   1    -0.228365901648E+03   -0.12806E-01   -0.11728E-02  7302   0.454E-01    0.208E-02
DAV:   2    -0.228365902845E+03   -0.11967E-05   -0.17011E-04  8880   0.494E-02    0.134E-02
DAV:   3    -0.228365897435E+03    0.54099E-05   -0.55568E-06  4650   0.103E-02
   6 F= -.16112122E+03 E0= -.16112122E+03  d E =-.237370E-02
       N       E                     dE             d eps       ncg     rms          rms(c)
DAV:   1    -0.228372743968E+03   -0.68411E-02   -0.39295E-02  7176   0.817E-01    0.367E-02
DAV:   2    -0.228372765184E+03   -0.21217E-04   -0.59834E-04  8688   0.930E-02    0.265E-02
DAV:   3    -0.228372754900E+03    0.10285E-04   -0.23952E-05  6144   0.223E-02    0.176E-02
DAV:   4    -0.228372755740E+03   -0.83993E-06   -0.38663E-05  6984   0.241E-02
   7 F= -.16112171E+03 E0= -.16112171E+03  d E =-.492152E-03
       N       E                     dE             d eps       ncg     rms          rms(c)
DAV:   1    -0.228376943214E+03   -0.41883E-02   -0.16401E-02  7188   0.528E-01    0.249E-02
DAV:   2    -0.228376958329E+03   -0.15116E-04   -0.26242E-04  8676   0.615E-02    0.177E-02
DAV:   3    -0.228376956044E+03    0.22856E-05   -0.97365E-06  5040   0.145E-02
   8 F= -.16112184E+03 E0= -.16112184E+03  d E =-.615966E-03
       N       E                     dE             d eps       ncg     rms          rms(c)
DAV:   1    -0.228367462180E+03    0.94961E-02   -0.27777E-02  7188   0.687E-01    0.321E-02
DAV:   2    -0.228367468891E+03   -0.67106E-05   -0.42177E-04  8820   0.804E-02    0.230E-02
DAV:   3    -0.228367459790E+03    0.91007E-05   -0.23675E-05  6228   0.198E-02
   9 F= -.16112207E+03 E0= -.16112207E+03  d E =-.235581E-03
       N       E                     dE             d eps       ncg     rms          rms(c)
DAV:   1    -0.228368655147E+03   -0.11863E-02   -0.52990E-04  7332   0.931E-02    0.515E-03
DAV:   2    -0.228368655986E+03   -0.83927E-06   -0.15994E-05  5280   0.142E-02
  10 F= -.16112208E+03 E0= -.16112208E+03  d E =-.239754E-03
       N       E                     dE             d eps       ncg     rms          rms(c)
DAV:   1    -0.228370846072E+03   -0.21909E-02   -0.71374E-03  7188   0.339E-01    0.176E-02
DAV:   2    -0.228370854637E+03   -0.85645E-05   -0.15349E-04  8574   0.475E-02    0.133E-02
DAV:   3    -0.228370855221E+03   -0.58417E-06   -0.72247E-06  4506   0.122E-02
  11 F= -.16112215E+03 E0= -.16112215E+03  d E =-.697180E-04
