Al4C3 R-3m polymorph (findsym-output, fr
   1.00000000000000     
     3.0412214169376455    0.0000000000000000    0.0000000000000000
    -1.5206107084688227    2.6337750056351279    0.0000000000000000
     0.0000000000000000    0.0000000000000000   22.7361834331336361
   Al   C 
    12     9
Direct
  0.0000000000000000 -0.0000000000000000  0.6294890276670323
  0.0000000000000000  0.0000000000000000  0.3705109723329676
  0.6666666870000029  0.3333333429999996  0.9628223406670294
  0.6666666870000029  0.3333333429999996  0.7038442863329685
  0.3333333429999996  0.6666666870000029  0.2961556836670291
  0.3333333429999996  0.6666666870000029  0.0371776403329725
 -0.0000000000000000 -0.0000000000000000  0.2059419069613068
  0.0000000000000000  0.0000000000000000  0.7940580930386931
  0.6666666870000029  0.3333333429999996  0.5392752209613076
  0.6666666870000029  0.3333333429999996  0.1273914210386952
  0.3333333429999996  0.6666666870000029  0.8726085939613097
  0.3333333429999996  0.6666666870000029  0.4607247490386899
  0.0000000000000000  0.0000000000000000  0.7167236917063704
 -0.0000000000000000 -0.0000000000000000  0.2832763082936296
  0.6666666870000029  0.3333333429999996  0.0500570237063726
  0.6666666870000029  0.3333333429999996  0.6166096212936267
  0.3333333429999996  0.6666666870000029  0.3833903487063708
  0.3333333429999996  0.6666666870000029  0.9499429952936254
  0.0000000000000000  0.0000000000000000  0.5000000000000000
  0.6666666870000029  0.3333333429999996  0.8333333129999971
  0.3333333429999996  0.6666666870000029  0.1666666719999981
 
  0.00000000E+00  0.00000000E+00  0.00000000E+00
  0.00000000E+00  0.00000000E+00  0.00000000E+00
  0.00000000E+00  0.00000000E+00  0.00000000E+00
  0.00000000E+00  0.00000000E+00  0.00000000E+00
  0.00000000E+00  0.00000000E+00  0.00000000E+00
  0.00000000E+00  0.00000000E+00  0.00000000E+00
  0.00000000E+00  0.00000000E+00  0.00000000E+00
  0.00000000E+00  0.00000000E+00  0.00000000E+00
  0.00000000E+00  0.00000000E+00  0.00000000E+00
  0.00000000E+00  0.00000000E+00  0.00000000E+00
  0.00000000E+00  0.00000000E+00  0.00000000E+00
  0.00000000E+00  0.00000000E+00  0.00000000E+00
  0.00000000E+00  0.00000000E+00  0.00000000E+00
  0.00000000E+00  0.00000000E+00  0.00000000E+00
  0.00000000E+00  0.00000000E+00  0.00000000E+00
  0.00000000E+00  0.00000000E+00  0.00000000E+00
  0.00000000E+00  0.00000000E+00  0.00000000E+00
  0.00000000E+00  0.00000000E+00  0.00000000E+00
  0.00000000E+00  0.00000000E+00  0.00000000E+00
  0.00000000E+00  0.00000000E+00  0.00000000E+00
  0.00000000E+00  0.00000000E+00  0.00000000E+00
