  21  21   0   0
  0.8729788E+01  0.3047948E-09  0.3047948E-09  0.2278647E-08  0.5000000E-15
  1.000000000000000E-004
  CAR 
 Al4C3 R-3m - r2SCAN H(P) scan @ 80 GPa (
     19.99998423     -7.40743304  301     10.60152405      1.00000000
     -7.407  0.0000E+00  0.0000E+00
     -7.316  0.0000E+00  0.0000E+00
     -7.225  0.0000E+00  0.0000E+00
     -7.133  0.0000E+00  0.0000E+00
     -7.042  0.0000E+00  0.0000E+00
     -6.951  0.0000E+00  0.0000E+00
     -6.859  0.0000E+00  0.0000E+00
     -6.768  0.0000E+00  0.0000E+00
     -6.677  0.0000E+00  0.0000E+00
     -6.585  0.0000E+00  0.0000E+00
     -6.494  0.0000E+00  0.0000E+00
     -6.402  0.1826E-14  0.1668E-15
     -6.311  0.4519E-08  0.4128E-09
     -6.220  0.2158E-04  0.1971E-05
     -6.128  0.6458E-03  0.6097E-04
     -6.037  0.2438E-02  0.2837E-03
     -5.946  0.6173E-02  0.8477E-03
     -5.854  0.5129E-02  0.1316E-02
     -5.763  0.4339E-02  0.1713E-02
     -5.672  0.6298E-02  0.2288E-02
     -5.580  0.1019E-01  0.3219E-02
     -5.489  0.5916E-02  0.3759E-02
     -5.398  0.2141E-02  0.3955E-02
     -5.306  0.1404E-02  0.4083E-02
     -5.215  0.1070E-01  0.5061E-02
     -5.123  0.1042E-01  0.6013E-02
     -5.032  0.6838E-02  0.6638E-02
     -4.941  0.6088E-02  0.7194E-02
     -4.849  0.6788E-02  0.7814E-02
     -4.758  0.3022E-02  0.8090E-02
     -4.667  0.6144E-02  0.8651E-02
     -4.575  0.1019E-01  0.9582E-02
     -4.484  0.2101E-01  0.1150E-01
     -4.393  0.1930E-01  0.1327E-01
     -4.301  0.7683E-02  0.1397E-01
     -4.210  0.6147E-02  0.1453E-01
     -4.119  0.1298E-01  0.1571E-01
     -4.027  0.1374E-01  0.1697E-01
     -3.936  0.9390E-02  0.1783E-01
     -3.844  0.1229E-01  0.1895E-01
     -3.753  0.1890E-01  0.2068E-01
     -3.662  0.1908E-01  0.2242E-01
     -3.570  0.1733E-01  0.2400E-01
     -3.479  0.1691E-01  0.2555E-01
     -3.388  0.8920E-02  0.2636E-01
     -3.296  0.1200E-01  0.2746E-01
     -3.205  0.9967E-02  0.2837E-01
     -3.114  0.1114E-01  0.2939E-01
     -3.022  0.1986E-01  0.3120E-01
     -2.931  0.2681E-01  0.3365E-01
     -2.840  0.2168E-01  0.3563E-01
     -2.748  0.2953E-01  0.3833E-01
     -2.657  0.1931E-01  0.4009E-01
     -2.565  0.1080E-01  0.4108E-01
     -2.474  0.2277E-01  0.4316E-01
     -2.383  0.1871E-01  0.4487E-01
     -2.291  0.3619E-01  0.4818E-01
     -2.200  0.1752E-01  0.4978E-01
     -2.109  0.1196E-01  0.5087E-01
     -2.017  0.1785E-01  0.5250E-01
     -1.926  0.3056E-01  0.5529E-01
     -1.835  0.2730E-01  0.5779E-01
     -1.743  0.2493E-01  0.6006E-01
     -1.652  0.1880E-01  0.6178E-01
     -1.561  0.1838E-01  0.6346E-01
     -1.469  0.1534E-01  0.6486E-01
     -1.378  0.3212E-01  0.6780E-01
     -1.286  0.1526E-01  0.6919E-01
     -1.195  0.1106E-01  0.7020E-01
     -1.104  0.1687E-01  0.7174E-01
     -1.012  0.3115E-01  0.7459E-01
     -0.921  0.3813E-01  0.7807E-01
     -0.830  0.4805E-01  0.8246E-01
     -0.738  0.6008E-01  0.8795E-01
     -0.647  0.1971E-01  0.8975E-01
     -0.556  0.2697E-02  0.9000E-01
     -0.464  0.2541E-04  0.9000E-01
     -0.373  0.1142E-08  0.9000E-01
     -0.282  0.8735E-16  0.9000E-01
     -0.190  0.0000E+00  0.9000E-01
     -0.099  0.0000E+00  0.9000E-01
     -0.007  0.0000E+00  0.9000E-01
      0.084  0.0000E+00  0.9000E-01
      0.175  0.0000E+00  0.9000E-01
      0.267  0.0000E+00  0.9000E-01
      0.358  0.0000E+00  0.9000E-01
      0.449  0.0000E+00  0.9000E-01
      0.541  0.0000E+00  0.9000E-01
      0.632  0.0000E+00  0.9000E-01
      0.723  0.3374E-16  0.9000E-01
      0.815  0.4788E-09  0.9000E-01
      0.906  0.1095E-04  0.9000E-01
      0.998  0.7301E-03  0.9007E-01
      1.089  0.2096E-02  0.9026E-01
      1.180  0.1196E-02  0.9037E-01
      1.272  0.8951E-02  0.9119E-01
      1.363  0.8011E-02  0.9192E-01
      1.454  0.1058E-01  0.9288E-01
      1.546  0.1241E-01  0.9402E-01
      1.637  0.9679E-02  0.9490E-01
      1.728  0.5166E-02  0.9538E-01
      1.820  0.5379E-02  0.9587E-01
      1.911  0.1151E-01  0.9692E-01
      2.002  0.2238E-01  0.9896E-01
      2.094  0.2571E-01  0.1013E+00
      2.185  0.6612E-02  0.1019E+00
      2.277  0.1215E-01  0.1030E+00
      2.368  0.1244E-01  0.1042E+00
      2.459  0.1943E-01  0.1059E+00
      2.551  0.1520E-01  0.1073E+00
      2.642  0.3030E-02  0.1076E+00
      2.733  0.4980E-02  0.1081E+00
      2.825  0.9970E-02  0.1090E+00
      2.916  0.1243E-01  0.1101E+00
      3.007  0.2485E-01  0.1124E+00
      3.099  0.2323E-01  0.1145E+00
      3.190  0.2110E-01  0.1164E+00
      3.281  0.2407E-01  0.1186E+00
      3.373  0.2741E-01  0.1211E+00
      3.464  0.2886E-01  0.1238E+00
      3.556  0.3440E-01  0.1269E+00
      3.647  0.2772E-01  0.1294E+00
      3.738  0.2852E-01  0.1320E+00
      3.830  0.2656E-01  0.1345E+00
      3.921  0.3881E-01  0.1380E+00
      4.012  0.2292E-01  0.1401E+00
      4.104  0.1707E-01  0.1417E+00
      4.195  0.1601E-01  0.1431E+00
      4.286  0.2780E-01  0.1457E+00
      4.378  0.2826E-01  0.1483E+00
      4.469  0.3860E-01  0.1518E+00
      4.560  0.3515E-01  0.1550E+00
      4.652  0.3778E-01  0.1584E+00
      4.743  0.3956E-01  0.1621E+00
      4.835  0.2618E-01  0.1645E+00
      4.926  0.2710E-01  0.1669E+00
      5.017  0.1831E-01  0.1686E+00
      5.109  0.4288E-01  0.1725E+00
      5.200  0.4935E-01  0.1770E+00
      5.291  0.3988E-01  0.1807E+00
      5.383  0.3646E-01  0.1840E+00
      5.474  0.3269E-01  0.1870E+00
      5.565  0.2176E-01  0.1890E+00
      5.657  0.2503E-01  0.1913E+00
      5.748  0.1548E-01  0.1927E+00
      5.839  0.2389E-01  0.1949E+00
      5.931  0.2495E-01  0.1971E+00
      6.022  0.4581E-01  0.2013E+00
      6.114  0.4101E-01  0.2051E+00
      6.205  0.2629E-01  0.2075E+00
      6.296  0.4075E-01  0.2112E+00
      6.388  0.3471E-01  0.2144E+00
      6.479  0.2549E-01  0.2167E+00
      6.570  0.2864E-01  0.2193E+00
      6.662  0.1971E-01  0.2211E+00
      6.753  0.4019E-01  0.2248E+00
      6.844  0.4263E-01  0.2287E+00
      6.936  0.3867E-01  0.2322E+00
      7.027  0.4060E-01  0.2359E+00
      7.118  0.2655E-01  0.2383E+00
      7.210  0.3400E-01  0.2414E+00
      7.301  0.4130E-01  0.2452E+00
      7.393  0.2869E-01  0.2478E+00
      7.484  0.3725E-01  0.2512E+00
      7.575  0.2992E-01  0.2540E+00
      7.667  0.2983E-01  0.2567E+00
      7.758  0.2389E-01  0.2589E+00
      7.849  0.3544E-01  0.2621E+00
      7.941  0.6392E-01  0.2680E+00
      8.032  0.4345E-01  0.2719E+00
      8.123  0.4565E-01  0.2761E+00
      8.215  0.3079E-01  0.2789E+00
      8.306  0.4552E-01  0.2831E+00
      8.398  0.5944E-01  0.2885E+00
      8.489  0.4940E-01  0.2930E+00
      8.580  0.4563E-01  0.2972E+00
      8.672  0.4011E-01  0.3009E+00
      8.763  0.5493E-01  0.3059E+00
      8.854  0.4881E-01  0.3103E+00
      8.946  0.3223E-01  0.3133E+00
      9.037  0.4655E-01  0.3175E+00
      9.128  0.5043E-01  0.3221E+00
      9.220  0.3926E-01  0.3257E+00
      9.311  0.4644E-01  0.3300E+00
      9.402  0.5132E-01  0.3347E+00
      9.494  0.4598E-01  0.3389E+00
      9.585  0.3692E-01  0.3422E+00
      9.677  0.3319E-01  0.3453E+00
      9.768  0.3277E-01  0.3482E+00
      9.859  0.2308E-01  0.3504E+00
      9.951  0.2796E-01  0.3529E+00
     10.042  0.1852E-01  0.3546E+00
     10.133  0.1724E-01  0.3562E+00
     10.225  0.1582E-01  0.3576E+00
     10.316  0.1111E-01  0.3586E+00
     10.407  0.1345E-01  0.3599E+00
     10.499  0.1437E-02  0.3600E+00
     10.590  0.1510E-05  0.3600E+00
     10.681  0.4622E-11  0.3600E+00
     10.773  0.0000E+00  0.3600E+00
     10.864  0.0000E+00  0.3600E+00
     10.956  0.0000E+00  0.3600E+00
     11.047  0.0000E+00  0.3600E+00
     11.138  0.0000E+00  0.3600E+00
     11.230  0.0000E+00  0.3600E+00
     11.321  0.0000E+00  0.3600E+00
     11.412  0.0000E+00  0.3600E+00
     11.504  0.0000E+00  0.3600E+00
     11.595  0.0000E+00  0.3600E+00
     11.686  0.1266E-17  0.3600E+00
     11.778  0.5239E-10  0.3600E+00
     11.869  0.3315E-05  0.3600E+00
     11.960  0.4937E-03  0.3600E+00
     12.052  0.1571E-02  0.3602E+00
     12.143  0.1436E-02  0.3603E+00
     12.235  0.3594E-02  0.3606E+00
     12.326  0.5174E-02  0.3611E+00
     12.417  0.4564E-02  0.3615E+00
     12.509  0.3811E-02  0.3619E+00
     12.600  0.6797E-02  0.3625E+00
     12.691  0.9911E-02  0.3634E+00
     12.783  0.9549E-02  0.3643E+00
     12.874  0.1023E-02  0.3644E+00
     12.965  0.3617E-02  0.3647E+00
     13.057  0.1476E-01  0.3661E+00
     13.148  0.1557E-01  0.3675E+00
     13.239  0.1701E-01  0.3690E+00
     13.331  0.1432E-01  0.3703E+00
     13.422  0.1973E-01  0.3721E+00
     13.514  0.1361E-01  0.3734E+00
     13.605  0.6751E-02  0.3740E+00
     13.696  0.1115E-01  0.3750E+00
     13.788  0.8199E-02  0.3758E+00
     13.879  0.1089E-01  0.3768E+00
     13.970  0.2296E-01  0.3789E+00
     14.062  0.2703E-01  0.3813E+00
     14.153  0.1927E-01  0.3831E+00
     14.244  0.6237E-02  0.3837E+00
     14.336  0.1260E-01  0.3848E+00
     14.427  0.1205E-01  0.3859E+00
     14.519  0.1033E-01  0.3869E+00
     14.610  0.1403E-01  0.3881E+00
     14.701  0.2021E-01  0.3900E+00
     14.793  0.1286E-01  0.3912E+00
     14.884  0.1247E-01  0.3923E+00
     14.975  0.2394E-01  0.3945E+00
     15.067  0.3355E-01  0.3976E+00
     15.158  0.4419E-01  0.4016E+00
     15.249  0.2062E-01  0.4035E+00
     15.341  0.1525E-01  0.4049E+00
     15.432  0.1251E-01  0.4060E+00
     15.523  0.1274E-01  0.4072E+00
     15.615  0.1365E-01  0.4084E+00
     15.706  0.1290E-01  0.4096E+00
     15.798  0.5442E-02  0.4101E+00
     15.889  0.1922E-01  0.4119E+00
     15.980  0.1539E-01  0.4133E+00
     16.072  0.1317E-01  0.4145E+00
     16.163  0.3609E-01  0.4178E+00
     16.254  0.1308E-01  0.4190E+00
     16.346  0.1400E-01  0.4202E+00
     16.437  0.2375E-01  0.4224E+00
     16.528  0.3560E-01  0.4257E+00
     16.620  0.3283E-01  0.4287E+00
     16.711  0.1665E-01  0.4302E+00
     16.802  0.2795E-01  0.4327E+00
     16.894  0.4196E-01  0.4366E+00
     16.985  0.2746E-01  0.4391E+00
     17.077  0.3646E-01  0.4424E+00
     17.168  0.4446E-01  0.4465E+00
     17.259  0.3821E-01  0.4500E+00
     17.351  0.4636E-01  0.4542E+00
     17.442  0.5269E-01  0.4590E+00
     17.533  0.4337E-01  0.4630E+00
     17.625  0.2738E-01  0.4655E+00
     17.716  0.1478E-01  0.4668E+00
     17.807  0.2299E-01  0.4689E+00
     17.899  0.1823E-01  0.4706E+00
     17.990  0.2015E-01  0.4724E+00
     18.081  0.2184E-01  0.4744E+00
     18.173  0.9928E-02  0.4753E+00
     18.264  0.1804E-01  0.4770E+00
     18.356  0.1838E-01  0.4787E+00
     18.447  0.3473E-02  0.4790E+00
     18.538  0.3033E-02  0.4792E+00
     18.630  0.5389E-02  0.4797E+00
     18.721  0.9441E-03  0.4798E+00
     18.812  0.1771E-02  0.4800E+00
     18.904  0.1141E-03  0.4800E+00
     18.995  0.2684E-07  0.4800E+00
     19.086  0.1095E-13  0.4800E+00
     19.178  0.0000E+00  0.4800E+00
     19.269  0.0000E+00  0.4800E+00
     19.360  0.0000E+00  0.4800E+00
     19.452  0.0000E+00  0.4800E+00
     19.543  0.0000E+00  0.4800E+00
     19.635  0.0000E+00  0.4800E+00
     19.726  0.0000E+00  0.4800E+00
     19.817  0.0000E+00  0.4800E+00
     19.909  0.0000E+00  0.4800E+00
     20.000  0.0000E+00  0.4800E+00
