       N       E                     dE             d eps       ncg     rms          rms(c)
DAV:   1    -0.199858233386E+03   -0.19986E+03   -0.11393E+02  4236   0.373E+01    0.307E+01
DAV:   2    -0.164236660496E+03    0.35622E+02   -0.58387E+01  4032   0.290E+01    0.137E+01
DAV:   3    -0.163779581030E+03    0.45708E+00   -0.10037E+01  4344   0.130E+01    0.936E+00
DAV:   4    -0.164161791062E+03   -0.38221E+00   -0.13131E+00  4968   0.499E+00    0.544E+00
DAV:   5    -0.164250783860E+03   -0.88993E-01   -0.21822E-01  4272   0.245E+00    0.592E-01
DAV:   6    -0.164252359048E+03   -0.15752E-02   -0.10913E-02  4536   0.551E-01    0.424E-01
DAV:   7    -0.164253169262E+03   -0.81021E-03   -0.33967E-03  5052   0.271E-01    0.292E-01
DAV:   8    -0.164253674206E+03   -0.50494E-03   -0.13748E-03  4416   0.202E-01    0.113E-01
DAV:   9    -0.164253638128E+03    0.36078E-04   -0.41406E-04  4440   0.104E-01    0.282E-02
DAV:  10    -0.164253656375E+03   -0.18247E-04   -0.13953E-04  4464   0.489E-02    0.201E-02
DAV:  11    -0.164253654425E+03    0.19502E-05   -0.10331E-05  2352   0.166E-02
   1 F= -.72715451E+02 E0= -.72715451E+02  d E =-.727155E+02
       N       E                     dE             d eps       ncg     rms          rms(c)
DAV:   1    -0.162111672559E+03    0.21420E+01   -0.11165E+00  4356   0.538E+00    0.111E+00
DAV:   2    -0.162095654645E+03    0.16018E-01   -0.71189E-02  4404   0.108E+00    0.584E-01
DAV:   3    -0.162095397551E+03    0.25709E-03   -0.11455E-02  4344   0.398E-01    0.219E-01
DAV:   4    -0.162095648633E+03   -0.25108E-03   -0.39932E-04  4392   0.118E-01    0.902E-02
DAV:   5    -0.162095699353E+03   -0.50720E-04   -0.13594E-04  4320   0.531E-02    0.702E-02
DAV:   6    -0.162095741123E+03   -0.41770E-04   -0.17108E-05  2592   0.256E-02    0.238E-02
DAV:   7    -0.162095759481E+03   -0.18359E-04   -0.66132E-06  2136   0.154E-02    0.569E-03
DAV:   8    -0.162095757095E+03    0.23862E-05   -0.10013E-06  2064   0.525E-03
   2 F= -.72657399E+02 E0= -.72657399E+02  d E =0.580518E-01
       N       E                     dE             d eps       ncg     rms          rms(c)
DAV:   1    -0.163644123256E+03   -0.15484E+01   -0.54304E-01  4368   0.371E+00    0.775E-01
DAV:   2    -0.163636522105E+03    0.76012E-02   -0.34923E-02  4368   0.753E-01    0.409E-01
DAV:   3    -0.163635921098E+03    0.60101E-03   -0.57108E-03  4344   0.280E-01    0.153E-01
DAV:   4    -0.163636015185E+03   -0.94087E-04   -0.19749E-04  4368   0.832E-02    0.627E-02
DAV:   5    -0.163635958704E+03    0.56482E-04   -0.69807E-05  4188   0.377E-02    0.490E-02
DAV:   6    -0.163635927590E+03    0.31113E-04   -0.84522E-06  2304   0.177E-02    0.172E-02
DAV:   7    -0.163635913851E+03    0.13740E-04   -0.34456E-06  2160   0.111E-02    0.389E-03
DAV:   8    -0.163635915614E+03   -0.17636E-05   -0.54619E-07  2088   0.384E-03
   3 F= -.72728172E+02 E0= -.72728172E+02  d E =-.127204E-01
       N       E                     dE             d eps       ncg     rms          rms(c)
DAV:   1    -0.163638991225E+03   -0.30774E-02   -0.23854E-06  1968   0.804E-03    0.185E-03
DAV:   2    -0.163638990871E+03    0.35354E-06   -0.21421E-07  1896   0.238E-03
   4 F= -.72728172E+02 E0= -.72728172E+02  d E =-.127212E-01
       N       E                     dE             d eps       ncg     rms          rms(c)
DAV:   1    -0.163653561627E+03   -0.14570E-01   -0.16866E-02  3708   0.572E-01    0.425E-02
DAV:   2    -0.163653582864E+03   -0.21237E-04   -0.11386E-03  4416   0.149E-01    0.282E-02
DAV:   3    -0.163653558225E+03    0.24639E-04   -0.65841E-05  4176   0.358E-02    0.188E-02
DAV:   4    -0.163653554190E+03    0.40350E-05   -0.13691E-05  2856   0.162E-02
   5 F= -.72728613E+02 E0= -.72728613E+02  d E =-.440456E-03
       N       E                     dE             d eps       ncg     rms          rms(c)
DAV:   1    -0.163649329380E+03    0.42288E-02   -0.15901E-03  3720   0.175E-01    0.123E-02
DAV:   2    -0.163649326738E+03    0.26425E-05   -0.11162E-04  4428   0.462E-02    0.817E-03
DAV:   3    -0.163649330498E+03   -0.37607E-05   -0.55421E-06  2100   0.108E-02
   6 F= -.72728718E+02 E0= -.72728718E+02  d E =-.545983E-03
       N       E                     dE             d eps       ncg     rms          rms(c)
DAV:   1    -0.163682937363E+03   -0.33611E-01   -0.20379E-02  3672   0.683E-01    0.381E-02
DAV:   2    -0.163682881372E+03    0.55991E-04   -0.25523E-04  4644   0.836E-02    0.257E-02
DAV:   3    -0.163682877093E+03    0.42790E-05   -0.48102E-05  4416   0.308E-02
   7 F= -.72728559E+02 E0= -.72728559E+02  d E =0.159449E-03
       N       E                     dE             d eps       ncg     rms          rms(c)
DAV:   1    -0.163662273093E+03    0.20608E-01   -0.81411E-03  3648   0.428E-01    0.217E-02
DAV:   2    -0.163662259957E+03    0.13136E-04   -0.11312E-04  4512   0.539E-02    0.145E-02
DAV:   3    -0.163662256186E+03    0.37710E-05   -0.16031E-05  2856   0.185E-02
   8 F= -.72728804E+02 E0= -.72728804E+02  d E =-.851533E-04
