Al4C3 R-3m - r2SCAN H(P) scan @ 80 GPa (
           1
     3.047948    0.000000    0.000000
    -1.523974    2.639601    0.000000
     0.000000    0.000000   22.786474
   Al   C 
    12     9
Direct configuration=     1
   0.00000000  0.00000000  0.62929276
   0.00000000  0.00000000  0.37070724
   0.66666669  0.33333334  0.96262607
   0.66666669  0.33333334  0.70404055
   0.33333334  0.66666669  0.29595942
   0.33333334  0.66666669  0.03737391
   0.00000000  0.00000000  0.20595913
   0.00000000  0.00000000  0.79404087
   0.66666669  0.33333334  0.53929244
   0.66666669  0.33333334  0.12737420
   0.33333334  0.66666669  0.87262582
   0.33333334  0.66666669  0.46070753
   0.00000000  0.00000000  0.71665628
   0.00000000  0.00000000  0.28334372
   0.66666669  0.33333334  0.04998962
   0.66666669  0.33333334  0.61667703
   0.33333334  0.66666669  0.38332294
   0.33333334  0.66666669  0.95001040
   0.00000000  0.00000000  0.50000000
   0.66666669  0.33333334  0.83333331
   0.33333334  0.66666669  0.16666667
Al4C3 R-3m - r2SCAN H(P) scan @ 80 GPa (
           1
     3.024462    0.000000    0.000000
    -1.512231    2.619261    0.000000
     0.000000    0.000000   22.610888
   Al   C 
    12     9
Direct configuration=     2
  -0.00000000  0.00000000  0.62956592
   0.00000000  0.00000000  0.37043408
   0.66666669  0.33333334  0.96289923
   0.66666669  0.33333334  0.70376739
   0.33333334  0.66666669  0.29623258
   0.33333334  0.66666669  0.03710075
   0.00000000 -0.00000000  0.20601620
   0.00000000  0.00000000  0.79398380
   0.66666669  0.33333334  0.53934951
   0.66666669  0.33333334  0.12731713
   0.33333334  0.66666669  0.87268289
   0.33333334  0.66666669  0.46065046
   0.00000000  0.00000000  0.71680681
  -0.00000000 -0.00000000  0.28319319
   0.66666669  0.33333334  0.05014014
   0.66666669  0.33333334  0.61652651
   0.33333334  0.66666669  0.38347346
   0.33333334  0.66666669  0.94985988
  -0.00000000  0.00000000  0.50000000
   0.66666669  0.33333334  0.83333331
   0.33333334  0.66666669  0.16666667
Al4C3 R-3m - r2SCAN H(P) scan @ 80 GPa (
           1
     3.040935    0.000000    0.000000
    -1.520467    2.633527    0.000000
     0.000000    0.000000   22.734041
   Al   C 
    12     9
Direct configuration=     3
  -0.00000000  0.00000000  0.62937284
   0.00000000  0.00000000  0.37062716
   0.66666669  0.33333334  0.96270616
   0.66666669  0.33333334  0.70396047
   0.33333334  0.66666669  0.29603950
   0.33333334  0.66666669  0.03729382
   0.00000000 -0.00000000  0.20597586
   0.00000000  0.00000000  0.79402414
   0.66666669  0.33333334  0.53930918
   0.66666669  0.33333334  0.12735747
   0.33333334  0.66666669  0.87264255
   0.33333334  0.66666669  0.46069079
   0.00000000  0.00000000  0.71670041
  -0.00000000 -0.00000000  0.28329959
   0.66666669  0.33333334  0.05003375
   0.66666669  0.33333334  0.61663290
   0.33333334  0.66666669  0.38336707
   0.33333334  0.66666669  0.94996627
  -0.00000000  0.00000000  0.50000000
   0.66666669  0.33333334  0.83333331
   0.33333334  0.66666669  0.16666667
Al4C3 R-3m - r2SCAN H(P) scan @ 80 GPa (
           1
     3.040969    0.000000    0.000000
    -1.520485    2.633556    0.000000
     0.000000    0.000000   22.734297
   Al   C 
    12     9
Direct configuration=     4
  -0.00000000  0.00000000  0.62937244
   0.00000000  0.00000000  0.37062756
   0.66666669  0.33333334  0.96270576
   0.66666669  0.33333334  0.70396087
   0.33333334  0.66666669  0.29603910
   0.33333334  0.66666669  0.03729422
   0.00000000 -0.00000000  0.20597578
   0.00000000  0.00000000  0.79402422
   0.66666669  0.33333334  0.53930909
   0.66666669  0.33333334  0.12735755
   0.33333334  0.66666669  0.87264246
   0.33333334  0.66666669  0.46069088
   0.00000000  0.00000000  0.71670019
  -0.00000000 -0.00000000  0.28329981
   0.66666669  0.33333334  0.05003353
   0.66666669  0.33333334  0.61663312
   0.33333334  0.66666669  0.38336685
   0.33333334  0.66666669  0.94996649
  -0.00000000  0.00000000  0.50000000
   0.66666669  0.33333334  0.83333331
   0.33333334  0.66666669  0.16666667
Al4C3 R-3m - r2SCAN H(P) scan @ 80 GPa (
           1
     3.041127    0.000000    0.000000
    -1.520563    2.633693    0.000000
     0.000000    0.000000   22.735474
   Al   C 
    12     9
Direct configuration=     5
   0.00000000 -0.00000000  0.62950805
   0.00000000  0.00000000  0.37049195
   0.66666669  0.33333334  0.96284136
   0.66666669  0.33333334  0.70382527
   0.33333334  0.66666669  0.29617470
   0.33333334  0.66666669  0.03715862
  -0.00000000 -0.00000000  0.20590904
   0.00000000 -0.00000000  0.79409096
   0.66666669  0.33333334  0.53924236
   0.66666669  0.33333334  0.12742429
   0.33333334  0.66666669  0.87257573
   0.33333334  0.66666669  0.46075761
   0.00000000 -0.00000000  0.71670598
   0.00000000  0.00000000  0.28329402
   0.66666669  0.33333334  0.05003931
   0.66666669  0.33333334  0.61662734
   0.33333334  0.66666669  0.38337263
   0.33333334  0.66666669  0.94996071
  -0.00000000  0.00000000  0.50000000
   0.66666669  0.33333334  0.83333331
   0.33333334  0.66666669  0.16666667
Al4C3 R-3m - r2SCAN H(P) scan @ 80 GPa (
           1
     3.041078    0.000000    0.000000
    -1.520539    2.633651    0.000000
     0.000000    0.000000   22.735113
   Al   C 
    12     9
Direct configuration=     6
  -0.00000000 -0.00000000  0.62946648
   0.00000000  0.00000000  0.37053352
   0.66666669  0.33333334  0.96279980
   0.66666669  0.33333334  0.70386683
   0.33333334  0.66666669  0.29613314
   0.33333334  0.66666669  0.03720018
  -0.00000000 -0.00000000  0.20592950
   0.00000000 -0.00000000  0.79407050
   0.66666669  0.33333334  0.53926281
   0.66666669  0.33333334  0.12740383
   0.33333334  0.66666669  0.87259618
   0.33333334  0.66666669  0.46073716
   0.00000000 -0.00000000  0.71670420
   0.00000000  0.00000000  0.28329580
   0.66666669  0.33333334  0.05003754
   0.66666669  0.33333334  0.61662911
   0.33333334  0.66666669  0.38337086
   0.33333334  0.66666669  0.94996248
  -0.00000000  0.00000000  0.50000000
   0.66666669  0.33333334  0.83333331
   0.33333334  0.66666669  0.16666667
Al4C3 R-3m - r2SCAN H(P) scan @ 80 GPa (
           1
     3.041454    0.000000    0.000000
    -1.520727    2.633976    0.000000
     0.000000    0.000000   22.737922
   Al   C 
    12     9
Direct configuration=     7
   0.00000000 -0.00000000  0.62952565
  -0.00000000  0.00000000  0.37047435
   0.66666669  0.33333334  0.96285896
   0.66666669  0.33333334  0.70380767
   0.33333334  0.66666669  0.29619230
   0.33333334  0.66666669  0.03714102
  -0.00000000 -0.00000000  0.20596206
   0.00000000  0.00000000  0.79403794
   0.66666669  0.33333334  0.53929538
   0.66666669  0.33333334  0.12737126
   0.33333334  0.66666669  0.87262875
   0.33333334  0.66666669  0.46070459
   0.00000000  0.00000000  0.71675535
  -0.00000000 -0.00000000  0.28324465
   0.66666669  0.33333334  0.05008868
   0.66666669  0.33333334  0.61657797
   0.33333334  0.66666669  0.38342200
   0.33333334  0.66666669  0.94991134
   0.00000000  0.00000000  0.50000000
   0.66666669  0.33333334  0.83333331
   0.33333334  0.66666669  0.16666667
Al4C3 R-3m - r2SCAN H(P) scan @ 80 GPa (
           1
     3.041221    0.000000    0.000000
    -1.520611    2.633775    0.000000
     0.000000    0.000000   22.736183
   Al   C 
    12     9
Direct configuration=     8
   0.00000000 -0.00000000  0.62948903
   0.00000000  0.00000000  0.37051097
   0.66666669  0.33333334  0.96282234
   0.66666669  0.33333334  0.70384429
   0.33333334  0.66666669  0.29615568
   0.33333334  0.66666669  0.03717764
  -0.00000000 -0.00000000  0.20594191
   0.00000000  0.00000000  0.79405809
   0.66666669  0.33333334  0.53927522
   0.66666669  0.33333334  0.12739142
   0.33333334  0.66666669  0.87260859
   0.33333334  0.66666669  0.46072475
   0.00000000  0.00000000  0.71672369
  -0.00000000 -0.00000000  0.28327631
   0.66666669  0.33333334  0.05005702
   0.66666669  0.33333334  0.61660962
   0.33333334  0.66666669  0.38339035
   0.33333334  0.66666669  0.94994300
   0.00000000  0.00000000  0.50000000
   0.66666669  0.33333334  0.83333331
   0.33333334  0.66666669  0.16666667
