Al4C3 R-3m polymorph (findsym-output, fr
   1.00000000000000     
     3.3552338980709289    0.0000000000000000    0.0000000000000000
    -1.6776169490354644    2.9057177914054249    0.0000000000000000
     0.0000000000000000    0.0000000000000000   25.0837419935125681
   Al   C 
    12     9
Direct
 -0.0000000000000000 -0.0000000000000000  0.6299052712659550
  0.0000000000000000 -0.0000000000000000  0.3700947287340449
  0.6666666870000029  0.3333333429999996  0.9632385842659521
  0.6666666870000029  0.3333333429999996  0.7034280427340458
  0.3333333429999996  0.6666666870000029  0.2965719272659519
  0.3333333429999996  0.6666666870000029  0.0367613967340497
 -0.0000000000000000 -0.0000000000000000  0.2065337088968785
  0.0000000000000000 -0.0000000000000000  0.7934662911031214
  0.6666666870000029  0.3333333429999996  0.5398670228968794
  0.6666666870000029  0.3333333429999996  0.1267996191031234
  0.3333333429999996  0.6666666870000029  0.8732003958968815
  0.3333333429999996  0.6666666870000029  0.4601329471031181
 -0.0000000000000000 -0.0000000000000000  0.7167016362986270
 -0.0000000000000000  0.0000000000000000  0.2832983637013729
  0.6666666870000029  0.3333333429999996  0.0500349682986294
  0.6666666870000029  0.3333333429999996  0.6166316767013701
  0.3333333429999996  0.6666666870000029  0.3833682932986275
  0.3333333429999996  0.6666666870000029  0.9499650507013687
  0.0000000000000000 -0.0000000000000000  0.5000000000000000
  0.6666666870000029  0.3333333429999996  0.8333333129999971
  0.3333333429999996  0.6666666870000029  0.1666666719999981
 
  0.00000000E+00  0.00000000E+00  0.00000000E+00
  0.00000000E+00  0.00000000E+00  0.00000000E+00
  0.00000000E+00  0.00000000E+00  0.00000000E+00
  0.00000000E+00  0.00000000E+00  0.00000000E+00
  0.00000000E+00  0.00000000E+00  0.00000000E+00
  0.00000000E+00  0.00000000E+00  0.00000000E+00
  0.00000000E+00  0.00000000E+00  0.00000000E+00
  0.00000000E+00  0.00000000E+00  0.00000000E+00
  0.00000000E+00  0.00000000E+00  0.00000000E+00
  0.00000000E+00  0.00000000E+00  0.00000000E+00
  0.00000000E+00  0.00000000E+00  0.00000000E+00
  0.00000000E+00  0.00000000E+00  0.00000000E+00
  0.00000000E+00  0.00000000E+00  0.00000000E+00
  0.00000000E+00  0.00000000E+00  0.00000000E+00
  0.00000000E+00  0.00000000E+00  0.00000000E+00
  0.00000000E+00  0.00000000E+00  0.00000000E+00
  0.00000000E+00  0.00000000E+00  0.00000000E+00
  0.00000000E+00  0.00000000E+00  0.00000000E+00
  0.00000000E+00  0.00000000E+00  0.00000000E+00
  0.00000000E+00  0.00000000E+00  0.00000000E+00
  0.00000000E+00  0.00000000E+00  0.00000000E+00
