  28  28   0   0
  0.7422983E+01  0.7972976E-09  0.2750532E-09  0.9477623E-09  0.5000000E-15
  1.000000000000000E-004
  CAR 
 Al4C3 Pnma - r2SCAN H(P) scan @ 100 GPa 
     23.82678534     -6.29599946  301     13.79840823      1.00000000
     -6.296  0.0000E+00  0.0000E+00
     -6.196  0.0000E+00  0.0000E+00
     -6.095  0.0000E+00  0.0000E+00
     -5.995  0.0000E+00  0.0000E+00
     -5.894  0.0000E+00  0.0000E+00
     -5.794  0.0000E+00  0.0000E+00
     -5.694  0.0000E+00  0.0000E+00
     -5.593  0.0000E+00  0.0000E+00
     -5.493  0.0000E+00  0.0000E+00
     -5.392  0.0000E+00  0.0000E+00
     -5.292  0.0000E+00  0.0000E+00
     -5.191  0.1823E-16  0.1830E-17
     -5.091  0.8723E-09  0.8759E-10
     -4.991  0.1835E-04  0.1842E-05
     -4.890  0.4875E-03  0.5079E-04
     -4.790  0.2202E-02  0.2719E-03
     -4.689  0.4309E-02  0.7046E-03
     -4.589  0.4521E-02  0.1159E-02
     -4.489  0.3684E-02  0.1528E-02
     -4.388  0.5243E-02  0.2055E-02
     -4.288  0.9161E-02  0.2975E-02
     -4.187  0.9200E-02  0.3899E-02
     -4.087  0.5009E-02  0.4402E-02
     -3.987  0.5378E-02  0.4941E-02
     -3.886  0.1079E-01  0.6025E-02
     -3.786  0.1051E-01  0.7080E-02
     -3.685  0.5371E-02  0.7619E-02
     -3.585  0.1169E-01  0.8793E-02
     -3.485  0.1247E-01  0.1004E-01
     -3.384  0.1157E-01  0.1121E-01
     -3.284  0.1137E-01  0.1235E-01
     -3.183  0.1080E-01  0.1343E-01
     -3.083  0.8037E-02  0.1424E-01
     -2.982  0.1009E-01  0.1525E-01
     -2.882  0.1775E-01  0.1703E-01
     -2.782  0.1414E-01  0.1845E-01
     -2.681  0.9054E-02  0.1936E-01
     -2.581  0.1121E-01  0.2049E-01
     -2.480  0.2280E-01  0.2278E-01
     -2.380  0.1626E-01  0.2441E-01
     -2.280  0.1230E-01  0.2565E-01
     -2.179  0.1252E-01  0.2690E-01
     -2.079  0.1685E-01  0.2860E-01
     -1.978  0.1263E-01  0.2986E-01
     -1.878  0.1347E-01  0.3122E-01
     -1.778  0.1559E-01  0.3278E-01
     -1.677  0.2165E-01  0.3496E-01
     -1.577  0.2378E-01  0.3734E-01
     -1.476  0.2282E-01  0.3963E-01
     -1.376  0.1432E-01  0.4107E-01
     -1.276  0.1914E-01  0.4299E-01
     -1.175  0.2562E-01  0.4557E-01
     -1.075  0.1651E-01  0.4722E-01
     -0.974  0.9325E-02  0.4816E-01
     -0.874  0.2019E-01  0.5019E-01
     -0.773  0.2406E-01  0.5260E-01
     -0.673  0.2990E-01  0.5561E-01
     -0.573  0.3496E-01  0.5912E-01
     -0.472  0.1965E-01  0.6109E-01
     -0.372  0.2157E-01  0.6325E-01
     -0.271  0.2692E-01  0.6596E-01
     -0.171  0.2448E-01  0.6842E-01
     -0.071  0.3670E-01  0.7210E-01
      0.030  0.3427E-01  0.7554E-01
      0.130  0.3757E-01  0.7931E-01
      0.231  0.3536E-01  0.8286E-01
      0.331  0.3779E-01  0.8666E-01
      0.431  0.3516E-01  0.9019E-01
      0.532  0.3429E-01  0.9363E-01
      0.632  0.3592E-01  0.9724E-01
      0.733  0.2741E-01  0.9999E-01
      0.833  0.1822E-01  0.1018E+00
      0.933  0.1649E-01  0.1035E+00
      1.034  0.1568E-01  0.1051E+00
      1.134  0.2576E-01  0.1076E+00
      1.235  0.1066E-01  0.1087E+00
      1.335  0.1304E-01  0.1100E+00
      1.436  0.1199E-01  0.1112E+00
      1.536  0.1814E-01  0.1130E+00
      1.636  0.7882E-02  0.1138E+00
      1.737  0.8162E-02  0.1147E+00
      1.837  0.1210E-01  0.1159E+00
      1.938  0.8407E-02  0.1167E+00
      2.038  0.8494E-02  0.1176E+00
      2.138  0.6200E-02  0.1182E+00
      2.239  0.9277E-02  0.1191E+00
      2.339  0.5506E-02  0.1197E+00
      2.440  0.2701E-02  0.1199E+00
      2.540  0.5291E-03  0.1200E+00
      2.640  0.6910E-06  0.1200E+00
      2.741  0.7151E-12  0.1200E+00
      2.841  0.5033E-10  0.1200E+00
      2.942  0.5115E-05  0.1200E+00
      3.042  0.7598E-03  0.1201E+00
      3.142  0.2566E-02  0.1203E+00
      3.243  0.4199E-02  0.1208E+00
      3.343  0.2476E-02  0.1210E+00
      3.444  0.5696E-02  0.1216E+00
      3.544  0.8407E-02  0.1224E+00
      3.645  0.1292E-01  0.1237E+00
      3.745  0.1718E-01  0.1254E+00
      3.845  0.2036E-01  0.1275E+00
      3.946  0.3399E-01  0.1309E+00
      4.046  0.2558E-01  0.1335E+00
      4.147  0.2862E-01  0.1363E+00
      4.247  0.2573E-01  0.1389E+00
      4.347  0.2276E-01  0.1412E+00
      4.448  0.2924E-01  0.1441E+00
      4.548  0.3978E-01  0.1481E+00
      4.649  0.3938E-01  0.1521E+00
      4.749  0.2408E-01  0.1545E+00
      4.849  0.3666E-01  0.1582E+00
      4.950  0.4281E-01  0.1625E+00
      5.050  0.3570E-01  0.1661E+00
      5.151  0.3355E-01  0.1694E+00
      5.251  0.2914E-01  0.1724E+00
      5.351  0.3226E-01  0.1756E+00
      5.452  0.3045E-01  0.1787E+00
      5.552  0.2741E-01  0.1814E+00
      5.653  0.3731E-01  0.1852E+00
      5.753  0.2984E-01  0.1882E+00
      5.854  0.2398E-01  0.1906E+00
      5.954  0.2274E-01  0.1929E+00
      6.054  0.3249E-01  0.1961E+00
      6.155  0.3490E-01  0.1996E+00
      6.255  0.3544E-01  0.2032E+00
      6.356  0.2965E-01  0.2062E+00
      6.456  0.2860E-01  0.2090E+00
      6.556  0.2951E-01  0.2120E+00
      6.657  0.3681E-01  0.2157E+00
      6.757  0.4264E-01  0.2200E+00
      6.858  0.3668E-01  0.2237E+00
      6.958  0.3149E-01  0.2268E+00
      7.058  0.3147E-01  0.2300E+00
      7.159  0.3387E-01  0.2334E+00
      7.259  0.2278E-01  0.2357E+00
      7.360  0.2946E-01  0.2386E+00
      7.460  0.3021E-01  0.2417E+00
      7.560  0.3636E-01  0.2453E+00
      7.661  0.4844E-01  0.2502E+00
      7.761  0.3886E-01  0.2541E+00
      7.862  0.3948E-01  0.2580E+00
      7.962  0.4348E-01  0.2624E+00
      8.063  0.3663E-01  0.2661E+00
      8.163  0.3040E-01  0.2691E+00
      8.263  0.4694E-01  0.2738E+00
      8.364  0.3941E-01  0.2778E+00
      8.464  0.3369E-01  0.2812E+00
      8.565  0.4924E-01  0.2861E+00
      8.665  0.3480E-01  0.2896E+00
      8.765  0.3008E-01  0.2926E+00
      8.866  0.3269E-01  0.2959E+00
      8.966  0.3006E-01  0.2989E+00
      9.067  0.3075E-01  0.3020E+00
      9.167  0.3939E-01  0.3060E+00
      9.267  0.3799E-01  0.3098E+00
      9.368  0.2668E-01  0.3125E+00
      9.468  0.5072E-01  0.3176E+00
      9.569  0.4023E-01  0.3216E+00
      9.669  0.4281E-01  0.3259E+00
      9.769  0.4510E-01  0.3304E+00
      9.870  0.3391E-01  0.3338E+00
      9.970  0.4218E-01  0.3381E+00
     10.071  0.4000E-01  0.3421E+00
     10.171  0.3899E-01  0.3460E+00
     10.272  0.4944E-01  0.3510E+00
     10.372  0.4469E-01  0.3555E+00
     10.472  0.3873E-01  0.3593E+00
     10.573  0.3069E-01  0.3624E+00
     10.673  0.2992E-01  0.3654E+00
     10.774  0.3631E-01  0.3691E+00
     10.874  0.4450E-01  0.3735E+00
     10.974  0.5288E-01  0.3789E+00
     11.075  0.6066E-01  0.3849E+00
     11.175  0.5136E-01  0.3901E+00
     11.276  0.6475E-01  0.3966E+00
     11.376  0.5698E-01  0.4023E+00
     11.476  0.5258E-01  0.4076E+00
     11.577  0.4136E-01  0.4118E+00
     11.677  0.5175E-01  0.4170E+00
     11.778  0.6257E-01  0.4232E+00
     11.878  0.6348E-01  0.4296E+00
     11.978  0.6607E-01  0.4362E+00
     12.079  0.6232E-01  0.4425E+00
     12.179  0.4558E-01  0.4471E+00
     12.280  0.4350E-01  0.4515E+00
     12.380  0.4359E-01  0.4558E+00
     12.481  0.3046E-01  0.4589E+00
     12.581  0.3477E-01  0.4624E+00
     12.681  0.3722E-01  0.4661E+00
     12.782  0.2822E-01  0.4689E+00
     12.882  0.2310E-01  0.4713E+00
     12.983  0.2452E-01  0.4737E+00
     13.083  0.1513E-01  0.4752E+00
     13.183  0.1142E-01  0.4764E+00
     13.284  0.1272E-01  0.4777E+00
     13.384  0.9584E-02  0.4786E+00
     13.485  0.8240E-02  0.4795E+00
     13.585  0.4493E-02  0.4799E+00
     13.685  0.8554E-03  0.4800E+00
     13.786  0.2757E-05  0.4800E+00
     13.886  0.1381E-10  0.4800E+00
     13.987  0.0000E+00  0.4800E+00
     14.087  0.0000E+00  0.4800E+00
     14.187  0.0000E+00  0.4800E+00
     14.288  0.0000E+00  0.4800E+00
     14.388  0.0000E+00  0.4800E+00
     14.489  0.0000E+00  0.4800E+00
     14.589  0.0000E+00  0.4800E+00
     14.690  0.0000E+00  0.4800E+00
     14.790  0.1191E-13  0.4800E+00
     14.890  0.9643E-07  0.4800E+00
     14.991  0.4389E-03  0.4800E+00
     15.091  0.5252E-02  0.4806E+00
     15.192  0.1302E-01  0.4819E+00
     15.292  0.9673E-02  0.4829E+00
     15.392  0.9325E-02  0.4838E+00
     15.493  0.1869E-01  0.4857E+00
     15.593  0.1803E-01  0.4875E+00
     15.694  0.1734E-01  0.4892E+00
     15.794  0.1947E-01  0.4912E+00
     15.894  0.1917E-01  0.4931E+00
     15.995  0.1016E-01  0.4941E+00
     16.095  0.9677E-02  0.4951E+00
     16.196  0.1835E-01  0.4969E+00
     16.296  0.2664E-01  0.4996E+00
     16.396  0.2428E-01  0.5020E+00
     16.497  0.2948E-01  0.5050E+00
     16.597  0.3058E-01  0.5081E+00
     16.698  0.2172E-01  0.5103E+00
     16.798  0.2692E-01  0.5130E+00
     16.899  0.2237E-01  0.5152E+00
     16.999  0.2109E-01  0.5173E+00
     17.099  0.1882E-01  0.5192E+00
     17.200  0.2231E-01  0.5215E+00
     17.300  0.1757E-01  0.5232E+00
     17.401  0.1302E-01  0.5245E+00
     17.501  0.1424E-01  0.5260E+00
     17.601  0.1382E-01  0.5273E+00
     17.702  0.2300E-01  0.5296E+00
     17.802  0.1791E-01  0.5314E+00
     17.903  0.2951E-01  0.5344E+00
     18.003  0.2486E-01  0.5369E+00
     18.103  0.1872E-01  0.5388E+00
     18.204  0.1888E-01  0.5407E+00
     18.304  0.1148E-01  0.5418E+00
     18.405  0.1925E-01  0.5438E+00
     18.505  0.2649E-01  0.5464E+00
     18.606  0.3827E-01  0.5503E+00
     18.706  0.5484E-01  0.5558E+00
     18.806  0.4043E-01  0.5598E+00
     18.907  0.3302E-01  0.5632E+00
     19.007  0.2110E-01  0.5653E+00
     19.108  0.3806E-01  0.5691E+00
     19.208  0.4035E-01  0.5731E+00
     19.308  0.3382E-01  0.5765E+00
     19.409  0.4091E-01  0.5806E+00
     19.509  0.3623E-01  0.5843E+00
     19.610  0.2483E-01  0.5868E+00
     19.710  0.3052E-01  0.5898E+00
     19.810  0.3395E-01  0.5933E+00
     19.911  0.3825E-01  0.5971E+00
     20.011  0.2336E-01  0.5994E+00
     20.112  0.2733E-01  0.6022E+00
     20.212  0.3615E-01  0.6058E+00
     20.312  0.2926E-01  0.6087E+00
     20.413  0.3278E-01  0.6120E+00
     20.513  0.2539E-01  0.6146E+00
     20.614  0.2210E-01  0.6168E+00
     20.714  0.2816E-01  0.6196E+00
     20.815  0.2423E-01  0.6221E+00
     20.915  0.2756E-01  0.6248E+00
     21.015  0.2417E-01  0.6273E+00
     21.116  0.3205E-01  0.6305E+00
     21.216  0.4064E-01  0.6346E+00
     21.317  0.3754E-01  0.6383E+00
     21.417  0.2979E-01  0.6413E+00
     21.517  0.2913E-01  0.6442E+00
     21.618  0.1914E-01  0.6462E+00
     21.718  0.2545E-01  0.6487E+00
     21.819  0.1671E-01  0.6504E+00
     21.919  0.2208E-01  0.6526E+00
     22.019  0.2522E-01  0.6552E+00
     22.120  0.2159E-01  0.6573E+00
     22.220  0.1540E-01  0.6589E+00
     22.321  0.7839E-02  0.6597E+00
     22.421  0.2381E-02  0.6599E+00
     22.521  0.1026E-02  0.6600E+00
     22.622  0.3675E-04  0.6600E+00
     22.722  0.1745E-08  0.6600E+00
     22.823  0.3640E-16  0.6600E+00
     22.923  0.0000E+00  0.6600E+00
     23.024  0.0000E+00  0.6600E+00
     23.124  0.0000E+00  0.6600E+00
     23.224  0.0000E+00  0.6600E+00
     23.325  0.0000E+00  0.6600E+00
     23.425  0.0000E+00  0.6600E+00
     23.526  0.0000E+00  0.6600E+00
     23.626  0.0000E+00  0.6600E+00
     23.726  0.0000E+00  0.6600E+00
     23.827  0.0000E+00  0.6600E+00
