Al4C3 Pnma (POSCAR.IV, symmetrized via s
   1.00000000000000     
     7.9729755547774452    0.0000000000000000    0.0000000000000000
     0.0000000000000000    2.7505316745814570    0.0000000000000000
     0.0000000000000000    0.0000000000000000    9.4776227695156674
   Al   C 
    16    12
Direct
  0.2608629086120974  0.2500000000000000  0.2967508828976669
  0.2391370913879026  0.7500000000000000  0.7967508828976668
  0.7391370913879027  0.7500000000000000  0.7032491171023332
  0.7608629086120973  0.2500000000000000  0.2032491171023331
  0.3427596599593393  0.2500000000000000  0.0108034413745234
  0.1572403400406606  0.7500000000000000  0.5108034413745235
  0.6572403400406605  0.7500000000000000  0.9891965586254765
  0.8427596599593395  0.2500000000000000  0.4891965586254766
  0.5227143422918595  0.2500000000000000  0.7932159369774202
  0.9772856577081405  0.7500000000000000  0.2932159369774203
  0.4772856577081403  0.7500000000000000  0.2067840630225797
  0.0227143422918597  0.2500000000000000  0.7067840630225798
  0.0652129118336510  0.2500000000000000  0.0914125376010083
  0.4347870881663561  0.7500000000000000  0.5914125376010081
  0.9347870881663488  0.7500000000000000  0.9085874623989919
  0.5652129118336512  0.2500000000000000  0.4085874623989916
  0.2631547053722381  0.2500000000000000  0.6429161005580610
  0.2368452946277619  0.7500000000000000  0.1429161005580609
  0.7368452946277617  0.7500000000000000  0.3570838994419390
  0.7631547053722383  0.2500000000000000  0.8570838994419390
  0.6090559802661578  0.2500000000000000  0.6060434444065420
  0.8909440197338422  0.7500000000000000  0.1060434444065421
  0.3909440197338421  0.7500000000000000  0.3939565555934577
  0.1090559802661579  0.2500000000000000  0.8939565555934580
  0.0620159627968660  0.2500000000000000  0.3907943241989283
  0.4379840372031340  0.7500000000000000  0.8907943241989283
  0.9379840372031342  0.7500000000000000  0.6092056758010717
  0.5620159627968658  0.2500000000000000  0.1092056758010717
 
  0.00000000E+00  0.00000000E+00  0.00000000E+00
  0.00000000E+00  0.00000000E+00  0.00000000E+00
  0.00000000E+00  0.00000000E+00  0.00000000E+00
  0.00000000E+00  0.00000000E+00  0.00000000E+00
  0.00000000E+00  0.00000000E+00  0.00000000E+00
  0.00000000E+00  0.00000000E+00  0.00000000E+00
  0.00000000E+00  0.00000000E+00  0.00000000E+00
  0.00000000E+00  0.00000000E+00  0.00000000E+00
  0.00000000E+00  0.00000000E+00  0.00000000E+00
  0.00000000E+00  0.00000000E+00  0.00000000E+00
  0.00000000E+00  0.00000000E+00  0.00000000E+00
  0.00000000E+00  0.00000000E+00  0.00000000E+00
  0.00000000E+00  0.00000000E+00  0.00000000E+00
  0.00000000E+00  0.00000000E+00  0.00000000E+00
  0.00000000E+00  0.00000000E+00  0.00000000E+00
  0.00000000E+00  0.00000000E+00  0.00000000E+00
  0.00000000E+00  0.00000000E+00  0.00000000E+00
  0.00000000E+00  0.00000000E+00  0.00000000E+00
  0.00000000E+00  0.00000000E+00  0.00000000E+00
  0.00000000E+00  0.00000000E+00  0.00000000E+00
  0.00000000E+00  0.00000000E+00  0.00000000E+00
  0.00000000E+00  0.00000000E+00  0.00000000E+00
  0.00000000E+00  0.00000000E+00  0.00000000E+00
  0.00000000E+00  0.00000000E+00  0.00000000E+00
  0.00000000E+00  0.00000000E+00  0.00000000E+00
  0.00000000E+00  0.00000000E+00  0.00000000E+00
  0.00000000E+00  0.00000000E+00  0.00000000E+00
  0.00000000E+00  0.00000000E+00  0.00000000E+00
