Al4C3 Pnma - r2SCAN H(P) scan @ 100 GPa 
           1
     7.972976    0.000000    0.000000
     0.000000    2.750532    0.000000
     0.000000    0.000000    9.477623
   Al   C 
    16    12
Direct configuration=     1
   0.26086291  0.25000000  0.29675088
   0.23913709  0.75000000  0.79675088
   0.73913709  0.75000000  0.70324912
   0.76086291  0.25000000  0.20324912
   0.34275966  0.25000000  0.01080344
   0.15724034  0.75000000  0.51080344
   0.65724034  0.75000000  0.98919656
   0.84275966  0.25000000  0.48919656
   0.52271434  0.25000000  0.79321594
   0.97728566  0.75000000  0.29321594
   0.47728566  0.75000000  0.20678406
   0.02271434  0.25000000  0.70678406
   0.06521291  0.25000000  0.09141254
   0.43478709  0.75000000  0.59141254
   0.93478709  0.75000000  0.90858746
   0.56521291  0.25000000  0.40858746
   0.26315471  0.25000000  0.64291610
   0.23684529  0.75000000  0.14291610
   0.73684529  0.75000000  0.35708390
   0.76315471  0.25000000  0.85708390
   0.60905598  0.25000000  0.60604344
   0.89094402  0.75000000  0.10604344
   0.39094402  0.75000000  0.39395656
   0.10905598  0.25000000  0.89395656
   0.06201596  0.25000000  0.39079432
   0.43798404  0.75000000  0.89079432
   0.93798404  0.75000000  0.60920568
   0.56201596  0.25000000  0.10920568
Al4C3 Pnma - r2SCAN H(P) scan @ 100 GPa 
           1
     7.901515    0.000000    0.000000
     0.000000    2.725879    0.000000
     0.000000    0.000000    9.392676
   Al   C 
    16    12
Direct configuration=     2
   0.26099329  0.25000000  0.29669203
   0.23900671  0.75000000  0.79669203
   0.73900671  0.75000000  0.70330797
   0.76099329  0.25000000  0.20330797
   0.34296605  0.25000000  0.01086437
   0.15703395  0.75000000  0.51086437
   0.65703395  0.75000000  0.98913563
   0.84296605  0.25000000  0.48913563
   0.52283152  0.25000000  0.79345486
   0.97716848  0.75000000  0.29345486
   0.47716848  0.75000000  0.20654514
   0.02283152  0.25000000  0.70654514
   0.06529987  0.25000000  0.09150842
   0.43470013  0.75000000  0.59150842
   0.93470013  0.75000000  0.90849158
   0.56529987  0.25000000  0.40849158
   0.26266542  0.25000000  0.64315238
   0.23733458  0.75000000  0.14315238
   0.73733458  0.75000000  0.35684762
   0.76266542  0.25000000  0.85684762
   0.60846458  0.25000000  0.60630963
   0.89153542  0.75000000  0.10630963
   0.39153542  0.75000000  0.39369037
   0.10846458  0.25000000  0.89369037
   0.06209174  0.25000000  0.38979061
   0.43790826  0.75000000  0.88979061
   0.93790826  0.75000000  0.61020939
   0.56209174  0.25000000  0.11020939
Al4C3 Pnma - r2SCAN H(P) scan @ 100 GPa 
           1
     7.952468    0.000000    0.000000
     0.000000    2.743457    0.000000
     0.000000    0.000000    9.453245
   Al   C 
    16    12
Direct configuration=     3
   0.26089948  0.25000000  0.29673437
   0.23910052  0.75000000  0.79673437
   0.73910052  0.75000000  0.70326563
   0.76089948  0.25000000  0.20326563
   0.34281756  0.25000000  0.01082053
   0.15718244  0.75000000  0.51082053
   0.65718244  0.75000000  0.98917947
   0.84281756  0.25000000  0.48917947
   0.52274721  0.25000000  0.79328296
   0.97725279  0.75000000  0.29328296
   0.47725279  0.75000000  0.20671704
   0.02274721  0.25000000  0.70671704
   0.06523731  0.25000000  0.09143944
   0.43476269  0.75000000  0.59143944
   0.93476269  0.75000000  0.90856056
   0.56523731  0.25000000  0.40856056
   0.26301745  0.25000000  0.64298238
   0.23698255  0.75000000  0.14298238
   0.73698255  0.75000000  0.35701762
   0.76301745  0.25000000  0.85701762
   0.60889007  0.25000000  0.60611812
   0.89110993  0.75000000  0.10611812
   0.39110993  0.75000000  0.39388188
   0.10889007  0.25000000  0.89388188
   0.06203722  0.25000000  0.39051275
   0.43796278  0.75000000  0.89051275
   0.93796278  0.75000000  0.60948725
   0.56203722  0.25000000  0.10948725
Al4C3 Pnma - r2SCAN H(P) scan @ 100 GPa 
           1
     7.952589    0.000000    0.000000
     0.000000    2.743499    0.000000
     0.000000    0.000000    9.453389
   Al   C 
    16    12
Direct configuration=     4
   0.26089926  0.25000000  0.29673447
   0.23910074  0.75000000  0.79673447
   0.73910074  0.75000000  0.70326553
   0.76089926  0.25000000  0.20326553
   0.34281721  0.25000000  0.01082043
   0.15718279  0.75000000  0.51082043
   0.65718279  0.75000000  0.98917957
   0.84281721  0.25000000  0.48917957
   0.52274702  0.25000000  0.79328255
   0.97725298  0.75000000  0.29328255
   0.47725298  0.75000000  0.20671745
   0.02274702  0.25000000  0.70671745
   0.06523716  0.25000000  0.09143927
   0.43476284  0.75000000  0.59143927
   0.93476284  0.75000000  0.90856073
   0.56523716  0.25000000  0.40856073
   0.26301828  0.25000000  0.64298198
   0.23698172  0.75000000  0.14298198
   0.73698172  0.75000000  0.35701802
   0.76301828  0.25000000  0.85701802
   0.60889108  0.25000000  0.60611767
   0.89110892  0.75000000  0.10611767
   0.39110892  0.75000000  0.39388233
   0.10889108  0.25000000  0.89388233
   0.06203709  0.25000000  0.39051446
   0.43796291  0.75000000  0.89051446
   0.93796291  0.75000000  0.60948554
   0.56203709  0.25000000  0.10948554
Al4C3 Pnma - r2SCAN H(P) scan @ 100 GPa 
           1
     7.953394    0.000000    0.000000
     0.000000    2.743777    0.000000
     0.000000    0.000000    9.454346
   Al   C 
    16    12
Direct configuration=     5
   0.26122764  0.25000000  0.29663755
   0.23877236  0.75000000  0.79663755
   0.73877236  0.75000000  0.70336245
   0.76122764  0.25000000  0.20336245
   0.34287029  0.25000000  0.01082569
   0.15712971  0.75000000  0.51082569
   0.65712971  0.75000000  0.98917431
   0.84287029  0.25000000  0.48917431
   0.52290207  0.25000000  0.79320438
   0.97709793  0.75000000  0.29320438
   0.47709793  0.75000000  0.20679562
   0.02290207  0.25000000  0.70679562
   0.06534376  0.25000000  0.09158473
   0.43465624  0.75000000  0.59158473
   0.93465624  0.75000000  0.90841527
   0.56534376  0.25000000  0.40841527
   0.26273017  0.25000000  0.64302707
   0.23726983  0.75000000  0.14302707
   0.73726983  0.75000000  0.35697293
   0.76273017  0.25000000  0.85697293
   0.60862702  0.25000000  0.60616817
   0.89137298  0.75000000  0.10616817
   0.39137298  0.75000000  0.39383183
   0.10862702  0.25000000  0.89383183
   0.06211766  0.25000000  0.39017256
   0.43788234  0.75000000  0.89017256
   0.93788234  0.75000000  0.60982744
   0.56211766  0.25000000  0.10982744
Al4C3 Pnma - r2SCAN H(P) scan @ 100 GPa 
           1
     7.953449    0.000000    0.000000
     0.000000    2.743795    0.000000
     0.000000    0.000000    9.454411
   Al   C 
    16    12
Direct configuration=     6
   0.26124999  0.25000000  0.29663095
   0.23875001  0.75000000  0.79663095
   0.73875001  0.75000000  0.70336905
   0.76124999  0.25000000  0.20336905
   0.34287390  0.25000000  0.01082605
   0.15712610  0.75000000  0.51082605
   0.65712610  0.75000000  0.98917395
   0.84287390  0.25000000  0.48917395
   0.52291262  0.25000000  0.79319906
   0.97708738  0.75000000  0.29319906
   0.47708738  0.75000000  0.20680094
   0.02291262  0.25000000  0.70680094
   0.06535102  0.25000000  0.09159463
   0.43464898  0.75000000  0.59159463
   0.93464898  0.75000000  0.90840537
   0.56535102  0.25000000  0.40840537
   0.26271056  0.25000000  0.64303014
   0.23728944  0.75000000  0.14303014
   0.73728944  0.75000000  0.35696986
   0.76271056  0.25000000  0.85696986
   0.60860905  0.25000000  0.60617161
   0.89139095  0.75000000  0.10617161
   0.39139095  0.75000000  0.39382839
   0.10860905  0.25000000  0.89382839
   0.06212315  0.25000000  0.39014929
   0.43787685  0.75000000  0.89014929
   0.93787685  0.75000000  0.60985071
   0.56212315  0.25000000  0.10985071
Al4C3 Pnma - r2SCAN H(P) scan @ 100 GPa 
           1
     7.954166    0.000000    0.000000
     0.000000    2.744043    0.000000
     0.000000    0.000000    9.455263
   Al   C 
    16    12
Direct configuration=     7
   0.26139271  0.25000000  0.29669283
   0.23860729  0.75000000  0.79669283
   0.73860729  0.75000000  0.70330717
   0.76139271  0.25000000  0.20330717
   0.34307639  0.25000000  0.01067911
   0.15692361  0.75000000  0.51067911
   0.65692361  0.75000000  0.98932089
   0.84307639  0.25000000  0.48932089
   0.52283376  0.25000000  0.79327868
   0.97716624  0.75000000  0.29327868
   0.47716624  0.75000000  0.20672132
   0.02283376  0.25000000  0.70672132
   0.06557265  0.25000000  0.09159493
   0.43442735  0.75000000  0.59159493
   0.93442735  0.75000000  0.90840507
   0.56557265  0.25000000  0.40840507
   0.26244941  0.25000000  0.64292069
   0.23755059  0.75000000  0.14292069
   0.73755059  0.75000000  0.35707931
   0.76244941  0.25000000  0.85707931
   0.60842103  0.25000000  0.60603417
   0.89157897  0.75000000  0.10603417
   0.39157897  0.75000000  0.39396583
   0.10842103  0.25000000  0.89396583
   0.06232962  0.25000000  0.38996113
   0.43767038  0.75000000  0.88996113
   0.93767038  0.75000000  0.61003887
   0.56232962  0.25000000  0.11003887
Al4C3 Pnma - r2SCAN H(P) scan @ 100 GPa 
           1
     7.954078    0.000000    0.000000
     0.000000    2.744012    0.000000
     0.000000    0.000000    9.455159
   Al   C 
    16    12
Direct configuration=     8
   0.26137529  0.25000000  0.29668527
   0.23862471  0.75000000  0.79668527
   0.73862471  0.75000000  0.70331473
   0.76137529  0.25000000  0.20331473
   0.34305167  0.25000000  0.01069705
   0.15694833  0.75000000  0.51069705
   0.65694833  0.75000000  0.98930295
   0.84305167  0.25000000  0.48930295
   0.52284338  0.25000000  0.79326896
   0.97715662  0.75000000  0.29326896
   0.47715662  0.75000000  0.20673104
   0.02284338  0.25000000  0.70673104
   0.06554560  0.25000000  0.09159489
   0.43445440  0.75000000  0.59159489
   0.93445440  0.75000000  0.90840511
   0.56554560  0.25000000  0.40840511
   0.26248129  0.25000000  0.64293405
   0.23751871  0.75000000  0.14293405
   0.73751871  0.75000000  0.35706595
   0.76248129  0.25000000  0.85706595
   0.60844399  0.25000000  0.60605095
   0.89155601  0.75000000  0.10605095
   0.39155601  0.75000000  0.39394905
   0.10844399  0.25000000  0.89394905
   0.06230441  0.25000000  0.38998410
   0.43769559  0.75000000  0.88998410
   0.93769559  0.75000000  0.61001590
   0.56230441  0.25000000  0.11001590
Al4C3 Pnma - r2SCAN H(P) scan @ 100 GPa 
           1
     7.953691    0.000000    0.000000
     0.000000    2.743879    0.000000
     0.000000    0.000000    9.454699
   Al   C 
    16    12
Direct configuration=     9
   0.26166304  0.25000000  0.29675239
   0.23833696  0.75000000  0.79675239
   0.73833696  0.75000000  0.70324761
   0.76166304  0.25000000  0.20324761
   0.34321846  0.25000000  0.01060610
   0.15678154  0.75000000  0.51060610
   0.65678154  0.75000000  0.98939390
   0.84321846  0.25000000  0.48939390
   0.52280595  0.25000000  0.79319707
   0.97719405  0.75000000  0.29319707
   0.47719405  0.75000000  0.20680293
   0.02280595  0.25000000  0.70680293
   0.06578604  0.25000000  0.09153024
   0.43421396  0.75000000  0.59153024
   0.93421396  0.75000000  0.90846976
   0.56578604  0.25000000  0.40846976
   0.26221006  0.25000000  0.64281216
   0.23778994  0.75000000  0.14281216
   0.73778994  0.75000000  0.35718784
   0.76221006  0.25000000  0.85718784
   0.60833774  0.25000000  0.60608000
   0.89166226  0.75000000  0.10608000
   0.39166226  0.75000000  0.39392000
   0.10833774  0.25000000  0.89392000
   0.06244554  0.25000000  0.39004708
   0.43755446  0.75000000  0.89004708
   0.93755446  0.75000000  0.60995292
   0.56244554  0.25000000  0.10995292
Al4C3 Pnma - r2SCAN H(P) scan @ 100 GPa 
           1
     7.953781    0.000000    0.000000
     0.000000    2.743910    0.000000
     0.000000    0.000000    9.454805
   Al   C 
    16    12
Direct configuration=    10
   0.26159657  0.25000000  0.29673689
   0.23840343  0.75000000  0.79673689
   0.73840343  0.75000000  0.70326311
   0.76159657  0.25000000  0.20326311
   0.34317994  0.25000000  0.01062711
   0.15682006  0.75000000  0.51062711
   0.65682006  0.75000000  0.98937289
   0.84317994  0.25000000  0.48937289
   0.52281460  0.25000000  0.79321367
   0.97718540  0.75000000  0.29321367
   0.47718540  0.75000000  0.20678633
   0.02281460  0.25000000  0.70678633
   0.06573050  0.25000000  0.09154517
   0.43426950  0.75000000  0.59154517
   0.93426950  0.75000000  0.90845483
   0.56573050  0.25000000  0.40845483
   0.26227271  0.25000000  0.64284032
   0.23772729  0.75000000  0.14284032
   0.73772729  0.75000000  0.35715968
   0.76227271  0.25000000  0.85715968
   0.60836228  0.25000000  0.60607329
   0.89163772  0.75000000  0.10607329
   0.39163772  0.75000000  0.39392671
   0.10836228  0.25000000  0.89392671
   0.06241294  0.25000000  0.39003253
   0.43758706  0.75000000  0.89003253
   0.93758706  0.75000000  0.60996747
   0.56241294  0.25000000  0.10996747
Al4C3 Pnma - r2SCAN H(P) scan @ 100 GPa 
           1
     7.953972    0.000000    0.000000
     0.000000    2.743976    0.000000
     0.000000    0.000000    9.455033
   Al   C 
    16    12
Direct configuration=    11
   0.26165162  0.25000000  0.29674323
   0.23834838  0.75000000  0.79674323
   0.73834838  0.75000000  0.70325677
   0.76165162  0.25000000  0.20325677
   0.34322310  0.25000000  0.01068824
   0.15677690  0.75000000  0.51068824
   0.65677690  0.75000000  0.98931176
   0.84322310  0.25000000  0.48931176
   0.52266438  0.25000000  0.79319635
   0.97733562  0.75000000  0.29319635
   0.47733562  0.75000000  0.20680365
   0.02266438  0.25000000  0.70680365
   0.06586207  0.25000000  0.09151330
   0.43413793  0.75000000  0.59151330
   0.93413793  0.75000000  0.90848670
   0.56586207  0.25000000  0.40848670
   0.26220039  0.25000000  0.64283096
   0.23779961  0.75000000  0.14283096
   0.73779961  0.75000000  0.35716904
   0.76220039  0.25000000  0.85716904
   0.60828624  0.25000000  0.60615488
   0.89171376  0.75000000  0.10615488
   0.39171376  0.75000000  0.39384512
   0.10828624  0.25000000  0.89384512
   0.06243438  0.25000000  0.39003382
   0.43756562  0.75000000  0.89003382
   0.93756562  0.75000000  0.60996618
   0.56243438  0.25000000  0.10996618
Al4C3 Pnma - r2SCAN H(P) scan @ 100 GPa 
           1
     7.954075    0.000000    0.000000
     0.000000    2.744011    0.000000
     0.000000    0.000000    9.455155
   Al   C 
    16    12
Direct configuration=    12
   0.26168124  0.25000000  0.29674663
   0.23831876  0.75000000  0.79674663
   0.73831876  0.75000000  0.70325337
   0.76168124  0.25000000  0.20325337
   0.34324633  0.25000000  0.01072113
   0.15675367  0.75000000  0.51072113
   0.65675367  0.75000000  0.98927887
   0.84324633  0.25000000  0.48927887
   0.52258354  0.25000000  0.79318703
   0.97741646  0.75000000  0.29318703
   0.47741646  0.75000000  0.20681297
   0.02258354  0.25000000  0.70681297
   0.06593287  0.25000000  0.09149615
   0.43406713  0.75000000  0.59149615
   0.93406713  0.75000000  0.90850385
   0.56593287  0.25000000  0.40850385
   0.26216146  0.25000000  0.64282593
   0.23783854  0.75000000  0.14282593
   0.73783854  0.75000000  0.35717407
   0.76216146  0.25000000  0.85717407
   0.60824532  0.25000000  0.60619879
   0.89175468  0.75000000  0.10619879
   0.39175468  0.75000000  0.39380121
   0.10824532  0.25000000  0.89380121
   0.06244592  0.25000000  0.39003452
   0.43755408  0.75000000  0.89003452
   0.93755408  0.75000000  0.60996548
   0.56244592  0.25000000  0.10996548
Al4C3 Pnma - r2SCAN H(P) scan @ 100 GPa 
           1
     7.954030    0.000000    0.000000
     0.000000    2.743996    0.000000
     0.000000    0.000000    9.455102
   Al   C 
    16    12
Direct configuration=    13
   0.26174119  0.25000000  0.29675850
   0.23825881  0.75000000  0.79675850
   0.73825881  0.75000000  0.70324150
   0.76174119  0.25000000  0.20324150
   0.34331684  0.25000000  0.01078432
   0.15668316  0.75000000  0.51078432
   0.65668316  0.75000000  0.98921568
   0.84331684  0.25000000  0.48921568
   0.52241257  0.25000000  0.79313742
   0.97758743  0.75000000  0.29313742
   0.47758743  0.75000000  0.20686258
   0.02241257  0.25000000  0.70686258
   0.06594444  0.25000000  0.09142661
   0.43405556  0.75000000  0.59142661
   0.93405556  0.75000000  0.90857339
   0.56594444  0.25000000  0.40857339
   0.26213073  0.25000000  0.64284527
   0.23786927  0.75000000  0.14284527
   0.73786927  0.75000000  0.35715473
   0.76213073  0.25000000  0.85715473
   0.60811769  0.25000000  0.60620695
   0.89188231  0.75000000  0.10620695
   0.39188231  0.75000000  0.39379305
   0.10811769  0.25000000  0.89379305
   0.06255319  0.25000000  0.39006163
   0.43744681  0.75000000  0.89006163
   0.93744681  0.75000000  0.60993837
   0.56255319  0.25000000  0.10993837
Al4C3 Pnma - r2SCAN H(P) scan @ 100 GPa 
           1
     7.954015    0.000000    0.000000
     0.000000    2.743991    0.000000
     0.000000    0.000000    9.455084
   Al   C 
    16    12
Direct configuration=    14
   0.26176158  0.25000000  0.29676254
   0.23823842  0.75000000  0.79676254
   0.73823842  0.75000000  0.70323746
   0.76176158  0.25000000  0.20323746
   0.34334083  0.25000000  0.01080582
   0.15665917  0.75000000  0.51080582
   0.65665917  0.75000000  0.98919418
   0.84334083  0.25000000  0.48919418
   0.52235442  0.25000000  0.79312054
   0.97764558  0.75000000  0.29312054
   0.47764558  0.75000000  0.20687946
   0.02235442  0.25000000  0.70687946
   0.06594837  0.25000000  0.09140296
   0.43405163  0.75000000  0.59140296
   0.93405163  0.75000000  0.90859704
   0.56594837  0.25000000  0.40859704
   0.26212028  0.25000000  0.64285185
   0.23787972  0.75000000  0.14285185
   0.73787972  0.75000000  0.35714815
   0.76212028  0.25000000  0.85714815
   0.60807428  0.25000000  0.60620973
   0.89192572  0.75000000  0.10620973
   0.39192572  0.75000000  0.39379027
   0.10807428  0.25000000  0.89379027
   0.06258967  0.25000000  0.39007085
   0.43741033  0.75000000  0.89007085
   0.93741033  0.75000000  0.60992915
   0.56258967  0.25000000  0.10992915
Al4C3 Pnma - r2SCAN H(P) scan @ 100 GPa 
           1
     7.954185    0.000000    0.000000
     0.000000    2.744049    0.000000
     0.000000    0.000000    9.455286
   Al   C 
    16    12
Direct configuration=    15
   0.26187118  0.25000000  0.29675683
   0.23812882  0.75000000  0.79675683
   0.73812882  0.75000000  0.70324317
   0.76187118  0.25000000  0.20324317
   0.34336087  0.25000000  0.01085190
   0.15663913  0.75000000  0.51085190
   0.65663913  0.75000000  0.98914810
   0.84336087  0.25000000  0.48914810
   0.52225775  0.25000000  0.79309189
   0.97774225  0.75000000  0.29309189
   0.47774225  0.75000000  0.20690811
   0.02225775  0.25000000  0.70690811
   0.06596087  0.25000000  0.09140802
   0.43403913  0.75000000  0.59140802
   0.93403913  0.75000000  0.90859198
   0.56596087  0.25000000  0.40859198
   0.26210177  0.25000000  0.64289601
   0.23789823  0.75000000  0.14289601
   0.73789823  0.75000000  0.35710399
   0.76210177  0.25000000  0.85710399
   0.60808246  0.25000000  0.60618626
   0.89191754  0.75000000  0.10618626
   0.39191754  0.75000000  0.39381374
   0.10808246  0.25000000  0.89381374
   0.06264468  0.25000000  0.39009788
   0.43735532  0.75000000  0.89009788
   0.93735532  0.75000000  0.60990212
   0.56264468  0.25000000  0.10990212
