Al4C3 Pnma (POSCAR.III, symmetrized via 
   1.00000000000000     
     8.5981560994796133    0.0000000000000000    0.0000000000000000
     0.0000000000000000    2.8994672499269551    0.0000000000000000
     0.0000000000000000    0.0000000000000000    9.3746238258529040
   Al   C 
    16    12
Direct
  0.7369911163287365  0.2500000000000000  0.7136059938071360
  0.7630088836712635  0.7500000000000000  0.2136059938071359
  0.2630088836712635  0.7500000000000000  0.2863940061928640
  0.2369911163287365  0.2500000000000000  0.7863940061928640
  0.6061162465073616  0.2500000000000000  0.4707495673415146
  0.8938837534926384  0.7500000000000000  0.9707495673415146
  0.3938837534926383  0.7500000000000000  0.5292504326584854
  0.1061162465073617  0.2500000000000000  0.0292504326584854
  0.1379984060526881  0.2500000000000000  0.5177430290223125
  0.3620015939473120  0.7500000000000000  0.0177430290223126
  0.8620015939473120  0.7500000000000000  0.4822569709776874
  0.6379984060526880  0.2500000000000000  0.9822569709776875
  0.9935420728392860  0.2500000000000000  0.2795248537322524
  0.5064579271607140  0.7500000000000000  0.7795248537322523
  0.0064579271607141  0.7500000000000000  0.7204751462677477
  0.4935420728392860  0.2500000000000000  0.2204751462677476
  0.9286923672070405  0.2500000000000000  0.6187803114941516
  0.5713076327929595  0.7500000000000000  0.1187803114941515
  0.0713076327929666  0.7500000000000000  0.3812196885058484
  0.4286923672070404  0.2500000000000000  0.8812196885058484
  0.3909893707264545  0.2500000000000000  0.4021378476600662
  0.1090106292735456  0.7500000000000000  0.9021378476600588
  0.6090106292735458  0.7500000000000000  0.5978621523399412
  0.8909893707264542  0.2500000000000000  0.0978621523399410
  0.7739816353360875  0.2500000000000000  0.3537116790048334
  0.7260183646639125  0.7500000000000000  0.8537116790048332
  0.2260183646639124  0.7500000000000000  0.6462883209951668
  0.2739816353360876  0.2500000000000000  0.1462883209951666
 
  0.00000000E+00  0.00000000E+00  0.00000000E+00
  0.00000000E+00  0.00000000E+00  0.00000000E+00
  0.00000000E+00  0.00000000E+00  0.00000000E+00
  0.00000000E+00  0.00000000E+00  0.00000000E+00
  0.00000000E+00  0.00000000E+00  0.00000000E+00
  0.00000000E+00  0.00000000E+00  0.00000000E+00
  0.00000000E+00  0.00000000E+00  0.00000000E+00
  0.00000000E+00  0.00000000E+00  0.00000000E+00
  0.00000000E+00  0.00000000E+00  0.00000000E+00
  0.00000000E+00  0.00000000E+00  0.00000000E+00
  0.00000000E+00  0.00000000E+00  0.00000000E+00
  0.00000000E+00  0.00000000E+00  0.00000000E+00
  0.00000000E+00  0.00000000E+00  0.00000000E+00
  0.00000000E+00  0.00000000E+00  0.00000000E+00
  0.00000000E+00  0.00000000E+00  0.00000000E+00
  0.00000000E+00  0.00000000E+00  0.00000000E+00
  0.00000000E+00  0.00000000E+00  0.00000000E+00
  0.00000000E+00  0.00000000E+00  0.00000000E+00
  0.00000000E+00  0.00000000E+00  0.00000000E+00
  0.00000000E+00  0.00000000E+00  0.00000000E+00
  0.00000000E+00  0.00000000E+00  0.00000000E+00
  0.00000000E+00  0.00000000E+00  0.00000000E+00
  0.00000000E+00  0.00000000E+00  0.00000000E+00
  0.00000000E+00  0.00000000E+00  0.00000000E+00
  0.00000000E+00  0.00000000E+00  0.00000000E+00
  0.00000000E+00  0.00000000E+00  0.00000000E+00
  0.00000000E+00  0.00000000E+00  0.00000000E+00
  0.00000000E+00  0.00000000E+00  0.00000000E+00
