  28  28   0   0
  0.8420936E+01  0.8623542E-09  0.2908028E-09  0.9402302E-09  0.5000000E-15
  1.000000000000000E-004
  CAR 
 Al4C3 Pnma-III - r2SCAN H(P) scan @ 60 G
     21.29434642     -6.87231516  301     11.62966067      1.00000000
     -6.872  0.0000E+00  0.0000E+00
     -6.778  0.0000E+00  0.0000E+00
     -6.685  0.0000E+00  0.0000E+00
     -6.591  0.0000E+00  0.0000E+00
     -6.497  0.0000E+00  0.0000E+00
     -6.403  0.0000E+00  0.0000E+00
     -6.309  0.0000E+00  0.0000E+00
     -6.215  0.0000E+00  0.0000E+00
     -6.121  0.0000E+00  0.0000E+00
     -6.027  0.0000E+00  0.0000E+00
     -5.933  0.0000E+00  0.0000E+00
     -5.840  0.7686E-15  0.7216E-16
     -5.746  0.4205E-08  0.3948E-09
     -5.652  0.2756E-04  0.2588E-05
     -5.558  0.5596E-03  0.5513E-04
     -5.464  0.2520E-02  0.2918E-03
     -5.370  0.4828E-02  0.7450E-03
     -5.276  0.5229E-02  0.1236E-02
     -5.182  0.4574E-02  0.1665E-02
     -5.088  0.5562E-02  0.2188E-02
     -4.995  0.9832E-02  0.3111E-02
     -4.901  0.1162E-01  0.4202E-02
     -4.807  0.5481E-02  0.4717E-02
     -4.713  0.5337E-02  0.5218E-02
     -4.619  0.1263E-01  0.6403E-02
     -4.525  0.1516E-01  0.7826E-02
     -4.431  0.6415E-02  0.8429E-02
     -4.337  0.1025E-01  0.9391E-02
     -4.243  0.1463E-01  0.1077E-01
     -4.150  0.1611E-01  0.1228E-01
     -4.056  0.9985E-02  0.1322E-01
     -3.962  0.1350E-01  0.1448E-01
     -3.868  0.1381E-01  0.1578E-01
     -3.774  0.1902E-01  0.1756E-01
     -3.680  0.1546E-01  0.1902E-01
     -3.586  0.9637E-02  0.1992E-01
     -3.492  0.1263E-01  0.2111E-01
     -3.398  0.2259E-01  0.2323E-01
     -3.305  0.1439E-01  0.2458E-01
     -3.211  0.1978E-01  0.2644E-01
     -3.117  0.2075E-01  0.2838E-01
     -3.023  0.9497E-02  0.2928E-01
     -2.929  0.1136E-01  0.3034E-01
     -2.835  0.3011E-01  0.3317E-01
     -2.741  0.2515E-01  0.3553E-01
     -2.647  0.1099E-01  0.3656E-01
     -2.553  0.1409E-01  0.3789E-01
     -2.460  0.2606E-01  0.4033E-01
     -2.366  0.2279E-01  0.4247E-01
     -2.272  0.2444E-01  0.4477E-01
     -2.178  0.2731E-01  0.4733E-01
     -2.084  0.2437E-01  0.4962E-01
     -1.990  0.3213E-01  0.5264E-01
     -1.896  0.2496E-01  0.5498E-01
     -1.802  0.1864E-01  0.5673E-01
     -1.708  0.2826E-01  0.5938E-01
     -1.615  0.1790E-01  0.6106E-01
     -1.521  0.2691E-01  0.6359E-01
     -1.427  0.4243E-01  0.6757E-01
     -1.333  0.3501E-01  0.7086E-01
     -1.239  0.2628E-01  0.7333E-01
     -1.145  0.2929E-01  0.7608E-01
     -1.051  0.3896E-01  0.7974E-01
     -0.957  0.4049E-01  0.8354E-01
     -0.863  0.4700E-01  0.8795E-01
     -0.770  0.4578E-01  0.9225E-01
     -0.676  0.4312E-01  0.9630E-01
     -0.582  0.2834E-01  0.9896E-01
     -0.488  0.3297E-01  0.1021E+00
     -0.394  0.2113E-01  0.1040E+00
     -0.300  0.2080E-01  0.1060E+00
     -0.206  0.2773E-01  0.1086E+00
     -0.112  0.1764E-01  0.1103E+00
     -0.018  0.2353E-01  0.1125E+00
      0.075  0.1571E-01  0.1139E+00
      0.169  0.2098E-01  0.1159E+00
      0.263  0.1279E-01  0.1171E+00
      0.357  0.1688E-01  0.1187E+00
      0.451  0.1130E-01  0.1198E+00
      0.545  0.2530E-02  0.1200E+00
      0.639  0.9401E-04  0.1200E+00
      0.733  0.1989E-07  0.1200E+00
      0.827  0.5871E-14  0.1200E+00
      0.920  0.0000E+00  0.1200E+00
      1.014  0.0000E+00  0.1200E+00
      1.108  0.0000E+00  0.1200E+00
      1.202  0.0000E+00  0.1200E+00
      1.296  0.0000E+00  0.1200E+00
      1.390  0.0000E+00  0.1200E+00
      1.484  0.0000E+00  0.1200E+00
      1.578  0.0000E+00  0.1200E+00
      1.672  0.0000E+00  0.1200E+00
      1.765  0.0000E+00  0.1200E+00
      1.859  0.1707E-16  0.1200E+00
      1.953  0.4479E-09  0.1200E+00
      2.047  0.1315E-04  0.1200E+00
      2.141  0.7643E-03  0.1201E+00
      2.235  0.1369E-02  0.1202E+00
      2.329  0.5443E-02  0.1207E+00
      2.423  0.7728E-02  0.1214E+00
      2.517  0.1259E-01  0.1226E+00
      2.610  0.1942E-01  0.1244E+00
      2.704  0.1165E-01  0.1255E+00
      2.798  0.1744E-01  0.1272E+00
      2.892  0.2305E-01  0.1293E+00
      2.986  0.2818E-01  0.1320E+00
      3.080  0.3558E-01  0.1353E+00
      3.174  0.2969E-01  0.1381E+00
      3.268  0.3179E-01  0.1411E+00
      3.362  0.4022E-01  0.1449E+00
      3.455  0.4653E-01  0.1492E+00
      3.549  0.4178E-01  0.1532E+00
      3.643  0.3235E-01  0.1562E+00
      3.737  0.3530E-01  0.1595E+00
      3.831  0.3504E-01  0.1628E+00
      3.925  0.4083E-01  0.1666E+00
      4.019  0.3609E-01  0.1700E+00
      4.113  0.3308E-01  0.1731E+00
      4.207  0.3129E-01  0.1761E+00
      4.300  0.3659E-01  0.1795E+00
      4.394  0.4846E-01  0.1841E+00
      4.488  0.4555E-01  0.1883E+00
      4.582  0.3984E-01  0.1921E+00
      4.676  0.3394E-01  0.1953E+00
      4.770  0.3883E-01  0.1989E+00
      4.864  0.3372E-01  0.2021E+00
      4.958  0.2180E-01  0.2041E+00
      5.052  0.2821E-01  0.2068E+00
      5.145  0.2500E-01  0.2091E+00
      5.239  0.2915E-01  0.2119E+00
      5.333  0.5283E-01  0.2168E+00
      5.427  0.4510E-01  0.2210E+00
      5.521  0.3102E-01  0.2240E+00
      5.615  0.3039E-01  0.2268E+00
      5.709  0.3520E-01  0.2301E+00
      5.803  0.3450E-01  0.2334E+00
      5.897  0.3267E-01  0.2364E+00
      5.990  0.2829E-01  0.2391E+00
      6.084  0.4155E-01  0.2430E+00
      6.178  0.3275E-01  0.2461E+00
      6.272  0.4691E-01  0.2505E+00
      6.366  0.4987E-01  0.2551E+00
      6.460  0.4331E-01  0.2592E+00
      6.554  0.3945E-01  0.2629E+00
      6.648  0.4487E-01  0.2671E+00
      6.742  0.5743E-01  0.2725E+00
      6.835  0.1831E-01  0.2742E+00
      6.929  0.3043E-01  0.2771E+00
      7.023  0.3577E-01  0.2805E+00
      7.117  0.4633E-01  0.2848E+00
      7.211  0.3188E-01  0.2878E+00
      7.305  0.4154E-01  0.2917E+00
      7.399  0.4853E-01  0.2963E+00
      7.493  0.4206E-01  0.3002E+00
      7.587  0.2991E-01  0.3030E+00
      7.680  0.4284E-01  0.3070E+00
      7.774  0.3617E-01  0.3104E+00
      7.868  0.4721E-01  0.3149E+00
      7.962  0.5131E-01  0.3197E+00
      8.056  0.4916E-01  0.3243E+00
      8.150  0.3260E-01  0.3274E+00
      8.244  0.3212E-01  0.3304E+00
      8.338  0.3917E-01  0.3340E+00
      8.432  0.4382E-01  0.3382E+00
      8.525  0.5476E-01  0.3433E+00
      8.619  0.4229E-01  0.3473E+00
      8.713  0.4706E-01  0.3517E+00
      8.807  0.5069E-01  0.3564E+00
      8.901  0.5691E-01  0.3618E+00
      8.995  0.5927E-01  0.3674E+00
      9.089  0.6646E-01  0.3736E+00
      9.183  0.6283E-01  0.3795E+00
      9.277  0.5592E-01  0.3847E+00
      9.370  0.4685E-01  0.3891E+00
      9.464  0.5972E-01  0.3947E+00
      9.558  0.5923E-01  0.4003E+00
      9.652  0.6044E-01  0.4060E+00
      9.746  0.5514E-01  0.4112E+00
      9.840  0.4439E-01  0.4153E+00
      9.934  0.5094E-01  0.4201E+00
     10.028  0.5621E-01  0.4254E+00
     10.122  0.5743E-01  0.4308E+00
     10.215  0.6116E-01  0.4365E+00
     10.309  0.5494E-01  0.4417E+00
     10.403  0.5087E-01  0.4465E+00
     10.497  0.6068E-01  0.4522E+00
     10.591  0.5119E-01  0.4570E+00
     10.685  0.4418E-01  0.4611E+00
     10.779  0.4009E-01  0.4649E+00
     10.873  0.4418E-01  0.4690E+00
     10.967  0.2641E-01  0.4715E+00
     11.060  0.2678E-01  0.4740E+00
     11.154  0.2067E-01  0.4760E+00
     11.248  0.2404E-01  0.4782E+00
     11.342  0.1456E-01  0.4796E+00
     11.436  0.4250E-02  0.4800E+00
     11.530  0.1998E-03  0.4800E+00
     11.624  0.1297E-06  0.4800E+00
     11.718  0.1782E-12  0.4800E+00
     11.812  0.0000E+00  0.4800E+00
     11.905  0.0000E+00  0.4800E+00
     11.999  0.0000E+00  0.4800E+00
     12.093  0.0000E+00  0.4800E+00
     12.187  0.0000E+00  0.4800E+00
     12.281  0.0000E+00  0.4800E+00
     12.375  0.0000E+00  0.4800E+00
     12.469  0.0000E+00  0.4800E+00
     12.563  0.0000E+00  0.4800E+00
     12.657  0.0000E+00  0.4800E+00
     12.750  0.0000E+00  0.4800E+00
     12.844  0.0000E+00  0.4800E+00
     12.938  0.0000E+00  0.4800E+00
     13.032  0.0000E+00  0.4800E+00
     13.126  0.0000E+00  0.4800E+00
     13.220  0.5415E-16  0.4800E+00
     13.314  0.1216E-08  0.4800E+00
     13.408  0.3075E-04  0.4800E+00
     13.502  0.1596E-02  0.4802E+00
     13.595  0.2278E-02  0.4804E+00
     13.689  0.2975E-02  0.4806E+00
     13.783  0.1319E-01  0.4819E+00
     13.877  0.6814E-02  0.4825E+00
     13.971  0.1060E-01  0.4835E+00
     14.065  0.7527E-02  0.4842E+00
     14.159  0.1671E-01  0.4858E+00
     14.253  0.2099E-01  0.4878E+00
     14.347  0.2019E-01  0.4897E+00
     14.440  0.1503E-01  0.4911E+00
     14.534  0.3659E-01  0.4945E+00
     14.628  0.2085E-01  0.4965E+00
     14.722  0.1951E-01  0.4983E+00
     14.816  0.2634E-01  0.5008E+00
     14.910  0.3353E-01  0.5039E+00
     15.004  0.3319E-01  0.5070E+00
     15.098  0.4162E-01  0.5109E+00
     15.192  0.4356E-01  0.5150E+00
     15.285  0.3137E-01  0.5180E+00
     15.379  0.2182E-01  0.5200E+00
     15.473  0.2481E-01  0.5224E+00
     15.567  0.2170E-01  0.5244E+00
     15.661  0.3238E-01  0.5274E+00
     15.755  0.3761E-01  0.5310E+00
     15.849  0.5073E-01  0.5357E+00
     15.943  0.3862E-01  0.5394E+00
     16.037  0.2447E-01  0.5417E+00
     16.130  0.1760E-01  0.5433E+00
     16.224  0.2880E-01  0.5460E+00
     16.318  0.3422E-01  0.5492E+00
     16.412  0.4344E-01  0.5533E+00
     16.506  0.4886E-01  0.5579E+00
     16.600  0.3775E-01  0.5614E+00
     16.694  0.1977E-01  0.5633E+00
     16.788  0.2339E-01  0.5655E+00
     16.882  0.2876E-01  0.5682E+00
     16.975  0.3193E-01  0.5712E+00
     17.069  0.3494E-01  0.5745E+00
     17.163  0.4363E-01  0.5786E+00
     17.257  0.4317E-01  0.5826E+00
     17.351  0.4610E-01  0.5869E+00
     17.445  0.4536E-01  0.5912E+00
     17.539  0.4449E-01  0.5954E+00
     17.633  0.3447E-01  0.5986E+00
     17.727  0.4059E-01  0.6024E+00
     17.820  0.3012E-01  0.6053E+00
     17.914  0.2983E-01  0.6081E+00
     18.008  0.3621E-01  0.6115E+00
     18.102  0.3543E-01  0.6148E+00
     18.196  0.3289E-01  0.6179E+00
     18.290  0.3576E-01  0.6212E+00
     18.384  0.3746E-01  0.6247E+00
     18.478  0.3434E-01  0.6280E+00
     18.572  0.3227E-01  0.6310E+00
     18.665  0.2402E-01  0.6333E+00
     18.759  0.2652E-01  0.6357E+00
     18.853  0.3206E-01  0.6388E+00
     18.947  0.2944E-01  0.6415E+00
     19.041  0.2303E-01  0.6437E+00
     19.135  0.2917E-01  0.6464E+00
     19.229  0.3703E-01  0.6499E+00
     19.323  0.3539E-01  0.6532E+00
     19.417  0.1717E-01  0.6548E+00
     19.510  0.1688E-01  0.6564E+00
     19.604  0.1487E-01  0.6578E+00
     19.698  0.9018E-02  0.6587E+00
     19.792  0.8678E-02  0.6595E+00
     19.886  0.4198E-02  0.6599E+00
     19.980  0.9185E-03  0.6600E+00
     20.074  0.4832E-03  0.6600E+00
     20.168  0.2754E-04  0.6600E+00
     20.262  0.4205E-08  0.6600E+00
     20.355  0.7686E-15  0.6600E+00
     20.449  0.0000E+00  0.6600E+00
     20.543  0.0000E+00  0.6600E+00
     20.637  0.0000E+00  0.6600E+00
     20.731  0.0000E+00  0.6600E+00
     20.825  0.0000E+00  0.6600E+00
     20.919  0.0000E+00  0.6600E+00
     21.013  0.0000E+00  0.6600E+00
     21.107  0.0000E+00  0.6600E+00
     21.200  0.0000E+00  0.6600E+00
     21.294  0.0000E+00  0.6600E+00
