       N       E                     dE             d eps       ncg     rms          rms(c)
DAV:   1    -0.235787384364E+03   -0.23579E+03   -0.47277E+00  7128   0.103E+01    0.854E+00
DAV:   2    -0.220515286495E+03    0.15272E+02   -0.12587E+00  7722   0.609E+00    0.626E+00
DAV:   3    -0.220901094579E+03   -0.38581E+00   -0.21425E-01  8340   0.210E+00    0.488E+00
DAV:   4    -0.220939577351E+03   -0.38483E-01   -0.12119E-01  8364   0.123E+00    0.924E-01
DAV:   5    -0.220940531644E+03   -0.95429E-03   -0.89593E-03  8106   0.348E-01    0.428E-01
DAV:   6    -0.220940988159E+03   -0.45651E-03   -0.21379E-03  8328   0.168E-01    0.148E-01
DAV:   7    -0.220941006265E+03   -0.18106E-04   -0.95029E-05  8478   0.388E-02    0.102E-01
DAV:   8    -0.220940984266E+03    0.21999E-04   -0.20644E-04  8442   0.601E-02    0.352E-02
DAV:   9    -0.220940968332E+03    0.15934E-04   -0.35908E-05  6756   0.250E-02    0.953E-03
DAV:  10    -0.220940970781E+03   -0.24490E-05   -0.16694E-06  4164   0.646E-03
   1 F= -.13264131E+03 E0= -.13264131E+03  d E =-.132641E+03
       N       E                     dE             d eps       ncg     rms          rms(c)
DAV:   1    -0.218346470739E+03    0.25945E+01   -0.33208E+00  7470   0.782E+00    0.152E+00
DAV:   2    -0.218322807080E+03    0.23664E-01   -0.14105E-01  8580   0.135E+00    0.865E-01
DAV:   3    -0.218322490539E+03    0.31654E-03   -0.23344E-02  8286   0.480E-01    0.316E-01
DAV:   4    -0.218322942793E+03   -0.45225E-03   -0.84382E-04  8622   0.119E-01    0.179E-01
DAV:   5    -0.218323008338E+03   -0.65545E-04   -0.20676E-04  8274   0.553E-02    0.134E-01
DAV:   6    -0.218323084050E+03   -0.75712E-04   -0.67653E-05  8214   0.437E-02    0.252E-02
DAV:   7    -0.218323078314E+03    0.57360E-05   -0.14909E-05  4392   0.154E-02
   2 F= -.13254513E+03 E0= -.13254513E+03  d E =0.961810E-01
       N       E                     dE             d eps       ncg     rms          rms(c)
DAV:   1    -0.220140033461E+03   -0.18169E+01   -0.14634E+00  7452   0.512E+00    0.101E+00
DAV:   2    -0.220130519903E+03    0.95136E-02   -0.63475E-02  8586   0.900E-01    0.580E-01
DAV:   3    -0.220130188697E+03    0.33121E-03   -0.10464E-02  8292   0.319E-01    0.215E-01
DAV:   4    -0.220130293455E+03   -0.10476E-03   -0.36682E-04  8634   0.797E-02    0.119E-01
DAV:   5    -0.220130282554E+03    0.10902E-04   -0.10065E-04  7986   0.383E-02    0.882E-02
DAV:   6    -0.220130255547E+03    0.27007E-04   -0.31518E-05  6516   0.294E-02    0.143E-02
DAV:   7    -0.220130254312E+03    0.12342E-05   -0.76970E-06  4314   0.114E-02
   3 F= -.13267202E+03 E0= -.13267202E+03  d E =-.307139E-01
       N       E                     dE             d eps       ncg     rms          rms(c)
DAV:   1    -0.220173098790E+03   -0.42843E-01   -0.10289E-01  7134   0.133E+00    0.678E-02
DAV:   2    -0.220173138765E+03   -0.39975E-04   -0.20597E-03  8742   0.176E-01    0.503E-02
DAV:   3    -0.220173099318E+03    0.39447E-04   -0.13396E-04  8796   0.523E-02    0.287E-02
DAV:   4    -0.220173102116E+03   -0.27986E-05   -0.76121E-05  8106   0.323E-02
   4 F= -.13267353E+03 E0= -.13267353E+03  d E =-.150595E-02
       N       E                     dE             d eps       ncg     rms          rms(c)
DAV:   1    -0.220177485864E+03   -0.43865E-02   -0.11944E-03  7428   0.144E-01    0.121E-02
DAV:   2    -0.220177489848E+03   -0.39839E-05   -0.28809E-05  7230   0.209E-02
   5 F= -.13267355E+03 E0= -.13267355E+03  d E =-.153374E-02
       N       E                     dE             d eps       ncg     rms          rms(c)
DAV:   1    -0.220198416997E+03   -0.20931E-01   -0.56123E-02  7128   0.978E-01    0.504E-02
DAV:   2    -0.220198435907E+03   -0.18909E-04   -0.90676E-04  8634   0.120E-01    0.324E-02
DAV:   3    -0.220198416910E+03    0.18997E-04   -0.53790E-05  8502   0.299E-02    0.184E-02
DAV:   4    -0.220198414904E+03    0.20056E-05   -0.34666E-05  6288   0.219E-02
   6 F= -.13267397E+03 E0= -.13267397E+03  d E =-.415675E-03
       N       E                     dE             d eps       ncg     rms          rms(c)
DAV:   1    -0.220196533307E+03    0.18836E-02   -0.47198E-04  7218   0.892E-02    0.545E-03
DAV:   2    -0.220196532620E+03    0.68678E-06   -0.70920E-06  4296   0.107E-02
   7 F= -.13267397E+03 E0= -.13267397E+03  d E =-.418497E-03
       N       E                     dE             d eps       ncg     rms          rms(c)
DAV:   1    -0.220192002646E+03    0.45307E-02   -0.34000E-02  7128   0.757E-01    0.351E-02
DAV:   2    -0.220191992536E+03    0.10110E-04   -0.55327E-04  8652   0.907E-02    0.245E-02
DAV:   3    -0.220191979041E+03    0.13496E-04   -0.27111E-05  6468   0.228E-02    0.147E-02
DAV:   4    -0.220191976050E+03    0.29904E-05   -0.14577E-05  4446   0.143E-02
   8 F= -.13267418E+03 E0= -.13267418E+03  d E =-.206628E-03
       N       E                     dE             d eps       ncg     rms          rms(c)
DAV:   1    -0.220192332551E+03   -0.35351E-03   -0.18715E-04  6582   0.563E-02    0.336E-03
DAV:   2    -0.220192333432E+03   -0.88074E-06   -0.35262E-06  3828   0.713E-03
   9 F= -.13267418E+03 E0= -.13267418E+03  d E =-.207792E-03
       N       E                     dE             d eps       ncg     rms          rms(c)
DAV:   1    -0.220197830780E+03   -0.54982E-02   -0.10630E-02  7140   0.415E-01    0.203E-02
DAV:   2    -0.220197839383E+03   -0.86037E-05   -0.22475E-04  8682   0.583E-02    0.155E-02
DAV:   3    -0.220197837348E+03    0.20352E-05   -0.10585E-05  4962   0.155E-02
  10 F= -.13267427E+03 E0= -.13267427E+03  d E =-.910126E-04
       N       E                     dE             d eps       ncg     rms          rms(c)
DAV:   1    -0.220197694112E+03    0.14527E-03   -0.20601E-05  4956   0.185E-02    0.292E-03
DAV:   2    -0.220197694064E+03    0.47727E-07   -0.26159E-06  3780   0.637E-03
  11 F= -.13267427E+03 E0= -.13267427E+03  d E =-.923239E-04
       N       E                     dE             d eps       ncg     rms          rms(c)
DAV:   1    -0.220196464548E+03    0.12296E-02   -0.25762E-03  7188   0.205E-01    0.106E-02
DAV:   2    -0.220196468189E+03   -0.36416E-05   -0.50435E-05  8490   0.276E-02
  12 F= -.13267430E+03 E0= -.13267430E+03  d E =-.308185E-04
