Al4C3 Pnma-III - r2SCAN H(P) scan @ 60 G
           1
     8.623542    0.000000    0.000000
     0.000000    2.908028    0.000000
     0.000000    0.000000    9.402302
   Al   C 
    16    12
Direct configuration=     1
   0.73673800  0.25000000  0.71308599
   0.76326200  0.75000000  0.21308599
   0.26326200  0.75000000  0.28691401
   0.23673800  0.25000000  0.78691401
   0.60601292  0.25000000  0.46990796
   0.89398708  0.75000000  0.96990796
   0.39398708  0.75000000  0.53009204
   0.10601292  0.25000000  0.03009204
   0.13809377  0.25000000  0.51774520
   0.36190623  0.75000000  0.01774520
   0.86190623  0.75000000  0.48225480
   0.63809377  0.25000000  0.98225480
   0.99416975  0.25000000  0.27905779
   0.50583025  0.75000000  0.77905779
   0.00583025  0.75000000  0.72094221
   0.49416975  0.25000000  0.22094221
   0.92859200  0.25000000  0.61834799
   0.57140800  0.75000000  0.11834799
   0.07140800  0.75000000  0.38165201
   0.42859200  0.25000000  0.88165201
   0.39032089  0.25000000  0.40229500
   0.10967911  0.75000000  0.90229500
   0.60967911  0.75000000  0.59770500
   0.89032089  0.25000000  0.09770500
   0.77436976  0.25000000  0.35333480
   0.72563024  0.75000000  0.85333480
   0.22563024  0.75000000  0.64666520
   0.27436976  0.25000000  0.14666520
Al4C3 Pnma-III - r2SCAN H(P) scan @ 60 G
           1
     8.540655    0.000000    0.000000
     0.000000    2.880077    0.000000
     0.000000    0.000000    9.311930
   Al   C 
    16    12
Direct configuration=     2
   0.73684408  0.25000000  0.71326331
   0.76315592  0.75000000  0.21326331
   0.26315592  0.75000000  0.28673669
   0.23684408  0.25000000  0.78673669
   0.60616466  0.25000000  0.47061675
   0.89383534  0.75000000  0.97061675
   0.39383534  0.75000000  0.52938325
   0.10616466  0.25000000  0.02938325
   0.13779333  0.25000000  0.51801868
   0.36220667  0.75000000  0.01801868
   0.86220667  0.75000000  0.48198132
   0.63779333  0.25000000  0.98198132
   0.99382119  0.25000000  0.27988554
   0.50617881  0.75000000  0.77988554
   0.00617881  0.75000000  0.72011446
   0.49382119  0.25000000  0.22011446
   0.92871402  0.25000000  0.61909663
   0.57128598  0.75000000  0.11909663
   0.07128598  0.75000000  0.38090337
   0.42871402  0.25000000  0.88090337
   0.39114363  0.25000000  0.40289975
   0.10885637  0.75000000  0.90289975
   0.60885637  0.75000000  0.59710025
   0.89114363  0.25000000  0.09710025
   0.77398935  0.25000000  0.35351255
   0.72601065  0.75000000  0.85351255
   0.22601065  0.75000000  0.64648745
   0.27398935  0.25000000  0.14648745
Al4C3 Pnma-III - r2SCAN H(P) scan @ 60 G
           1
     8.596062    0.000000    0.000000
     0.000000    2.898761    0.000000
     0.000000    0.000000    9.372341
   Al   C 
    16    12
Direct configuration=     3
   0.73677248  0.25000000  0.71314363
   0.76322752  0.75000000  0.21314363
   0.26322752  0.75000000  0.28685637
   0.23677248  0.25000000  0.78685637
   0.60606224  0.25000000  0.47013835
   0.89393776  0.75000000  0.97013835
   0.39393776  0.75000000  0.52986165
   0.10606224  0.25000000  0.02986165
   0.13799612  0.25000000  0.51783409
   0.36200388  0.75000000  0.01783409
   0.86200388  0.75000000  0.48216591
   0.63799612  0.25000000  0.98216591
   0.99405645  0.25000000  0.27932684
   0.50594355  0.75000000  0.77932684
   0.00594355  0.75000000  0.72067316
   0.49405645  0.25000000  0.22067316
   0.92863166  0.25000000  0.61859134
   0.57136834  0.75000000  0.11859134
   0.07136834  0.75000000  0.38140866
   0.42863166  0.25000000  0.88140866
   0.39058832  0.25000000  0.40249157
   0.10941168  0.75000000  0.90249157
   0.60941168  0.75000000  0.59750843
   0.89058832  0.25000000  0.09750843
   0.77424611  0.25000000  0.35339258
   0.72575389  0.75000000  0.85339258
   0.22575389  0.75000000  0.64660742
   0.27424611  0.25000000  0.14660742
Al4C3 Pnma-III - r2SCAN H(P) scan @ 60 G
           1
     8.597416    0.000000    0.000000
     0.000000    2.899218    0.000000
     0.000000    0.000000    9.373817
   Al   C 
    16    12
Direct configuration=     4
   0.73667627  0.25000000  0.71325863
   0.76332373  0.75000000  0.21325863
   0.26332373  0.75000000  0.28674137
   0.23667627  0.25000000  0.78674137
   0.60608474  0.25000000  0.47041426
   0.89391526  0.75000000  0.97041426
   0.39391526  0.75000000  0.52958574
   0.10608474  0.25000000  0.02958574
   0.13801666  0.25000000  0.51792206
   0.36198334  0.75000000  0.01792206
   0.86198334  0.75000000  0.48207794
   0.63801666  0.25000000  0.98207794
   0.99374514  0.25000000  0.27938788
   0.50625486  0.75000000  0.77938788
   0.00625486  0.75000000  0.72061212
   0.49374514  0.25000000  0.22061212
   0.92868448  0.25000000  0.61874628
   0.57131552  0.75000000  0.11874628
   0.07131552  0.75000000  0.38125372
   0.42868448  0.25000000  0.88125372
   0.39087223  0.25000000  0.40244661
   0.10912777  0.75000000  0.90244661
   0.60912777  0.75000000  0.59755339
   0.89087223  0.25000000  0.09755339
   0.77409519  0.25000000  0.35342509
   0.72590481  0.75000000  0.85342509
   0.22590481  0.75000000  0.64657491
   0.27409519  0.25000000  0.14657491
Al4C3 Pnma-III - r2SCAN H(P) scan @ 60 G
           1
     8.597559    0.000000    0.000000
     0.000000    2.899266    0.000000
     0.000000    0.000000    9.373973
   Al   C 
    16    12
Direct configuration=     5
   0.73666613  0.25000000  0.71327075
   0.76333387  0.75000000  0.21327075
   0.26333387  0.75000000  0.28672925
   0.23666613  0.25000000  0.78672925
   0.60608711  0.25000000  0.47044334
   0.89391289  0.75000000  0.97044334
   0.39391289  0.75000000  0.52955666
   0.10608711  0.25000000  0.02955666
   0.13801882  0.25000000  0.51793134
   0.36198118  0.75000000  0.01793134
   0.86198118  0.75000000  0.48206866
   0.63801882  0.25000000  0.98206866
   0.99371232  0.25000000  0.27939431
   0.50628768  0.75000000  0.77939431
   0.00628768  0.75000000  0.72060569
   0.49371232  0.25000000  0.22060569
   0.92869005  0.25000000  0.61876261
   0.57130995  0.75000000  0.11876261
   0.07130995  0.75000000  0.38123739
   0.42869005  0.25000000  0.88123739
   0.39090217  0.25000000  0.40244187
   0.10909783  0.75000000  0.90244187
   0.60909783  0.75000000  0.59755813
   0.89090217  0.25000000  0.09755813
   0.77407928  0.25000000  0.35342852
   0.72592072  0.75000000  0.85342852
   0.22592072  0.75000000  0.64657148
   0.27407928  0.25000000  0.14657148
Al4C3 Pnma-III - r2SCAN H(P) scan @ 60 G
           1
     8.598231    0.000000    0.000000
     0.000000    2.899492    0.000000
     0.000000    0.000000    9.374705
   Al   C 
    16    12
Direct configuration=     6
   0.73683513  0.25000000  0.71332410
   0.76316487  0.75000000  0.21332410
   0.26316487  0.75000000  0.28667590
   0.23683513  0.25000000  0.78667590
   0.60616695  0.25000000  0.47054021
   0.89383305  0.75000000  0.97054021
   0.39383305  0.75000000  0.52945979
   0.10616695  0.25000000  0.02945979
   0.13794153  0.25000000  0.51785541
   0.36205847  0.75000000  0.01785541
   0.86205847  0.75000000  0.48214459
   0.63794153  0.25000000  0.98214459
   0.99363835  0.25000000  0.27948079
   0.50636165  0.75000000  0.77948079
   0.00636165  0.75000000  0.72051921
   0.49363835  0.25000000  0.22051921
   0.92863507  0.25000000  0.61882302
   0.57136493  0.75000000  0.11882302
   0.07136493  0.75000000  0.38117698
   0.42863507  0.25000000  0.88117698
   0.39101239  0.25000000  0.40228344
   0.10898761  0.75000000  0.90228344
   0.60898761  0.75000000  0.59771656
   0.89101239  0.25000000  0.09771656
   0.77395782  0.25000000  0.35353578
   0.72604218  0.75000000  0.85353578
   0.22604218  0.75000000  0.64646422
   0.27395782  0.25000000  0.14646422
Al4C3 Pnma-III - r2SCAN H(P) scan @ 60 G
           1
     8.598169    0.000000    0.000000
     0.000000    2.899472    0.000000
     0.000000    0.000000    9.374638
   Al   C 
    16    12
Direct configuration=     7
   0.73681960  0.25000000  0.71331919
   0.76318040  0.75000000  0.21331919
   0.26318040  0.75000000  0.28668081
   0.23681960  0.25000000  0.78668081
   0.60615962  0.25000000  0.47053130
   0.89384038  0.75000000  0.97053130
   0.39384038  0.75000000  0.52946870
   0.10615962  0.25000000  0.02946870
   0.13794864  0.25000000  0.51786239
   0.36205136  0.75000000  0.01786239
   0.86205136  0.75000000  0.48213761
   0.63794864  0.25000000  0.98213761
   0.99364514  0.25000000  0.27947284
   0.50635486  0.75000000  0.77947284
   0.00635486  0.75000000  0.72052716
   0.49364514  0.25000000  0.22052716
   0.92864012  0.25000000  0.61881746
   0.57135988  0.75000000  0.11881746
   0.07135988  0.75000000  0.38118254
   0.42864012  0.25000000  0.88118254
   0.39100226  0.25000000  0.40229800
   0.10899774  0.75000000  0.90229800
   0.60899774  0.75000000  0.59770200
   0.89100226  0.25000000  0.09770200
   0.77396898  0.25000000  0.35352592
   0.72603102  0.75000000  0.85352592
   0.22603102  0.75000000  0.64647408
   0.27396898  0.25000000  0.14647408
Al4C3 Pnma-III - r2SCAN H(P) scan @ 60 G
           1
     8.598013    0.000000    0.000000
     0.000000    2.899419    0.000000
     0.000000    0.000000    9.374468
   Al   C 
    16    12
Direct configuration=     8
   0.73692459  0.25000000  0.71345228
   0.76307541  0.75000000  0.21345228
   0.26307541  0.75000000  0.28654772
   0.23692459  0.25000000  0.78654772
   0.60610715  0.25000000  0.47068438
   0.89389285  0.75000000  0.97068438
   0.39389285  0.75000000  0.52931562
   0.10610715  0.25000000  0.02931562
   0.13791035  0.25000000  0.51779048
   0.36208965  0.75000000  0.01779048
   0.86208965  0.75000000  0.48220952
   0.63791035  0.25000000  0.98220952
   0.99355492  0.25000000  0.27950911
   0.50644508  0.75000000  0.77950911
   0.00644508  0.75000000  0.72049089
   0.49355492  0.25000000  0.22049089
   0.92866911  0.25000000  0.61876170
   0.57133089  0.75000000  0.11876170
   0.07133089  0.75000000  0.38123830
   0.42866911  0.25000000  0.88123830
   0.39104281  0.25000000  0.40213468
   0.10895719  0.75000000  0.90213468
   0.60895719  0.75000000  0.59786532
   0.89104281  0.25000000  0.09786532
   0.77399311  0.25000000  0.35360401
   0.72600689  0.75000000  0.85360401
   0.22600689  0.75000000  0.64639599
   0.27399311  0.25000000  0.14639599
Al4C3 Pnma-III - r2SCAN H(P) scan @ 60 G
           1
     8.598025    0.000000    0.000000
     0.000000    2.899423    0.000000
     0.000000    0.000000    9.374481
   Al   C 
    16    12
Direct configuration=     9
   0.73691673  0.25000000  0.71344233
   0.76308327  0.75000000  0.21344233
   0.26308327  0.75000000  0.28655767
   0.23691673  0.25000000  0.78655767
   0.60611107  0.25000000  0.47067293
   0.89388893  0.75000000  0.97067293
   0.39388893  0.75000000  0.52932707
   0.10611107  0.25000000  0.02932707
   0.13791321  0.25000000  0.51779586
   0.36208679  0.75000000  0.01779586
   0.86208679  0.75000000  0.48220414
   0.63791321  0.25000000  0.98220414
   0.99356167  0.25000000  0.27950639
   0.50643833  0.75000000  0.77950639
   0.00643833  0.75000000  0.72049361
   0.49356167  0.25000000  0.22049361
   0.92866694  0.25000000  0.61876587
   0.57133306  0.75000000  0.11876587
   0.07133306  0.75000000  0.38123413
   0.42866694  0.25000000  0.88123413
   0.39103978  0.25000000  0.40214689
   0.10896022  0.75000000  0.90214689
   0.60896022  0.75000000  0.59785311
   0.89103978  0.25000000  0.09785311
   0.77399131  0.25000000  0.35359817
   0.72600869  0.75000000  0.85359817
   0.22600869  0.75000000  0.64640183
   0.27399131  0.25000000  0.14640183
Al4C3 Pnma-III - r2SCAN H(P) scan @ 60 G
           1
     8.598202    0.000000    0.000000
     0.000000    2.899483    0.000000
     0.000000    0.000000    9.374674
   Al   C 
    16    12
Direct configuration=    10
   0.73695484  0.25000000  0.71356156
   0.76304516  0.75000000  0.21356156
   0.26304516  0.75000000  0.28643844
   0.23695484  0.25000000  0.78643844
   0.60613714  0.25000000  0.47072669
   0.89386286  0.75000000  0.97072669
   0.39386286  0.75000000  0.52927331
   0.10613714  0.25000000  0.02927331
   0.13795567  0.25000000  0.51777684
   0.36204433  0.75000000  0.01777684
   0.86204433  0.75000000  0.48222316
   0.63795567  0.25000000  0.98222316
   0.99354624  0.25000000  0.27953174
   0.50645376  0.75000000  0.77953174
   0.00645376  0.75000000  0.72046826
   0.49354624  0.25000000  0.22046826
   0.92870346  0.25000000  0.61874370
   0.57129654  0.75000000  0.11874370
   0.07129654  0.75000000  0.38125630
   0.42870346  0.25000000  0.88125630
   0.39101665  0.25000000  0.40214344
   0.10898335  0.75000000  0.90214344
   0.60898335  0.75000000  0.59785656
   0.89101665  0.25000000  0.09785656
   0.77397649  0.25000000  0.35369322
   0.72602351  0.75000000  0.85369322
   0.22602351  0.75000000  0.64630678
   0.27397649  0.25000000  0.14630678
Al4C3 Pnma-III - r2SCAN H(P) scan @ 60 G
           1
     8.598197    0.000000    0.000000
     0.000000    2.899481    0.000000
     0.000000    0.000000    9.374669
   Al   C 
    16    12
Direct configuration=    11
   0.73695382  0.25000000  0.71355837
   0.76304618  0.75000000  0.21355837
   0.26304618  0.75000000  0.28644163
   0.23695382  0.25000000  0.78644163
   0.60613644  0.25000000  0.47072525
   0.89386356  0.75000000  0.97072525
   0.39386356  0.75000000  0.52927475
   0.10613644  0.25000000  0.02927475
   0.13795454  0.25000000  0.51777735
   0.36204546  0.75000000  0.01777735
   0.86204546  0.75000000  0.48222265
   0.63795454  0.25000000  0.98222265
   0.99354665  0.25000000  0.27953107
   0.50645335  0.75000000  0.77953107
   0.00645335  0.75000000  0.72046893
   0.49354665  0.25000000  0.22046893
   0.92870249  0.25000000  0.61874429
   0.57129751  0.75000000  0.11874429
   0.07129751  0.75000000  0.38125571
   0.42870249  0.25000000  0.88125571
   0.39101727  0.25000000  0.40214353
   0.10898273  0.75000000  0.90214353
   0.60898273  0.75000000  0.59785647
   0.89101727  0.25000000  0.09785647
   0.77397688  0.25000000  0.35369068
   0.72602312  0.75000000  0.85369068
   0.22602312  0.75000000  0.64630932
   0.27397688  0.25000000  0.14630932
Al4C3 Pnma-III - r2SCAN H(P) scan @ 60 G
           1
     8.598156    0.000000    0.000000
     0.000000    2.899467    0.000000
     0.000000    0.000000    9.374624
   Al   C 
    16    12
Direct configuration=    12
   0.73699112  0.25000000  0.71360599
   0.76300888  0.75000000  0.21360599
   0.26300888  0.75000000  0.28639401
   0.23699112  0.25000000  0.78639401
   0.60611625  0.25000000  0.47074957
   0.89388375  0.75000000  0.97074957
   0.39388375  0.75000000  0.52925043
   0.10611625  0.25000000  0.02925043
   0.13799841  0.25000000  0.51774303
   0.36200159  0.75000000  0.01774303
   0.86200159  0.75000000  0.48225697
   0.63799841  0.25000000  0.98225697
   0.99354207  0.25000000  0.27952485
   0.50645793  0.75000000  0.77952485
   0.00645793  0.75000000  0.72047515
   0.49354207  0.25000000  0.22047515
   0.92869237  0.25000000  0.61878031
   0.57130763  0.75000000  0.11878031
   0.07130763  0.75000000  0.38121969
   0.42869237  0.25000000  0.88121969
   0.39098937  0.25000000  0.40213785
   0.10901063  0.75000000  0.90213785
   0.60901063  0.75000000  0.59786215
   0.89098937  0.25000000  0.09786215
   0.77398164  0.25000000  0.35371168
   0.72601836  0.75000000  0.85371168
   0.22601836  0.75000000  0.64628832
   0.27398164  0.25000000  0.14628832
