       N       E                     dE             d eps       ncg     rms          rms(c)
DAV:   1    -0.233419315011E+03   -0.23342E+03   -0.47103E+00  7128   0.103E+01    0.873E+00
DAV:   2    -0.218225394544E+03    0.15194E+02   -0.12690E+00  7728   0.614E+00    0.636E+00
DAV:   3    -0.218616196877E+03   -0.39080E+00   -0.21156E-01  8322   0.211E+00    0.495E+00
DAV:   4    -0.218654578684E+03   -0.38382E-01   -0.11901E-01  8376   0.123E+00    0.948E-01
DAV:   5    -0.218655756737E+03   -0.11781E-02   -0.85087E-03  8076   0.346E-01    0.435E-01
DAV:   6    -0.218656242705E+03   -0.48597E-03   -0.20550E-03  8334   0.166E-01    0.153E-01
DAV:   7    -0.218656260650E+03   -0.17945E-04   -0.89558E-05  8424   0.381E-02    0.105E-01
DAV:   8    -0.218656230869E+03    0.29781E-04   -0.19205E-04  8442   0.585E-02    0.392E-02
DAV:   9    -0.218656216548E+03    0.14322E-04   -0.40253E-05  6834   0.261E-02    0.889E-03
DAV:  10    -0.218656218953E+03   -0.24048E-05   -0.12709E-06  4128   0.594E-03
   1 F= -.11822924E+03 E0= -.11822924E+03  d E =-.118229E+03
       N       E                     dE             d eps       ncg     rms          rms(c)
DAV:   1    -0.215806770988E+03    0.28494E+01   -0.33372E+00  7416   0.787E+00    0.147E+00
DAV:   2    -0.215785950953E+03    0.20820E-01   -0.13061E-01  8556   0.132E+00    0.851E-01
DAV:   3    -0.215785715066E+03    0.23589E-03   -0.21747E-02  8274   0.469E-01    0.316E-01
DAV:   4    -0.215786195345E+03   -0.48028E-03   -0.84857E-04  8574   0.119E-01    0.172E-01
DAV:   5    -0.215786272600E+03   -0.77255E-04   -0.21262E-04  8214   0.558E-02    0.127E-01
DAV:   6    -0.215786372471E+03   -0.99871E-04   -0.60418E-05  8118   0.414E-02    0.263E-02
DAV:   7    -0.215786368038E+03    0.44328E-05   -0.13179E-05  4380   0.148E-02
   2 F= -.11812588E+03 E0= -.11812588E+03  d E =0.103359E+00
       N       E                     dE             d eps       ncg     rms          rms(c)
DAV:   1    -0.217808723231E+03   -0.20224E+01   -0.15325E+00  7392   0.526E+00    0.100E+00
DAV:   2    -0.217799746814E+03    0.89764E-02   -0.61098E-02  8568   0.900E-01    0.584E-01
DAV:   3    -0.217799266634E+03    0.48018E-03   -0.10162E-02  8298   0.318E-01    0.221E-01
DAV:   4    -0.217799317467E+03   -0.50833E-04   -0.38151E-04  8604   0.808E-02    0.117E-01
DAV:   5    -0.217799291326E+03    0.26141E-04   -0.10845E-04  7992   0.395E-02    0.854E-02
DAV:   6    -0.217799245309E+03    0.46017E-04   -0.29095E-05  6156   0.284E-02    0.155E-02
DAV:   7    -0.217799244218E+03    0.10910E-05   -0.71611E-06  4320   0.112E-02
   3 F= -.11825726E+03 E0= -.11825726E+03  d E =-.280251E-01
       N       E                     dE             d eps       ncg     rms          rms(c)
DAV:   1    -0.217856901939E+03   -0.57657E-01   -0.13175E-01  7146   0.150E+00    0.782E-02
DAV:   2    -0.217856929423E+03   -0.27483E-04   -0.24843E-03  8706   0.195E-01    0.565E-02
DAV:   3    -0.217856882657E+03    0.46766E-04   -0.17772E-04  8778   0.601E-02    0.319E-02
DAV:   4    -0.217856888284E+03   -0.56266E-05   -0.91610E-05  8226   0.353E-02
   4 F= -.11825905E+03 E0= -.11825905E+03  d E =-.178364E-02
       N       E                     dE             d eps       ncg     rms          rms(c)
DAV:   1    -0.217860845216E+03   -0.39626E-02   -0.69705E-04  7506   0.110E-01    0.113E-02
DAV:   2    -0.217860849468E+03   -0.42517E-05   -0.17411E-05  6018   0.165E-02
   5 F= -.11825907E+03 E0= -.11825907E+03  d E =-.180313E-02
       N       E                     dE             d eps       ncg     rms          rms(c)
DAV:   1    -0.217890560089E+03   -0.29715E-01   -0.64144E-02  7128   0.104E+00    0.553E-02
DAV:   2    -0.217890569942E+03   -0.98532E-05   -0.10207E-03  8610   0.127E-01    0.352E-02
DAV:   3    -0.217890542552E+03    0.27390E-04   -0.57596E-05  8460   0.314E-02    0.196E-02
DAV:   4    -0.217890538053E+03    0.44994E-05   -0.43218E-05  7560   0.244E-02
   6 F= -.11825949E+03 E0= -.11825949E+03  d E =-.423775E-03
       N       E                     dE             d eps       ncg     rms          rms(c)
DAV:   1    -0.217886837352E+03    0.37052E-02   -0.10070E-03  7188   0.130E-01    0.739E-03
DAV:   2    -0.217886837327E+03    0.25100E-07   -0.14665E-05  5808   0.154E-02
   7 F= -.11825950E+03 E0= -.11825950E+03  d E =-.430278E-03
       N       E                     dE             d eps       ncg     rms          rms(c)
DAV:   1    -0.217871958803E+03    0.14879E-01   -0.34534E-02  7140   0.763E-01    0.369E-02
DAV:   2    -0.217871949935E+03    0.88686E-05   -0.58887E-04  8592   0.940E-02    0.253E-02
DAV:   3    -0.217871938266E+03    0.11669E-04   -0.29086E-05  6714   0.236E-02    0.153E-02
DAV:   4    -0.217871937934E+03    0.33221E-06   -0.14879E-05  4548   0.145E-02
   8 F= -.11825970E+03 E0= -.11825970E+03  d E =-.205685E-03
       N       E                     dE             d eps       ncg     rms          rms(c)
DAV:   1    -0.217873921407E+03   -0.19831E-02   -0.58575E-04  7170   0.995E-02    0.507E-03
DAV:   2    -0.217873923338E+03   -0.19308E-05   -0.10025E-05  4650   0.125E-02
   9 F= -.11825971E+03 E0= -.11825971E+03  d E =-.212568E-03
       N       E                     dE             d eps       ncg     rms          rms(c)
DAV:   1    -0.217885903526E+03   -0.11982E-01   -0.12271E-02  7140   0.443E-01    0.229E-02
DAV:   2    -0.217885908076E+03   -0.45497E-05   -0.24309E-04  8676   0.611E-02    0.164E-02
DAV:   3    -0.217885905213E+03    0.28622E-05   -0.12507E-05  5088   0.166E-02
  10 F= -.11825980E+03 E0= -.11825980E+03  d E =-.902460E-04
       N       E                     dE             d eps       ncg     rms          rms(c)
DAV:   1    -0.217885093261E+03    0.81481E-03   -0.77700E-05  6696   0.357E-02    0.322E-03
DAV:   2    -0.217885093496E+03   -0.23522E-06   -0.45667E-06  3786   0.774E-03
  11 F= -.11825980E+03 E0= -.11825980E+03  d E =-.925143E-04
       N       E                     dE             d eps       ncg     rms          rms(c)
DAV:   1    -0.217881616753E+03    0.34765E-02   -0.25064E-03  7176   0.200E-01    0.110E-02
DAV:   2    -0.217881622004E+03   -0.52507E-05   -0.51865E-05  8472   0.282E-02
  12 F= -.11825983E+03 E0= -.11825983E+03  d E =-.300357E-04
