Al4C3 Fd-3m polymorph (findsym-output) -
   1.00000000000000     
     8.4414951535590603    0.0000000000000000    0.0000000000000000
     0.0000000000000000    8.4414951535590603    0.0000000000000000
     0.0000000000000000    0.0000000000000000    8.4414951535590603
   Al   C 
    32    24
Direct
  0.7613787692825025  0.7613787692825025  0.7613787692825025
  0.2386212307174975  0.2386212307174975  0.2386212307174975
  0.9886212307174975  0.4886212307174975  0.2613787692825025
  0.0113787692825025  0.5113787692825025  0.7386212307174975
  0.4886212307174975  0.2613787692825025  0.9886212307174975
  0.5113787692825025  0.7386212307174975  0.0113787692825025
  0.2613787692825025  0.9886212307174975  0.4886212307174975
  0.7386212307174975  0.0113787692825025  0.5113787692825025
  0.5113787692825025  0.0113787692825025  0.7386212307174975
  0.4886212307174975  0.9886212307174975  0.2613787692825025
  0.0113787692825025  0.7386212307174975  0.5113787692825025
  0.9886212307174975  0.2613787692825025  0.4886212307174975
  0.7386212307174975  0.5113787692825025  0.0113787692825025
  0.2613787692825025  0.4886212307174975  0.9886212307174975
  0.7613787692825025  0.2613787692825025  0.2613787692825025
  0.2386212307174975  0.7386212307174975  0.7386212307174975
  0.9886212307174975  0.9886212307174975  0.7613787692825025
  0.0113787692825025  0.0113787692825025  0.2386212307174975
  0.4886212307174975  0.7613787692825025  0.4886212307174975
  0.5113787692825025  0.2386212307174975  0.5113787692825025
  0.5113787692825025  0.5113787692825025  0.2386212307174975
  0.4886212307174975  0.4886212307174975  0.7613787692825025
  0.0113787692825025  0.2386212307174975  0.0113787692825025
  0.9886212307174975  0.7613787692825025  0.9886212307174975
  0.2613787692825025  0.7613787692825025  0.2613787692825025
  0.7386212307174975  0.2386212307174975  0.7386212307174975
  0.7613787692825025  0.9886212307174975  0.9886212307174975
  0.2386212307174975  0.0113787692825025  0.0113787692825025
  0.2386212307174975  0.5113787692825025  0.5113787692825025
  0.7613787692825025  0.4886212307174975  0.4886212307174975
  0.2613787692825025  0.2613787692825025  0.7613787692825025
  0.7386212307174975  0.7386212307174975  0.2386212307174975
 -0.0000000000000000  0.0000000000000000 -0.0000000000000000
  0.7500000000000000  0.2500000000000000  0.5000000000000000
  0.2500000000000000  0.7500000000000000  0.5000000000000000
  0.2500000000000000  0.5000000000000000  0.7500000000000000
  0.7500000000000000  0.5000000000000000  0.2500000000000000
  0.5000000000000000  0.7500000000000000  0.2500000000000000
  0.5000000000000000  0.2500000000000000  0.7500000000000000
 -0.0000000000000000  0.5000000000000000  0.5000000000000000
  0.7500000000000000  0.7500000000000000 -0.0000000000000000
  0.2500000000000000  0.2500000000000000 -0.0000000000000000
  0.2500000000000000  0.0000000000000000  0.2500000000000000
  0.7500000000000000  0.0000000000000000  0.7500000000000000
  0.5000000000000000  0.0000000000000000  0.5000000000000000
 -0.0000000000000000  0.7500000000000000  0.7500000000000000
 -0.0000000000000000  0.2500000000000000  0.2500000000000000
  0.5000000000000000  0.5000000000000000 -0.0000000000000000
  0.3750000000000000  0.3750000000000000  0.3750000000000000
  0.6250000000000000  0.6250000000000000  0.6250000000000000
  0.3750000000000000  0.8750000000000000  0.8750000000000000
  0.6250000000000000  0.1250000000000000  0.1250000000000000
  0.8750000000000000  0.8750000000000000  0.3750000000000000
  0.1250000000000000  0.1250000000000000  0.6250000000000000
  0.8750000000000000  0.3750000000000000  0.8750000000000000
  0.1250000000000000  0.6250000000000000  0.1250000000000000
 
  0.00000000E+00  0.00000000E+00  0.00000000E+00
  0.00000000E+00  0.00000000E+00  0.00000000E+00
  0.00000000E+00  0.00000000E+00  0.00000000E+00
  0.00000000E+00  0.00000000E+00  0.00000000E+00
  0.00000000E+00  0.00000000E+00  0.00000000E+00
  0.00000000E+00  0.00000000E+00  0.00000000E+00
  0.00000000E+00  0.00000000E+00  0.00000000E+00
  0.00000000E+00  0.00000000E+00  0.00000000E+00
  0.00000000E+00  0.00000000E+00  0.00000000E+00
  0.00000000E+00  0.00000000E+00  0.00000000E+00
  0.00000000E+00  0.00000000E+00  0.00000000E+00
  0.00000000E+00  0.00000000E+00  0.00000000E+00
  0.00000000E+00  0.00000000E+00  0.00000000E+00
  0.00000000E+00  0.00000000E+00  0.00000000E+00
  0.00000000E+00  0.00000000E+00  0.00000000E+00
  0.00000000E+00  0.00000000E+00  0.00000000E+00
  0.00000000E+00  0.00000000E+00  0.00000000E+00
  0.00000000E+00  0.00000000E+00  0.00000000E+00
  0.00000000E+00  0.00000000E+00  0.00000000E+00
  0.00000000E+00  0.00000000E+00  0.00000000E+00
  0.00000000E+00  0.00000000E+00  0.00000000E+00
  0.00000000E+00  0.00000000E+00  0.00000000E+00
  0.00000000E+00  0.00000000E+00  0.00000000E+00
  0.00000000E+00  0.00000000E+00  0.00000000E+00
  0.00000000E+00  0.00000000E+00  0.00000000E+00
  0.00000000E+00  0.00000000E+00  0.00000000E+00
  0.00000000E+00  0.00000000E+00  0.00000000E+00
  0.00000000E+00  0.00000000E+00  0.00000000E+00
  0.00000000E+00  0.00000000E+00  0.00000000E+00
  0.00000000E+00  0.00000000E+00  0.00000000E+00
  0.00000000E+00  0.00000000E+00  0.00000000E+00
  0.00000000E+00  0.00000000E+00  0.00000000E+00
  0.00000000E+00  0.00000000E+00  0.00000000E+00
  0.00000000E+00  0.00000000E+00  0.00000000E+00
  0.00000000E+00  0.00000000E+00  0.00000000E+00
  0.00000000E+00  0.00000000E+00  0.00000000E+00
  0.00000000E+00  0.00000000E+00  0.00000000E+00
  0.00000000E+00  0.00000000E+00  0.00000000E+00
  0.00000000E+00  0.00000000E+00  0.00000000E+00
  0.00000000E+00  0.00000000E+00  0.00000000E+00
  0.00000000E+00  0.00000000E+00  0.00000000E+00
  0.00000000E+00  0.00000000E+00  0.00000000E+00
  0.00000000E+00  0.00000000E+00  0.00000000E+00
  0.00000000E+00  0.00000000E+00  0.00000000E+00
  0.00000000E+00  0.00000000E+00  0.00000000E+00
  0.00000000E+00  0.00000000E+00  0.00000000E+00
  0.00000000E+00  0.00000000E+00  0.00000000E+00
  0.00000000E+00  0.00000000E+00  0.00000000E+00
  0.00000000E+00  0.00000000E+00  0.00000000E+00
  0.00000000E+00  0.00000000E+00  0.00000000E+00
  0.00000000E+00  0.00000000E+00  0.00000000E+00
  0.00000000E+00  0.00000000E+00  0.00000000E+00
  0.00000000E+00  0.00000000E+00  0.00000000E+00
  0.00000000E+00  0.00000000E+00  0.00000000E+00
  0.00000000E+00  0.00000000E+00  0.00000000E+00
  0.00000000E+00  0.00000000E+00  0.00000000E+00
