       N       E                     dE             d eps       ncg     rms          rms(c)
DAV:   1    -0.346342279192E+03   -0.34634E+03   -0.13806E-05  1740   0.883E-03    0.434E-03
DAV:   2    -0.346342279177E+03    0.15494E-07   -0.22979E-06  1632   0.413E-03
   1 F= -.30672012E+03 E0= -.30672012E+03  d E =-.306720E+03
       N       E                     dE             d eps       ncg     rms          rms(c)
DAV:   1    -0.344366327443E+03    0.19760E+01   -0.63313E+01  2724   0.239E+01    0.822E+00
DAV:   2    -0.342670280240E+03    0.16960E+01   -0.50633E+00  2838   0.494E+00    0.339E+00
DAV:   3    -0.342557031309E+03    0.11325E+00   -0.63195E-01  2838   0.174E+00    0.110E+00
DAV:   4    -0.342539133350E+03    0.17898E-01   -0.67707E-02  2898   0.572E-01    0.442E-01
DAV:   5    -0.342535356952E+03    0.37764E-02   -0.15931E-02  2910   0.263E-01    0.240E-01
DAV:   6    -0.342534669489E+03    0.68746E-03   -0.28225E-03  2862   0.121E-01    0.143E-01
DAV:   7    -0.342534553944E+03    0.11554E-03   -0.91444E-04  3396   0.821E-02    0.579E-02
DAV:   8    -0.342534512341E+03    0.41603E-04   -0.33607E-04  2844   0.464E-02    0.881E-03
DAV:   9    -0.342534516583E+03   -0.42416E-05   -0.54674E-05  2400   0.173E-02
   2 F= -.30683258E+03 E0= -.30683258E+03  d E =-.112469E+00
       N       E                     dE             d eps       ncg     rms          rms(c)
DAV:   1    -0.345784164529E+03   -0.32497E+01   -0.13971E+01  2688   0.108E+01    0.394E+00
DAV:   2    -0.345387268274E+03    0.39690E+00   -0.11822E+00  2820   0.237E+00    0.158E+00
DAV:   3    -0.345362693916E+03    0.24574E-01   -0.14011E-01  2808   0.808E-01    0.532E-01
DAV:   4    -0.345358413734E+03    0.42802E-02   -0.16965E-02  2946   0.285E-01    0.207E-01
DAV:   5    -0.345357430542E+03    0.98319E-03   -0.47183E-03  2880   0.140E-01    0.112E-01
DAV:   6    -0.345357218111E+03    0.21243E-03   -0.83341E-04  2826   0.661E-02    0.712E-02
DAV:   7    -0.345357181706E+03    0.36405E-04   -0.28500E-04  3312   0.449E-02    0.396E-02
DAV:   8    -0.345357141245E+03    0.40461E-04   -0.17425E-04  2766   0.292E-02    0.887E-03
DAV:   9    -0.345357142995E+03   -0.17502E-05   -0.13505E-05  1428   0.966E-03
   3 F= -.30781254E+03 E0= -.30781254E+03  d E =-.109242E+01
       N       E                     dE             d eps       ncg     rms          rms(c)
DAV:   1    -0.345343554056E+03    0.13587E-01   -0.76566E-04  2748   0.800E-02    0.267E-02
DAV:   2    -0.345343540143E+03    0.13913E-04   -0.53114E-05  2694   0.161E-02    0.113E-02
DAV:   3    -0.345343541184E+03   -0.10412E-05   -0.56783E-06  1350   0.542E-03
   4 F= -.30781260E+03 E0= -.30781260E+03  d E =-.109249E+01
       N       E                     dE             d eps       ncg     rms          rms(c)
DAV:   1    -0.345305522430E+03    0.38018E-01   -0.36148E-01  2826   0.175E+00    0.208E-01
DAV:   2    -0.345311057688E+03   -0.55353E-02   -0.57967E-02  2898   0.618E-01    0.263E-01
DAV:   3    -0.345311061516E+03   -0.38275E-05   -0.11475E-03  3114   0.883E-02    0.267E-01
DAV:   4    -0.345311038075E+03    0.23441E-04   -0.14575E-05  1980   0.123E-02    0.267E-01
DAV:   5    -0.345310389282E+03    0.64879E-03   -0.86118E-04  3384   0.861E-02    0.215E-01
DAV:   6    -0.345312462760E+03   -0.20735E-02   -0.26927E-02  3318   0.427E-01    0.444E-01
DAV:   7    -0.345309164799E+03    0.32980E-02   -0.15161E-02  3240   0.356E-01    0.531E-02
DAV:   8    -0.345309759957E+03   -0.59516E-03   -0.73093E-03  3312   0.183E-01    0.152E-01
DAV:   9    -0.345309991781E+03   -0.23182E-03   -0.93738E-03  3390   0.274E-01    0.184E-01
DAV:  10    -0.345309595467E+03    0.39631E-03   -0.13720E-03  2940   0.105E-01    0.879E-02
DAV:  11    -0.345309369770E+03    0.22570E-03   -0.10171E-03  3408   0.802E-02    0.297E-02
DAV:  12    -0.345309390894E+03   -0.21124E-04   -0.21775E-04  2724   0.345E-02    0.118E-02
DAV:  13    -0.345309385132E+03    0.57619E-05   -0.57887E-06  1566   0.908E-03
   5 F= -.30782231E+03 E0= -.30782231E+03  d E =-.970490E-02
       N       E                     dE             d eps       ncg     rms          rms(c)
DAV:   1    -0.345330050259E+03   -0.20659E-01   -0.48264E-02  2814   0.643E-01    0.768E-02
DAV:   2    -0.345330789232E+03   -0.73897E-03   -0.76872E-03  2922   0.224E-01    0.960E-02
DAV:   3    -0.345330774717E+03    0.14515E-04   -0.13888E-04  2970   0.323E-02    0.949E-02
DAV:   4    -0.345330707697E+03    0.67020E-04   -0.31583E-05  2256   0.172E-02    0.805E-02
DAV:   5    -0.345330651418E+03    0.56279E-04   -0.19460E-03  2970   0.108E-01    0.684E-02
DAV:   6    -0.345330560176E+03    0.91242E-04   -0.74446E-04  3264   0.768E-02    0.174E-02
DAV:   7    -0.345330572643E+03   -0.12468E-04   -0.10919E-04  2778   0.208E-02    0.119E-02
DAV:   8    -0.345330591413E+03   -0.18770E-04   -0.11953E-04  3108   0.321E-02    0.272E-02
DAV:   9    -0.345330572251E+03    0.19162E-04   -0.44732E-05  2490   0.194E-02    0.102E-02
DAV:  10    -0.345330571059E+03    0.11920E-05   -0.12603E-05  1380   0.757E-03
   6 F= -.30782730E+03 E0= -.30782730E+03  d E =-.146999E-01
