Al4C3 anti-CaFe2O4-type, volume pre-scal
   1.00000000000000     
     2.8511964876819724    0.0000000000000000    0.0000000000000000
     0.0000000000000000    8.7104292066612299    0.0000000000000000
     0.0000000000000000    0.0000000000000000   10.1042421552175696
   Al   C 
    16    12
Direct
  0.2500000000000000  0.4206835729333617  0.5851490597986436
  0.7500000000000000  0.5793164270666383  0.4148509402013568
  0.2500000000000000  0.9206835729333617  0.9148509402013564
  0.7500000000000000  0.0793164270666383  0.0851490597986434
  0.2500000000000000  0.4837919857169338  0.2062219032791503
  0.7500000000000000  0.5162080142830664  0.7937780967208494
  0.2500000000000000  0.9837919857169336  0.2937780967208496
  0.7500000000000000  0.0162080142830662  0.7062219032791506
  0.2500000000000000  0.1436061845668623  0.5166560687132747
  0.7500000000000000  0.8563938154331304  0.4833439312867254
  0.2500000000000000  0.6436061845668696  0.9833439312867253
  0.7500000000000000  0.3563938154331376  0.0166560687132746
  0.7500000000000000  0.2701243648867550  0.3019292965076613
  0.2500000000000000  0.7298756351132449  0.6980707034923387
  0.2500000000000000  0.2298756351132450  0.8019292965076613
  0.7500000000000000  0.7701243648867551  0.1980707034923387
  0.7500000000000000  0.7494655647537709  0.8594745337996945
  0.2500000000000000  0.2505344352462292  0.1405254662003055
  0.7500000000000000  0.2494655647537708  0.6405254662003055
  0.2500000000000000  0.7505344352462291  0.3594745337996946
  0.2500000000000000  0.9270177268194877  0.6111389093363258
  0.7500000000000000  0.5729822731805123  0.1111389093363258
  0.2500000000000000  0.4270177268194875  0.8888610906636742
  0.7500000000000000  0.0729822731805124  0.3888610906636742
  0.7500000000000000  0.0910884784992324  0.8874515182975665
  0.2500000000000000  0.9089115215007675  0.1125484817024334
  0.7500000000000000  0.5910884784992325  0.6125484817024335
  0.2500000000000000  0.4089115215007675  0.3874515182975667
 
  0.00000000E+00  0.00000000E+00  0.00000000E+00
  0.00000000E+00  0.00000000E+00  0.00000000E+00
  0.00000000E+00  0.00000000E+00  0.00000000E+00
  0.00000000E+00  0.00000000E+00  0.00000000E+00
  0.00000000E+00  0.00000000E+00  0.00000000E+00
  0.00000000E+00  0.00000000E+00  0.00000000E+00
  0.00000000E+00  0.00000000E+00  0.00000000E+00
  0.00000000E+00  0.00000000E+00  0.00000000E+00
  0.00000000E+00  0.00000000E+00  0.00000000E+00
  0.00000000E+00  0.00000000E+00  0.00000000E+00
  0.00000000E+00  0.00000000E+00  0.00000000E+00
  0.00000000E+00  0.00000000E+00  0.00000000E+00
  0.00000000E+00  0.00000000E+00  0.00000000E+00
  0.00000000E+00  0.00000000E+00  0.00000000E+00
  0.00000000E+00  0.00000000E+00  0.00000000E+00
  0.00000000E+00  0.00000000E+00  0.00000000E+00
  0.00000000E+00  0.00000000E+00  0.00000000E+00
  0.00000000E+00  0.00000000E+00  0.00000000E+00
  0.00000000E+00  0.00000000E+00  0.00000000E+00
  0.00000000E+00  0.00000000E+00  0.00000000E+00
  0.00000000E+00  0.00000000E+00  0.00000000E+00
  0.00000000E+00  0.00000000E+00  0.00000000E+00
  0.00000000E+00  0.00000000E+00  0.00000000E+00
  0.00000000E+00  0.00000000E+00  0.00000000E+00
  0.00000000E+00  0.00000000E+00  0.00000000E+00
  0.00000000E+00  0.00000000E+00  0.00000000E+00
  0.00000000E+00  0.00000000E+00  0.00000000E+00
  0.00000000E+00  0.00000000E+00  0.00000000E+00
