  28  28   0   0
  0.8659707E+01  0.2818756E-09  0.8611322E-09  0.9989276E-09  0.5000000E-15
  1.000000000000000E-004
  CAR 
 Al4C3 anti-CaFe2O4 - H(P) scan @ 30 GPa 
     19.30309402     -6.12612547  301     11.60977279      1.00000000
     -6.126  0.0000E+00  0.0000E+00
     -6.041  0.0000E+00  0.0000E+00
     -5.957  0.0000E+00  0.0000E+00
     -5.872  0.0000E+00  0.0000E+00
     -5.787  0.0000E+00  0.0000E+00
     -5.702  0.0000E+00  0.0000E+00
     -5.618  0.0000E+00  0.0000E+00
     -5.533  0.0000E+00  0.0000E+00
     -5.448  0.0000E+00  0.0000E+00
     -5.363  0.0000E+00  0.0000E+00
     -5.278  0.0000E+00  0.0000E+00
     -5.194  0.8002E-13  0.6783E-14
     -5.109  0.2685E-07  0.2276E-08
     -5.024  0.3918E-04  0.3323E-05
     -4.939  0.6304E-03  0.5676E-04
     -4.855  0.2725E-02  0.2878E-03
     -4.770  0.5459E-02  0.7505E-03
     -4.685  0.5761E-02  0.1239E-02
     -4.600  0.4609E-02  0.1629E-02
     -4.516  0.7504E-02  0.2266E-02
     -4.431  0.1251E-01  0.3326E-02
     -4.346  0.1049E-01  0.4215E-02
     -4.261  0.7009E-02  0.4809E-02
     -4.177  0.8732E-02  0.5550E-02
     -4.092  0.1250E-01  0.6609E-02
     -4.007  0.7253E-02  0.7224E-02
     -3.922  0.7588E-02  0.7867E-02
     -3.837  0.1387E-01  0.9043E-02
     -3.753  0.1394E-01  0.1022E-01
     -3.668  0.1324E-01  0.1135E-01
     -3.583  0.1567E-01  0.1268E-01
     -3.498  0.1058E-01  0.1357E-01
     -3.414  0.1159E-01  0.1455E-01
     -3.329  0.1637E-01  0.1594E-01
     -3.244  0.1861E-01  0.1752E-01
     -3.159  0.1321E-01  0.1864E-01
     -3.075  0.1158E-01  0.1962E-01
     -2.990  0.1018E-01  0.2048E-01
     -2.905  0.2398E-01  0.2252E-01
     -2.820  0.2930E-01  0.2500E-01
     -2.736  0.1641E-01  0.2639E-01
     -2.651  0.1039E-01  0.2727E-01
     -2.566  0.1913E-01  0.2889E-01
     -2.481  0.1596E-01  0.3024E-01
     -2.397  0.1503E-01  0.3152E-01
     -2.312  0.2020E-01  0.3323E-01
     -2.227  0.2755E-01  0.3557E-01
     -2.142  0.2022E-01  0.3728E-01
     -2.057  0.2283E-01  0.3921E-01
     -1.973  0.3368E-01  0.4207E-01
     -1.888  0.2735E-01  0.4439E-01
     -1.803  0.2499E-01  0.4651E-01
     -1.718  0.1898E-01  0.4812E-01
     -1.634  0.1471E-01  0.4936E-01
     -1.549  0.1742E-01  0.5084E-01
     -1.464  0.3435E-01  0.5375E-01
     -1.379  0.3835E-01  0.5700E-01
     -1.295  0.3497E-01  0.5996E-01
     -1.210  0.3984E-01  0.6334E-01
     -1.125  0.3421E-01  0.6624E-01
     -1.040  0.3752E-01  0.6942E-01
     -0.956  0.3452E-01  0.7235E-01
     -0.871  0.3501E-01  0.7532E-01
     -0.786  0.4020E-01  0.7872E-01
     -0.701  0.3944E-01  0.8207E-01
     -0.616  0.4779E-01  0.8612E-01
     -0.532  0.4396E-01  0.8984E-01
     -0.447  0.5128E-01  0.9419E-01
     -0.362  0.4704E-01  0.9818E-01
     -0.277  0.2467E-01  0.1003E+00
     -0.193  0.2105E-01  0.1021E+00
     -0.108  0.1201E-01  0.1031E+00
     -0.023  0.1657E-01  0.1045E+00
      0.062  0.1470E-01  0.1057E+00
      0.146  0.9516E-02  0.1065E+00
      0.231  0.1839E-01  0.1081E+00
      0.316  0.1529E-01  0.1094E+00
      0.401  0.1383E-01  0.1106E+00
      0.485  0.1336E-01  0.1117E+00
      0.570  0.1737E-01  0.1132E+00
      0.655  0.8811E-02  0.1139E+00
      0.740  0.9551E-02  0.1147E+00
      0.825  0.1772E-01  0.1162E+00
      0.909  0.1016E-01  0.1171E+00
      0.994  0.7019E-02  0.1177E+00
      1.079  0.9217E-02  0.1185E+00
      1.164  0.1137E-01  0.1194E+00
      1.248  0.5698E-02  0.1199E+00
      1.333  0.1147E-02  0.1200E+00
      1.418  0.6032E-05  0.1200E+00
      1.503  0.2077E-09  0.1200E+00
      1.587  0.2947E-16  0.1200E+00
      1.672  0.1281E-11  0.1200E+00
      1.757  0.2308E-06  0.1200E+00
      1.842  0.1891E-03  0.1200E+00
      1.926  0.1674E-02  0.1202E+00
      2.011  0.3747E-02  0.1205E+00
      2.096  0.4966E-02  0.1209E+00
      2.181  0.5411E-02  0.1214E+00
      2.266  0.5934E-02  0.1219E+00
      2.350  0.1018E-01  0.1227E+00
      2.435  0.1506E-01  0.1240E+00
      2.520  0.1807E-01  0.1255E+00
      2.605  0.1869E-01  0.1271E+00
      2.689  0.2100E-01  0.1289E+00
      2.774  0.3849E-01  0.1322E+00
      2.859  0.3614E-01  0.1352E+00
      2.944  0.3262E-01  0.1380E+00
      3.028  0.3599E-01  0.1410E+00
      3.113  0.2800E-01  0.1434E+00
      3.198  0.3332E-01  0.1462E+00
      3.283  0.3798E-01  0.1495E+00
      3.367  0.4390E-01  0.1532E+00
      3.452  0.4584E-01  0.1571E+00
      3.537  0.3710E-01  0.1602E+00
      3.622  0.5052E-01  0.1645E+00
      3.707  0.4467E-01  0.1683E+00
      3.791  0.2504E-01  0.1704E+00
      3.876  0.4126E-01  0.1739E+00
      3.961  0.4356E-01  0.1776E+00
      4.046  0.3039E-01  0.1802E+00
      4.130  0.2834E-01  0.1826E+00
      4.215  0.3334E-01  0.1854E+00
      4.300  0.3101E-01  0.1880E+00
      4.385  0.5080E-01  0.1923E+00
      4.469  0.3422E-01  0.1952E+00
      4.554  0.3248E-01  0.1980E+00
      4.639  0.2421E-01  0.2000E+00
      4.724  0.3341E-01  0.2029E+00
      4.808  0.4542E-01  0.2067E+00
      4.893  0.5021E-01  0.2110E+00
      4.978  0.4296E-01  0.2146E+00
      5.063  0.3467E-01  0.2175E+00
      5.147  0.2946E-01  0.2200E+00
      5.232  0.3569E-01  0.2231E+00
      5.317  0.3840E-01  0.2263E+00
      5.402  0.3163E-01  0.2290E+00
      5.487  0.3437E-01  0.2319E+00
      5.571  0.4230E-01  0.2355E+00
      5.656  0.4752E-01  0.2395E+00
      5.741  0.3234E-01  0.2423E+00
      5.826  0.3908E-01  0.2456E+00
      5.910  0.3766E-01  0.2488E+00
      5.995  0.4338E-01  0.2525E+00
      6.080  0.5068E-01  0.2568E+00
      6.165  0.4377E-01  0.2605E+00
      6.249  0.4646E-01  0.2644E+00
      6.334  0.3918E-01  0.2677E+00
      6.419  0.4716E-01  0.2717E+00
      6.504  0.5141E-01  0.2761E+00
      6.588  0.5456E-01  0.2807E+00
      6.673  0.4829E-01  0.2848E+00
      6.758  0.4323E-01  0.2885E+00
      6.843  0.4418E-01  0.2922E+00
      6.928  0.3542E-01  0.2952E+00
      7.012  0.3659E-01  0.2983E+00
      7.097  0.5001E-01  0.3025E+00
      7.182  0.4232E-01  0.3061E+00
      7.267  0.3838E-01  0.3094E+00
      7.351  0.3933E-01  0.3127E+00
      7.436  0.4743E-01  0.3167E+00
      7.521  0.4015E-01  0.3201E+00
      7.606  0.4235E-01  0.3237E+00
      7.690  0.5878E-01  0.3287E+00
      7.775  0.5163E-01  0.3331E+00
      7.860  0.3071E-01  0.3357E+00
      7.945  0.4803E-01  0.3398E+00
      8.029  0.5736E-01  0.3446E+00
      8.114  0.6451E-01  0.3501E+00
      8.199  0.6101E-01  0.3553E+00
      8.284  0.4007E-01  0.3587E+00
      8.369  0.4524E-01  0.3625E+00
      8.453  0.3209E-01  0.3652E+00
      8.538  0.2754E-01  0.3676E+00
      8.623  0.3608E-01  0.3706E+00
      8.708  0.5494E-01  0.3753E+00
      8.792  0.5792E-01  0.3802E+00
      8.877  0.7135E-01  0.3862E+00
      8.962  0.4577E-01  0.3901E+00
      9.047  0.5630E-01  0.3949E+00
      9.131  0.6995E-01  0.4008E+00
      9.216  0.7014E-01  0.4068E+00
      9.301  0.6072E-01  0.4119E+00
      9.386  0.7867E-01  0.4186E+00
      9.470  0.7855E-01  0.4252E+00
      9.555  0.6550E-01  0.4308E+00
      9.640  0.4914E-01  0.4349E+00
      9.725  0.5300E-01  0.4394E+00
      9.810  0.6332E-01  0.4448E+00
      9.894  0.4979E-01  0.4490E+00
      9.979  0.5696E-01  0.4539E+00
     10.064  0.5362E-01  0.4584E+00
     10.149  0.3430E-01  0.4613E+00
     10.233  0.2407E-01  0.4633E+00
     10.318  0.2248E-01  0.4653E+00
     10.403  0.2484E-01  0.4674E+00
     10.488  0.2491E-01  0.4695E+00
     10.572  0.1471E-01  0.4707E+00
     10.657  0.1051E-01  0.4716E+00
     10.742  0.1869E-01  0.4732E+00
     10.827  0.2135E-01  0.4750E+00
     10.911  0.1670E-01  0.4764E+00
     10.996  0.7501E-02  0.4771E+00
     11.081  0.3788E-02  0.4774E+00
     11.166  0.4830E-02  0.4778E+00
     11.251  0.5186E-02  0.4782E+00
     11.335  0.8563E-02  0.4789E+00
     11.420  0.7779E-02  0.4796E+00
     11.505  0.4287E-02  0.4800E+00
     11.590  0.3412E-03  0.4800E+00
     11.674  0.2622E-04  0.4800E+00
     11.759  0.7706E-03  0.4801E+00
     11.844  0.1460E-02  0.4802E+00
     11.929  0.3636E-02  0.4805E+00
     12.013  0.5287E-02  0.4809E+00
     12.098  0.1472E-01  0.4822E+00
     12.183  0.1063E-01  0.4831E+00
     12.268  0.4624E-02  0.4835E+00
     12.352  0.1548E-01  0.4848E+00
     12.437  0.1674E-01  0.4862E+00
     12.522  0.1945E-01  0.4879E+00
     12.607  0.1853E-01  0.4894E+00
     12.691  0.1856E-01  0.4910E+00
     12.776  0.1297E-01  0.4921E+00
     12.861  0.1686E-01  0.4935E+00
     12.946  0.2612E-01  0.4958E+00
     13.031  0.2687E-01  0.4980E+00
     13.115  0.1940E-01  0.4997E+00
     13.200  0.2239E-01  0.5016E+00
     13.285  0.2452E-01  0.5037E+00
     13.370  0.3044E-01  0.5062E+00
     13.454  0.2393E-01  0.5083E+00
     13.539  0.2815E-01  0.5106E+00
     13.624  0.2935E-01  0.5131E+00
     13.709  0.4362E-01  0.5168E+00
     13.793  0.2897E-01  0.5193E+00
     13.878  0.2561E-01  0.5215E+00
     13.963  0.2996E-01  0.5240E+00
     14.048  0.2602E-01  0.5262E+00
     14.132  0.1841E-01  0.5278E+00
     14.217  0.2500E-01  0.5299E+00
     14.302  0.4280E-01  0.5335E+00
     14.387  0.4780E-01  0.5376E+00
     14.472  0.4569E-01  0.5414E+00
     14.556  0.3576E-01  0.5445E+00
     14.641  0.3294E-01  0.5473E+00
     14.726  0.4372E-01  0.5510E+00
     14.811  0.3857E-01  0.5542E+00
     14.895  0.3568E-01  0.5573E+00
     14.980  0.3703E-01  0.5604E+00
     15.065  0.4362E-01  0.5641E+00
     15.150  0.5353E-01  0.5686E+00
     15.234  0.4102E-01  0.5721E+00
     15.319  0.4351E-01  0.5758E+00
     15.404  0.3004E-01  0.5783E+00
     15.489  0.3396E-01  0.5812E+00
     15.573  0.4145E-01  0.5847E+00
     15.658  0.3496E-01  0.5877E+00
     15.743  0.4463E-01  0.5915E+00
     15.828  0.3787E-01  0.5947E+00
     15.913  0.3341E-01  0.5975E+00
     15.997  0.5368E-01  0.6021E+00
     16.082  0.5108E-01  0.6064E+00
     16.167  0.3651E-01  0.6095E+00
     16.252  0.4004E-01  0.6129E+00
     16.336  0.3727E-01  0.6161E+00
     16.421  0.4974E-01  0.6203E+00
     16.506  0.3449E-01  0.6232E+00
     16.591  0.3146E-01  0.6259E+00
     16.675  0.2611E-01  0.6281E+00
     16.760  0.2481E-01  0.6302E+00
     16.845  0.2553E-01  0.6323E+00
     16.930  0.1959E-01  0.6340E+00
     17.014  0.3421E-01  0.6369E+00
     17.099  0.3622E-01  0.6400E+00
     17.184  0.3358E-01  0.6428E+00
     17.269  0.2009E-01  0.6445E+00
     17.354  0.2113E-01  0.6463E+00
     17.438  0.2740E-01  0.6486E+00
     17.523  0.2344E-01  0.6506E+00
     17.608  0.2240E-01  0.6525E+00
     17.693  0.2379E-01  0.6545E+00
     17.777  0.2633E-01  0.6568E+00
     17.862  0.1840E-01  0.6583E+00
     17.947  0.1320E-01  0.6594E+00
     18.032  0.4426E-02  0.6598E+00
     18.116  0.1574E-02  0.6600E+00
     18.201  0.5100E-03  0.6600E+00
     18.286  0.3904E-04  0.6600E+00
     18.371  0.2685E-07  0.6600E+00
     18.455  0.8002E-13  0.6600E+00
     18.540  0.0000E+00  0.6600E+00
     18.625  0.0000E+00  0.6600E+00
     18.710  0.0000E+00  0.6600E+00
     18.795  0.0000E+00  0.6600E+00
     18.879  0.0000E+00  0.6600E+00
     18.964  0.0000E+00  0.6600E+00
     19.049  0.0000E+00  0.6600E+00
     19.134  0.0000E+00  0.6600E+00
     19.218  0.0000E+00  0.6600E+00
     19.303  0.0000E+00  0.6600E+00
