  56  56   0   0
  0.9151785E+01  0.8002603E-09  0.8002603E-09  0.8002603E-09  0.5000000E-15
  1.000000000000000E-004
  CAR 
 Al4C3 Fd-3m - r2SCAN H(P) scan @ 60 GPa 
     18.75145661     -7.37333261  301     10.57113199      1.00000000
     -7.373  0.0000E+00  0.0000E+00
     -7.286  0.0000E+00  0.0000E+00
     -7.199  0.0000E+00  0.0000E+00
     -7.112  0.0000E+00  0.0000E+00
     -7.025  0.0000E+00  0.0000E+00
     -6.938  0.0000E+00  0.0000E+00
     -6.851  0.0000E+00  0.0000E+00
     -6.764  0.0000E+00  0.0000E+00
     -6.677  0.0000E+00  0.0000E+00
     -6.590  0.0000E+00  0.0000E+00
     -6.503  0.0000E+00  0.0000E+00
     -6.415  0.7522E-13  0.6550E-14
     -6.328  0.4994E-07  0.4349E-08
     -6.241  0.1049E-03  0.9143E-05
     -6.154  0.1436E-02  0.1342E-03
     -6.067  0.5739E-02  0.6339E-03
     -5.980  0.9862E-02  0.1493E-02
     -5.893  0.1690E-01  0.2965E-02
     -5.806  0.1208E-01  0.4017E-02
     -5.719  0.7967E-02  0.4710E-02
     -5.632  0.1811E-01  0.6288E-02
     -5.545  0.3740E-01  0.9544E-02
     -5.458  0.3341E-01  0.1245E-01
     -5.370  0.3104E-02  0.1272E-01
     -5.283  0.2163E-01  0.1461E-01
     -5.196  0.4261E-01  0.1832E-01
     -5.109  0.2556E-01  0.2054E-01
     -5.022  0.5523E-01  0.2535E-01
     -4.935  0.5200E-01  0.2988E-01
     -4.848  0.3856E-01  0.3324E-01
     -4.761  0.1825E-01  0.3483E-01
     -4.674  0.6297E-03  0.3488E-01
     -4.587  0.1392E-01  0.3610E-01
     -4.500  0.8181E-02  0.3681E-01
     -4.413  0.3190E-01  0.3959E-01
     -4.325  0.4005E-01  0.4307E-01
     -4.238  0.6745E-02  0.4366E-01
     -4.151  0.1845E-01  0.4527E-01
     -4.064  0.1877E-01  0.4690E-01
     -3.977  0.3691E-01  0.5012E-01
     -3.890  0.6853E-01  0.5608E-01
     -3.803  0.5307E-01  0.6071E-01
     -3.716  0.2248E-01  0.6266E-01
     -3.629  0.2822E-01  0.6512E-01
     -3.542  0.8961E-02  0.6590E-01
     -3.455  0.3411E-01  0.6887E-01
     -3.368  0.2505E-01  0.7105E-01
     -3.280  0.4804E-03  0.7109E-01
     -3.193  0.1468E-04  0.7110E-01
     -3.106  0.9497E-02  0.7192E-01
     -3.019  0.7745E-01  0.7867E-01
     -2.932  0.2858E-01  0.8116E-01
     -2.845  0.4196E-01  0.8481E-01
     -2.758  0.7130E-01  0.9102E-01
     -2.671  0.5788E-01  0.9606E-01
     -2.584  0.5764E-01  0.1011E+00
     -2.497  0.2070E-01  0.1029E+00
     -2.410  0.6380E-01  0.1084E+00
     -2.323  0.7945E-01  0.1154E+00
     -2.235  0.5622E-01  0.1203E+00
     -2.148  0.6324E-01  0.1258E+00
     -2.061  0.9729E-01  0.1342E+00
     -1.974  0.7071E-01  0.1404E+00
     -1.887  0.1314E+00  0.1518E+00
     -1.800  0.9591E-01  0.1602E+00
     -1.713  0.9605E-01  0.1685E+00
     -1.626  0.4115E-01  0.1721E+00
     -1.539  0.3276E-01  0.1750E+00
     -1.452  0.1790E+00  0.1906E+00
     -1.365  0.1657E+00  0.2050E+00
     -1.278  0.8440E-01  0.2123E+00
     -1.190  0.1120E+00  0.2221E+00
     -1.103  0.1340E+00  0.2338E+00
     -1.016  0.5724E-01  0.2387E+00
     -0.929  0.1422E-01  0.2400E+00
     -0.842  0.1563E-03  0.2400E+00
     -0.755  0.1482E-07  0.2400E+00
     -0.668  0.5873E-14  0.2400E+00
     -0.581  0.0000E+00  0.2400E+00
     -0.494  0.0000E+00  0.2400E+00
     -0.407  0.0000E+00  0.2400E+00
     -0.320  0.0000E+00  0.2400E+00
     -0.233  0.0000E+00  0.2400E+00
     -0.145  0.0000E+00  0.2400E+00
     -0.058  0.0000E+00  0.2400E+00
      0.029  0.0000E+00  0.2400E+00
      0.116  0.0000E+00  0.2400E+00
      0.203  0.0000E+00  0.2400E+00
      0.290  0.0000E+00  0.2400E+00
      0.377  0.0000E+00  0.2400E+00
      0.464  0.0000E+00  0.2400E+00
      0.551  0.0000E+00  0.2400E+00
      0.638  0.0000E+00  0.2400E+00
      0.725  0.0000E+00  0.2400E+00
      0.812  0.6690E-14  0.2400E+00
      0.900  0.1038E-07  0.2400E+00
      0.987  0.4893E-04  0.2400E+00
      1.074  0.1217E-02  0.2401E+00
      1.161  0.5258E-03  0.2402E+00
      1.248  0.2405E-05  0.2402E+00
      1.335  0.1246E-03  0.2402E+00
      1.422  0.6084E-02  0.2407E+00
      1.509  0.7936E-02  0.2414E+00
      1.596  0.1662E-01  0.2428E+00
      1.683  0.4506E-02  0.2432E+00
      1.770  0.1067E-01  0.2442E+00
      1.857  0.7145E-03  0.2442E+00
      1.945  0.3353E-03  0.2442E+00
      2.032  0.2199E-01  0.2462E+00
      2.119  0.3322E-01  0.2491E+00
      2.206  0.5105E-01  0.2535E+00
      2.293  0.3285E-01  0.2564E+00
      2.380  0.3055E-01  0.2590E+00
      2.467  0.8106E-01  0.2661E+00
      2.554  0.5773E-01  0.2711E+00
      2.641  0.1187E+00  0.2814E+00
      2.728  0.7792E-01  0.2882E+00
      2.815  0.8516E-01  0.2956E+00
      2.902  0.7448E-01  0.3021E+00
      2.990  0.4068E-01  0.3057E+00
      3.077  0.9250E-01  0.3137E+00
      3.164  0.1584E+00  0.3275E+00
      3.251  0.6027E-01  0.3328E+00
      3.338  0.8551E-01  0.3402E+00
      3.425  0.1217E+00  0.3508E+00
      3.512  0.1224E+00  0.3615E+00
      3.599  0.3885E-01  0.3649E+00
      3.686  0.1332E+00  0.3765E+00
      3.773  0.5885E-01  0.3816E+00
      3.860  0.3449E-01  0.3846E+00
      3.947  0.6454E-01  0.3902E+00
      4.034  0.5192E-01  0.3947E+00
      4.122  0.1061E+00  0.4040E+00
      4.209  0.9800E-01  0.4125E+00
      4.296  0.3735E-01  0.4157E+00
      4.383  0.6569E-01  0.4215E+00
      4.470  0.6752E-01  0.4274E+00
      4.557  0.6408E-01  0.4329E+00
      4.644  0.7301E-01  0.4393E+00
      4.731  0.5737E-01  0.4443E+00
      4.818  0.6621E-01  0.4500E+00
      4.905  0.6515E-01  0.4557E+00
      4.992  0.6855E-01  0.4617E+00
      5.079  0.4844E-01  0.4659E+00
      5.167  0.2201E-01  0.4678E+00
      5.254  0.6970E-01  0.4739E+00
      5.341  0.1512E+00  0.4871E+00
      5.428  0.5784E-01  0.4921E+00
      5.515  0.6754E-01  0.4980E+00
      5.602  0.1056E+00  0.5072E+00
      5.689  0.6622E-01  0.5130E+00
      5.776  0.7642E-01  0.5196E+00
      5.863  0.2890E-01  0.5221E+00
      5.950  0.3730E-01  0.5254E+00
      6.037  0.3334E-01  0.5283E+00
      6.124  0.4063E-01  0.5318E+00
      6.212  0.7908E-01  0.5387E+00
      6.299  0.7906E-01  0.5456E+00
      6.386  0.1364E+00  0.5575E+00
      6.473  0.9879E-01  0.5661E+00
      6.560  0.1540E+00  0.5795E+00
      6.647  0.1506E+00  0.5926E+00
      6.734  0.4280E-01  0.5963E+00
      6.821  0.2067E-01  0.5981E+00
      6.908  0.1056E+00  0.6073E+00
      6.995  0.5435E-01  0.6120E+00
      7.082  0.1315E+00  0.6235E+00
      7.169  0.8899E-01  0.6312E+00
      7.257  0.1284E+00  0.6424E+00
      7.344  0.1276E+00  0.6535E+00
      7.431  0.9948E-01  0.6622E+00
      7.518  0.1559E+00  0.6758E+00
      7.605  0.1398E+00  0.6880E+00
      7.692  0.1691E+00  0.7027E+00
      7.779  0.1868E+00  0.7189E+00
      7.866  0.1296E+00  0.7302E+00
      7.953  0.1115E+00  0.7399E+00
      8.040  0.1540E+00  0.7534E+00
      8.127  0.2263E+00  0.7731E+00
      8.214  0.1696E+00  0.7878E+00
      8.302  0.1224E+00  0.7985E+00
      8.389  0.1685E+00  0.8132E+00
      8.476  0.1996E+00  0.8305E+00
      8.563  0.2133E+00  0.8491E+00
      8.650  0.1125E+00  0.8589E+00
      8.737  0.1189E+00  0.8693E+00
      8.824  0.1199E+00  0.8797E+00
      8.911  0.2164E-01  0.8816E+00
      8.998  0.3219E-01  0.8844E+00
      9.085  0.6232E-01  0.8898E+00
      9.172  0.5084E-01  0.8942E+00
      9.259  0.5115E-01  0.8987E+00
      9.347  0.1010E+00  0.9075E+00
      9.434  0.9537E-01  0.9158E+00
      9.521  0.6762E-01  0.9217E+00
      9.608  0.5591E-01  0.9266E+00
      9.695  0.9751E-01  0.9350E+00
      9.782  0.1034E+00  0.9441E+00
      9.869  0.6168E-01  0.9494E+00
      9.956  0.2216E-01  0.9514E+00
     10.043  0.2011E-01  0.9531E+00
     10.130  0.3881E-01  0.9565E+00
     10.217  0.2696E-01  0.9588E+00
     10.304  0.9222E-02  0.9596E+00
     10.392  0.3946E-02  0.9600E+00
     10.479  0.2188E-03  0.9600E+00
     10.566  0.6994E-07  0.9600E+00
     10.653  0.6926E-13  0.9600E+00
     10.740  0.0000E+00  0.9600E+00
     10.827  0.0000E+00  0.9600E+00
     10.914  0.0000E+00  0.9600E+00
     11.001  0.0000E+00  0.9600E+00
     11.088  0.0000E+00  0.9600E+00
     11.175  0.0000E+00  0.9600E+00
     11.262  0.0000E+00  0.9600E+00
     11.349  0.0000E+00  0.9600E+00
     11.437  0.0000E+00  0.9600E+00
     11.524  0.0000E+00  0.9600E+00
     11.611  0.0000E+00  0.9600E+00
     11.698  0.0000E+00  0.9600E+00
     11.785  0.1268E-11  0.9600E+00
     11.872  0.2956E-06  0.9600E+00
     11.959  0.2324E-03  0.9600E+00
     12.046  0.1398E-02  0.9601E+00
     12.133  0.1630E-03  0.9602E+00
     12.220  0.1307E-06  0.9602E+00
     12.307  0.3474E-12  0.9602E+00
     12.394  0.1579E-07  0.9602E+00
     12.482  0.1450E-03  0.9602E+00
     12.569  0.6303E-02  0.9607E+00
     12.656  0.4281E-02  0.9611E+00
     12.743  0.3580E-04  0.9611E+00
     12.830  0.5024E-08  0.9611E+00
     12.917  0.9215E-04  0.9611E+00
     13.004  0.9372E-02  0.9619E+00
     13.091  0.1796E-01  0.9635E+00
     13.178  0.4829E-02  0.9639E+00
     13.265  0.1077E-02  0.9640E+00
     13.352  0.3001E-01  0.9666E+00
     13.439  0.4168E-01  0.9702E+00
     13.526  0.4624E-01  0.9743E+00
     13.614  0.1098E+00  0.9838E+00
     13.701  0.4793E-01  0.9880E+00
     13.788  0.5898E-01  0.9931E+00
     13.875  0.7256E-01  0.9995E+00
     13.962  0.5125E-01  0.1004E+01
     14.049  0.1616E-01  0.1005E+01
     14.136  0.3859E-01  0.1009E+01
     14.223  0.1223E+00  0.1019E+01
     14.310  0.1060E+00  0.1029E+01
     14.397  0.1764E-01  0.1030E+01
     14.484  0.1184E+00  0.1040E+01
     14.571  0.1440E+00  0.1053E+01
     14.659  0.4748E-01  0.1057E+01
     14.746  0.4981E-01  0.1061E+01
     14.833  0.1588E+00  0.1075E+01
     14.920  0.1721E+00  0.1090E+01
     15.007  0.1234E+00  0.1101E+01
     15.094  0.2799E-01  0.1103E+01
     15.181  0.2060E-01  0.1105E+01
     15.268  0.2394E-01  0.1107E+01
     15.355  0.7615E-01  0.1114E+01
     15.442  0.3751E-01  0.1117E+01
     15.529  0.3865E-01  0.1121E+01
     15.616  0.7355E-01  0.1127E+01
     15.704  0.5517E-01  0.1132E+01
     15.791  0.8441E-01  0.1139E+01
     15.878  0.7244E-01  0.1145E+01
     15.965  0.9123E-01  0.1153E+01
     16.052  0.9571E-01  0.1162E+01
     16.139  0.1103E+00  0.1171E+01
     16.226  0.1568E+00  0.1185E+01
     16.313  0.8977E-01  0.1193E+01
     16.400  0.1923E+00  0.1210E+01
     16.487  0.8221E-01  0.1217E+01
     16.574  0.7811E-01  0.1224E+01
     16.661  0.8671E-01  0.1231E+01
     16.749  0.1261E+00  0.1242E+01
     16.836  0.7019E-01  0.1248E+01
     16.923  0.4910E-01  0.1252E+01
     17.010  0.1800E-01  0.1254E+01
     17.097  0.6244E-02  0.1255E+01
     17.184  0.3570E-01  0.1258E+01
     17.271  0.2089E-01  0.1259E+01
     17.358  0.2625E-02  0.1260E+01
     17.445  0.4472E-05  0.1260E+01
     17.532  0.6633E-03  0.1260E+01
     17.619  0.2714E-02  0.1260E+01
     17.706  0.2099E-03  0.1260E+01
     17.794  0.9986E-07  0.1260E+01
     17.881  0.1504E-12  0.1260E+01
     17.968  0.0000E+00  0.1260E+01
     18.055  0.0000E+00  0.1260E+01
     18.142  0.0000E+00  0.1260E+01
     18.229  0.0000E+00  0.1260E+01
     18.316  0.0000E+00  0.1260E+01
     18.403  0.0000E+00  0.1260E+01
     18.490  0.0000E+00  0.1260E+01
     18.577  0.0000E+00  0.1260E+01
     18.664  0.0000E+00  0.1260E+01
     18.751  0.0000E+00  0.1260E+01
