       N       E                     dE             d eps       ncg     rms          rms(c)
DAV:   1    -0.540332486331E+03   -0.54033E+03   -0.27698E+02  2820   0.357E+01    0.486E+01
DAV:   2    -0.451685716096E+03    0.88647E+02   -0.15944E+02  2712   0.268E+01    0.199E+01
DAV:   3    -0.450490799822E+03    0.11949E+01   -0.24053E+01  2766   0.127E+01    0.113E+01
DAV:   4    -0.451472333884E+03   -0.98153E+00   -0.28446E+00  3228   0.454E+00    0.812E+00
DAV:   5    -0.451725077930E+03   -0.25274E+00   -0.41947E-01  2832   0.195E+00    0.254E+00
DAV:   6    -0.451776371623E+03   -0.51294E-01   -0.10785E-01  2832   0.964E-01    0.540E-01
DAV:   7    -0.451776057571E+03    0.31405E-03   -0.61974E-03  3114   0.225E-01    0.353E-01
DAV:   8    -0.451777478253E+03   -0.14207E-02   -0.61020E-03  3306   0.214E-01    0.127E-01
DAV:   9    -0.451778275662E+03   -0.79741E-03   -0.86223E-04  2682   0.968E-02    0.569E-02
DAV:  10    -0.451778359610E+03   -0.83948E-04   -0.23396E-04  3000   0.486E-02    0.352E-02
DAV:  11    -0.451778339874E+03    0.19736E-04   -0.13332E-05  1566   0.122E-02    0.182E-02
DAV:  12    -0.451778327537E+03    0.12337E-04   -0.31034E-06  1326   0.709E-03    0.781E-03
DAV:  13    -0.451778323302E+03    0.42349E-05   -0.55721E-06  1314   0.753E-03
   1 F= -.25985203E+03 E0= -.25985203E+03  d E =-.259852E+03
       N       E                     dE             d eps       ncg     rms          rms(c)
DAV:   1    -0.435445591639E+03    0.16333E+02   -0.33845E+01  2568   0.186E+01    0.652E+00
DAV:   2    -0.434833330866E+03    0.61226E+00   -0.26173E+00  2796   0.400E+00    0.321E+00
DAV:   3    -0.434813534337E+03    0.19797E-01   -0.40716E-01  2796   0.147E+00    0.930E-01
DAV:   4    -0.434820699868E+03   -0.71655E-02   -0.19234E-02  2790   0.439E-01    0.689E-01
DAV:   5    -0.434822719037E+03   -0.20192E-02   -0.17605E-03  2802   0.155E-01    0.587E-01
DAV:   6    -0.434823781959E+03   -0.10629E-02   -0.27690E-03  2796   0.186E-01    0.117E-01
DAV:   7    -0.434823455493E+03    0.32647E-03   -0.52900E-04  2790   0.689E-02    0.356E-02
DAV:   8    -0.434823418862E+03    0.36631E-04   -0.28653E-04  2910   0.409E-02    0.112E-02
DAV:   9    -0.434823417318E+03    0.15436E-05   -0.22037E-05  1722   0.129E-02
   2 F= -.25832475E+03 E0= -.25832475E+03  d E =0.152728E+01
       N       E                     dE             d eps       ncg     rms          rms(c)
DAV:   1    -0.447393683260E+03   -0.12570E+02   -0.14996E+01  2568   0.118E+01    0.442E+00
DAV:   2    -0.447169242572E+03    0.22444E+00   -0.12429E+00  2796   0.266E+00    0.213E+00
DAV:   3    -0.447160598104E+03    0.86445E-02   -0.18036E-01  2778   0.969E-01    0.624E-01
DAV:   4    -0.447163084993E+03   -0.24869E-02   -0.96789E-03  2820   0.311E-01    0.450E-01
DAV:   5    -0.447163859329E+03   -0.77434E-03   -0.97969E-04  2766   0.117E-01    0.387E-01
DAV:   6    -0.447163647388E+03    0.21194E-03   -0.14741E-03  2868   0.130E-01    0.744E-02
DAV:   7    -0.447163556968E+03    0.90420E-04   -0.30318E-04  2844   0.513E-02    0.265E-02
DAV:   8    -0.447163564969E+03   -0.80009E-05   -0.18700E-04  2952   0.324E-02    0.978E-03
DAV:   9    -0.447163561415E+03    0.35545E-05   -0.15300E-05  1380   0.111E-02
   3 F= -.26028731E+03 E0= -.26028731E+03  d E =-.435289E+00
       N       E                     dE             d eps       ncg     rms          rms(c)
DAV:   1    -0.447082111419E+03    0.81454E-01   -0.94089E-04  2604   0.947E-02    0.359E-02
DAV:   2    -0.447082097017E+03    0.14402E-04   -0.78604E-05  2670   0.213E-02    0.177E-02
DAV:   3    -0.447082099974E+03   -0.29568E-05   -0.10762E-05  1314   0.773E-03
   4 F= -.26028744E+03 E0= -.26028744E+03  d E =-.435417E+00
       N       E                     dE             d eps       ncg     rms          rms(c)
DAV:   1    -0.446966747004E+03    0.11535E+00   -0.18184E-01  2706   0.131E+00    0.151E-01
DAV:   2    -0.446970125848E+03   -0.33788E-02   -0.26471E-02  2862   0.438E-01    0.187E-01
DAV:   3    -0.446970319027E+03   -0.19318E-03   -0.44483E-04  3024   0.557E-02    0.208E-01
DAV:   4    -0.446969932957E+03    0.38607E-03   -0.23500E-04  2832   0.430E-02    0.174E-01
DAV:   5    -0.446969643030E+03    0.28993E-03   -0.28301E-03  2766   0.143E-01    0.128E-01
DAV:   6    -0.446969663737E+03   -0.20707E-04   -0.19709E-04  2784   0.391E-02    0.112E-01
DAV:   7    -0.446969742573E+03   -0.78836E-04   -0.20900E-05  2010   0.179E-02    0.295E-02
DAV:   8    -0.446969796015E+03   -0.53442E-04   -0.21172E-05  1692   0.125E-02    0.260E-02
DAV:   9    -0.446969791957E+03    0.40583E-05   -0.23399E-06  1290   0.504E-03
   5 F= -.26028523E+03 E0= -.26028523E+03  d E =0.220985E-02
       N       E                     dE             d eps       ncg     rms          rms(c)
DAV:   1    -0.447035952065E+03   -0.66156E-01   -0.54698E-02  2718   0.721E-01    0.934E-02
DAV:   2    -0.447036897053E+03   -0.94499E-03   -0.79898E-03  2862   0.241E-01    0.106E-01
DAV:   3    -0.447036932988E+03   -0.35935E-04   -0.12546E-04  2964   0.304E-02    0.114E-01
DAV:   4    -0.447036952792E+03   -0.19804E-04   -0.55134E-06  1692   0.932E-03    0.122E-01
DAV:   5    -0.447037132369E+03   -0.17958E-03   -0.64715E-04  2832   0.697E-02    0.264E-01
DAV:   6    -0.447037005814E+03    0.12655E-03   -0.44120E-05  2712   0.255E-02    0.225E-01
DAV:   7    -0.447036993715E+03    0.12099E-04   -0.14874E-05  1368   0.103E-02    0.222E-01
DAV:   8    -0.447036969294E+03    0.24421E-04   -0.84527E-06  1362   0.100E-02    0.218E-01
DAV:   9    -0.447036953181E+03    0.16113E-04   -0.26403E-06  1278   0.494E-03    0.207E-01
DAV:  10    -0.447036838077E+03    0.11510E-03   -0.11393E-04  2856   0.248E-02    0.114E-01
DAV:  11    -0.447036712791E+03    0.12529E-03   -0.51720E-05  2802   0.221E-02    0.609E-02
DAV:  12    -0.447036612840E+03    0.99951E-04   -0.43612E-05  2604   0.254E-02    0.781E-02
DAV:  13    -0.447036627316E+03   -0.14476E-04   -0.77240E-05  2574   0.198E-02    0.372E-02
DAV:  14    -0.447036621808E+03    0.55083E-05   -0.30179E-06  1272   0.460E-03
   6 F= -.26029158E+03 E0= -.26029158E+03  d E =-.413808E-02
