  28  28   0   0
  0.9237919E+01  0.8893859E-09  0.2999184E-09  0.9697031E-09  0.5000000E-15
  1.000000000000000E-004
  CAR 
 Al4C3 Pnma-III - H(P) scan @ 20 GPa (ISI
     17.63744796     -6.42043237  301     10.02413124      1.00000000
     -6.420  0.0000E+00  0.0000E+00
     -6.340  0.0000E+00  0.0000E+00
     -6.260  0.0000E+00  0.0000E+00
     -6.180  0.0000E+00  0.0000E+00
     -6.100  0.0000E+00  0.0000E+00
     -6.019  0.0000E+00  0.0000E+00
     -5.939  0.0000E+00  0.0000E+00
     -5.859  0.0000E+00  0.0000E+00
     -5.779  0.0000E+00  0.0000E+00
     -5.699  0.0000E+00  0.0000E+00
     -5.619  0.3933E-19  0.3154E-20
     -5.538  0.7915E-12  0.6347E-13
     -5.458  0.7296E-07  0.5851E-08
     -5.378  0.5287E-04  0.4246E-05
     -5.298  0.6813E-03  0.5888E-04
     -5.218  0.2856E-02  0.2879E-03
     -5.137  0.5552E-02  0.7332E-03
     -5.057  0.6234E-02  0.1233E-02
     -4.977  0.5432E-02  0.1669E-02
     -4.897  0.6597E-02  0.2198E-02
     -4.817  0.1130E-01  0.3104E-02
     -4.736  0.1384E-01  0.4213E-02
     -4.656  0.7063E-02  0.4780E-02
     -4.576  0.6908E-02  0.5334E-02
     -4.496  0.1306E-01  0.6381E-02
     -4.416  0.1604E-01  0.7668E-02
     -4.335  0.7045E-02  0.8233E-02
     -4.255  0.9256E-02  0.8975E-02
     -4.175  0.1769E-01  0.1039E-01
     -4.095  0.1886E-01  0.1191E-01
     -4.015  0.1185E-01  0.1286E-01
     -3.934  0.1199E-01  0.1382E-01
     -3.854  0.1698E-01  0.1518E-01
     -3.774  0.1878E-01  0.1669E-01
     -3.694  0.2069E-01  0.1834E-01
     -3.614  0.1609E-01  0.1963E-01
     -3.533  0.1306E-01  0.2068E-01
     -3.453  0.1454E-01  0.2185E-01
     -3.373  0.2302E-01  0.2369E-01
     -3.293  0.2171E-01  0.2544E-01
     -3.213  0.2709E-01  0.2761E-01
     -3.133  0.1687E-01  0.2896E-01
     -3.052  0.9663E-02  0.2974E-01
     -2.972  0.2106E-01  0.3142E-01
     -2.892  0.3463E-01  0.3420E-01
     -2.812  0.2184E-01  0.3595E-01
     -2.732  0.1057E-01  0.3680E-01
     -2.651  0.2559E-01  0.3885E-01
     -2.571  0.3164E-01  0.4139E-01
     -2.491  0.2752E-01  0.4360E-01
     -2.411  0.2773E-01  0.4582E-01
     -2.331  0.3012E-01  0.4824E-01
     -2.250  0.3270E-01  0.5086E-01
     -2.170  0.3416E-01  0.5360E-01
     -2.090  0.2306E-01  0.5545E-01
     -2.010  0.2417E-01  0.5739E-01
     -1.930  0.3173E-01  0.5993E-01
     -1.849  0.2635E-01  0.6204E-01
     -1.769  0.4059E-01  0.6530E-01
     -1.689  0.4109E-01  0.6859E-01
     -1.609  0.3487E-01  0.7139E-01
     -1.529  0.3059E-01  0.7384E-01
     -1.448  0.3847E-01  0.7693E-01
     -1.368  0.5553E-01  0.8138E-01
     -1.288  0.5622E-01  0.8589E-01
     -1.208  0.5448E-01  0.9026E-01
     -1.128  0.5403E-01  0.9459E-01
     -1.048  0.4094E-01  0.9787E-01
     -0.967  0.2751E-01  0.1001E+00
     -0.887  0.3101E-01  0.1026E+00
     -0.807  0.2289E-01  0.1044E+00
     -0.727  0.2674E-01  0.1065E+00
     -0.647  0.2933E-01  0.1089E+00
     -0.566  0.2539E-01  0.1109E+00
     -0.486  0.2506E-01  0.1129E+00
     -0.406  0.1844E-01  0.1144E+00
     -0.326  0.2394E-01  0.1163E+00
     -0.246  0.1584E-01  0.1176E+00
     -0.165  0.2097E-01  0.1193E+00
     -0.085  0.7979E-02  0.1199E+00
     -0.005  0.8098E-03  0.1200E+00
      0.075  0.3554E-05  0.1200E+00
      0.155  0.1805E-09  0.1200E+00
      0.236  0.7174E-16  0.1200E+00
      0.316  0.0000E+00  0.1200E+00
      0.396  0.0000E+00  0.1200E+00
      0.476  0.0000E+00  0.1200E+00
      0.556  0.0000E+00  0.1200E+00
      0.637  0.0000E+00  0.1200E+00
      0.717  0.0000E+00  0.1200E+00
      0.797  0.0000E+00  0.1200E+00
      0.877  0.0000E+00  0.1200E+00
      0.957  0.0000E+00  0.1200E+00
      1.038  0.0000E+00  0.1200E+00
      1.118  0.0000E+00  0.1200E+00
      1.198  0.0000E+00  0.1200E+00
      1.278  0.6293E-17  0.1200E+00
      1.358  0.2901E-10  0.1200E+00
      1.438  0.9128E-06  0.1200E+00
      1.519  0.2414E-03  0.1200E+00
      1.599  0.1171E-02  0.1201E+00
      1.679  0.4334E-02  0.1205E+00
      1.759  0.1144E-01  0.1214E+00
      1.839  0.2085E-01  0.1231E+00
      1.920  0.1728E-01  0.1244E+00
      2.000  0.1253E-01  0.1254E+00
      2.080  0.1764E-01  0.1269E+00
      2.160  0.2671E-01  0.1290E+00
      2.240  0.3752E-01  0.1320E+00
      2.321  0.4288E-01  0.1354E+00
      2.401  0.3321E-01  0.1381E+00
      2.481  0.2117E-01  0.1398E+00
      2.561  0.3571E-01  0.1427E+00
      2.641  0.5215E-01  0.1469E+00
      2.722  0.5087E-01  0.1509E+00
      2.802  0.3782E-01  0.1540E+00
      2.882  0.4422E-01  0.1575E+00
      2.962  0.4662E-01  0.1612E+00
      3.042  0.3593E-01  0.1641E+00
      3.123  0.4503E-01  0.1677E+00
      3.203  0.4380E-01  0.1713E+00
      3.283  0.3503E-01  0.1741E+00
      3.363  0.4230E-01  0.1775E+00
      3.443  0.5026E-01  0.1815E+00
      3.523  0.4536E-01  0.1851E+00
      3.604  0.5084E-01  0.1892E+00
      3.684  0.4160E-01  0.1925E+00
      3.764  0.2912E-01  0.1949E+00
      3.844  0.4821E-01  0.1987E+00
      3.924  0.3594E-01  0.2016E+00
      4.005  0.3139E-01  0.2041E+00
      4.085  0.3290E-01  0.2068E+00
      4.165  0.2783E-01  0.2090E+00
      4.245  0.3984E-01  0.2122E+00
      4.325  0.4264E-01  0.2156E+00
      4.406  0.4492E-01  0.2192E+00
      4.486  0.4574E-01  0.2229E+00
      4.566  0.4048E-01  0.2261E+00
      4.646  0.2993E-01  0.2285E+00
      4.726  0.3043E-01  0.2310E+00
      4.807  0.3597E-01  0.2339E+00
      4.887  0.3938E-01  0.2370E+00
      4.967  0.3721E-01  0.2400E+00
      5.047  0.4018E-01  0.2432E+00
      5.127  0.4351E-01  0.2467E+00
      5.208  0.4642E-01  0.2504E+00
      5.288  0.5325E-01  0.2547E+00
      5.368  0.5692E-01  0.2593E+00
      5.448  0.3580E-01  0.2621E+00
      5.528  0.3408E-01  0.2649E+00
      5.609  0.6187E-01  0.2698E+00
      5.689  0.5289E-01  0.2741E+00
      5.769  0.3140E-01  0.2766E+00
      5.849  0.2922E-01  0.2789E+00
      5.929  0.5298E-01  0.2832E+00
      6.009  0.4553E-01  0.2868E+00
      6.090  0.3473E-01  0.2896E+00
      6.170  0.5118E-01  0.2937E+00
      6.250  0.5198E-01  0.2979E+00
      6.330  0.4284E-01  0.3013E+00
      6.410  0.4063E-01  0.3046E+00
      6.491  0.4526E-01  0.3082E+00
      6.571  0.4521E-01  0.3118E+00
      6.651  0.5410E-01  0.3162E+00
      6.731  0.5827E-01  0.3209E+00
      6.811  0.5690E-01  0.3254E+00
      6.892  0.3929E-01  0.3286E+00
      6.972  0.4910E-01  0.3325E+00
      7.052  0.4172E-01  0.3359E+00
      7.132  0.5636E-01  0.3404E+00
      7.212  0.5562E-01  0.3448E+00
      7.293  0.4986E-01  0.3488E+00
      7.373  0.5611E-01  0.3533E+00
      7.453  0.6541E-01  0.3586E+00
      7.533  0.6421E-01  0.3637E+00
      7.613  0.6617E-01  0.3690E+00
      7.694  0.7074E-01  0.3747E+00
      7.774  0.7048E-01  0.3804E+00
      7.854  0.6242E-01  0.3854E+00
      7.934  0.5492E-01  0.3898E+00
      8.014  0.5372E-01  0.3941E+00
      8.094  0.7428E-01  0.4000E+00
      8.175  0.7311E-01  0.4059E+00
      8.255  0.6888E-01  0.4114E+00
      8.335  0.5540E-01  0.4159E+00
      8.415  0.6004E-01  0.4207E+00
      8.495  0.5774E-01  0.4253E+00
      8.576  0.5952E-01  0.4301E+00
      8.656  0.6059E-01  0.4349E+00
      8.736  0.6387E-01  0.4401E+00
      8.816  0.7079E-01  0.4457E+00
      8.896  0.5965E-01  0.4505E+00
      8.977  0.6012E-01  0.4553E+00
      9.057  0.4437E-01  0.4589E+00
      9.137  0.3337E-01  0.4616E+00
      9.217  0.5006E-01  0.4656E+00
      9.297  0.5386E-01  0.4699E+00
      9.378  0.3331E-01  0.4726E+00
      9.458  0.2646E-01  0.4747E+00
      9.538  0.2183E-01  0.4765E+00
      9.618  0.1960E-01  0.4780E+00
      9.698  0.1435E-01  0.4792E+00
      9.779  0.8334E-02  0.4798E+00
      9.859  0.1901E-02  0.4800E+00
      9.939  0.1878E-04  0.4800E+00
     10.019  0.2459E-08  0.4800E+00
     10.099  0.2539E-14  0.4800E+00
     10.180  0.0000E+00  0.4800E+00
     10.260  0.0000E+00  0.4800E+00
     10.340  0.0000E+00  0.4800E+00
     10.420  0.0000E+00  0.4800E+00
     10.500  0.0000E+00  0.4800E+00
     10.580  0.0000E+00  0.4800E+00
     10.661  0.0000E+00  0.4800E+00
     10.741  0.0000E+00  0.4800E+00
     10.821  0.0000E+00  0.4800E+00
     10.901  0.0000E+00  0.4800E+00
     10.981  0.0000E+00  0.4800E+00
     11.062  0.0000E+00  0.4800E+00
     11.142  0.0000E+00  0.4800E+00
     11.222  0.1026E-12  0.4800E+00
     11.302  0.3072E-07  0.4800E+00
     11.382  0.6989E-04  0.4800E+00
     11.463  0.2215E-02  0.4802E+00
     11.543  0.5217E-02  0.4806E+00
     11.623  0.7662E-02  0.4812E+00
     11.703  0.1368E-01  0.4823E+00
     11.783  0.2210E-01  0.4841E+00
     11.864  0.2261E-01  0.4859E+00
     11.944  0.2098E-01  0.4876E+00
     12.024  0.1976E-01  0.4892E+00
     12.104  0.2002E-01  0.4908E+00
     12.184  0.2194E-01  0.4925E+00
     12.265  0.2909E-01  0.4949E+00
     12.345  0.2737E-01  0.4971E+00
     12.425  0.2575E-01  0.4991E+00
     12.505  0.3511E-01  0.5019E+00
     12.585  0.3340E-01  0.5046E+00
     12.665  0.2895E-01  0.5069E+00
     12.746  0.4156E-01  0.5103E+00
     12.826  0.4559E-01  0.5139E+00
     12.906  0.4656E-01  0.5177E+00
     12.986  0.3503E-01  0.5205E+00
     13.066  0.1727E-01  0.5219E+00
     13.147  0.2324E-01  0.5237E+00
     13.227  0.2803E-01  0.5260E+00
     13.307  0.5375E-01  0.5303E+00
     13.387  0.5366E-01  0.5346E+00
     13.467  0.4015E-01  0.5378E+00
     13.548  0.4108E-01  0.5411E+00
     13.628  0.4410E-01  0.5446E+00
     13.708  0.3310E-01  0.5473E+00
     13.788  0.4454E-01  0.5509E+00
     13.868  0.4487E-01  0.5545E+00
     13.949  0.4149E-01  0.5578E+00
     14.029  0.5057E-01  0.5618E+00
     14.109  0.5506E-01  0.5663E+00
     14.189  0.5546E-01  0.5707E+00
     14.269  0.3795E-01  0.5737E+00
     14.350  0.3778E-01  0.5768E+00
     14.430  0.5745E-01  0.5814E+00
     14.510  0.4441E-01  0.5849E+00
     14.590  0.3895E-01  0.5881E+00
     14.670  0.3991E-01  0.5913E+00
     14.751  0.5072E-01  0.5953E+00
     14.831  0.4049E-01  0.5986E+00
     14.911  0.3525E-01  0.6014E+00
     14.991  0.4206E-01  0.6048E+00
     15.071  0.5277E-01  0.6090E+00
     15.151  0.4419E-01  0.6126E+00
     15.232  0.3924E-01  0.6157E+00
     15.312  0.3943E-01  0.6189E+00
     15.392  0.5079E-01  0.6229E+00
     15.472  0.4797E-01  0.6268E+00
     15.552  0.4625E-01  0.6305E+00
     15.633  0.3674E-01  0.6334E+00
     15.713  0.3339E-01  0.6361E+00
     15.793  0.3313E-01  0.6388E+00
     15.873  0.4966E-01  0.6428E+00
     15.953  0.4198E-01  0.6461E+00
     16.034  0.3946E-01  0.6493E+00
     16.114  0.4142E-01  0.6526E+00
     16.194  0.2718E-01  0.6548E+00
     16.274  0.2230E-01  0.6566E+00
     16.354  0.1922E-01  0.6581E+00
     16.435  0.9937E-02  0.6589E+00
     16.515  0.9928E-02  0.6597E+00
     16.595  0.3461E-02  0.6600E+00
     16.675  0.1540E-03  0.6600E+00
     16.755  0.1640E-06  0.6600E+00
     16.836  0.1648E-11  0.6600E+00
     16.916  0.0000E+00  0.6600E+00
     16.996  0.0000E+00  0.6600E+00
     17.076  0.0000E+00  0.6600E+00
     17.156  0.0000E+00  0.6600E+00
     17.236  0.0000E+00  0.6600E+00
     17.317  0.0000E+00  0.6600E+00
     17.397  0.0000E+00  0.6600E+00
     17.477  0.0000E+00  0.6600E+00
     17.557  0.0000E+00  0.6600E+00
     17.637  0.0000E+00  0.6600E+00
