Al4C3 Pnma-III - H(P) scan @ 20 GPa (ISI
           1
     8.893859    0.000000    0.000000
     0.000000    2.999184    0.000000
     0.000000    0.000000    9.697031
   Al   C 
    16    12
Direct configuration=     1
   0.73862842  0.25000000  0.71510522
   0.76137158  0.75000000  0.21510522
   0.26137158  0.75000000  0.28489478
   0.23862842  0.25000000  0.78489478
   0.60694933  0.25000000  0.47271254
   0.89305067  0.75000000  0.97271254
   0.39305067  0.75000000  0.52728746
   0.10694933  0.25000000  0.02728746
   0.13590126  0.25000000  0.51790586
   0.36409874  0.75000000  0.01790586
   0.86409874  0.75000000  0.48209414
   0.63590126  0.25000000  0.98209414
   0.99089628  0.25000000  0.28055629
   0.50910372  0.75000000  0.78055629
   0.00910372  0.75000000  0.71944371
   0.49089628  0.25000000  0.21944371
   0.92865735  0.25000000  0.61977712
   0.57134265  0.75000000  0.11977712
   0.07134265  0.75000000  0.38022288
   0.42865735  0.25000000  0.88022288
   0.39319544  0.25000000  0.40101235
   0.10680456  0.75000000  0.90101235
   0.60680456  0.75000000  0.59898765
   0.89319544  0.25000000  0.09898765
   0.77457076  0.25000000  0.35546730
   0.72542924  0.75000000  0.85546730
   0.22542924  0.75000000  0.64453270
   0.27457076  0.25000000  0.14453270
Al4C3 Pnma-III - H(P) scan @ 20 GPa (ISI
           1
     9.140905    0.000000    0.000000
     0.000000    3.082493    0.000000
     0.000000    0.000000    9.966386
   Al   C 
    16    12
Direct configuration=     2
   0.73864824  0.25000000  0.71510347
   0.76135176  0.75000000  0.21510347
   0.26135176  0.75000000  0.28489653
   0.23864824  0.25000000  0.78489653
   0.60694758  0.25000000  0.47269332
   0.89305242  0.75000000  0.97269332
   0.39305242  0.75000000  0.52730668
   0.10694758  0.25000000  0.02730668
   0.13594473  0.25000000  0.51788240
   0.36405527  0.75000000  0.01788240
   0.86405527  0.75000000  0.48211760
   0.63594473  0.25000000  0.98211760
   0.99085992  0.25000000  0.28053686
   0.50914008  0.75000000  0.78053686
   0.00914008  0.75000000  0.71946314
   0.49085992  0.25000000  0.21946314
   0.92864089  0.25000000  0.61982085
   0.57135911  0.75000000  0.11982085
   0.07135911  0.75000000  0.38017915
   0.42864089  0.25000000  0.88017915
   0.39320410  0.25000000  0.40100484
   0.10679590  0.75000000  0.90100484
   0.60679590  0.75000000  0.59899516
   0.89320410  0.25000000  0.09899516
   0.77454978  0.25000000  0.35546356
   0.72545022  0.75000000  0.85546356
   0.22545022  0.75000000  0.64453644
   0.27454978  0.25000000  0.14453644
Al4C3 Pnma-III - H(P) scan @ 20 GPa (ISI
           1
     9.005040    0.000000    0.000000
     0.000000    3.036676    0.000000
     0.000000    0.000000    9.818252
   Al   C 
    16    12
Direct configuration=     3
   0.73863763  0.25000000  0.71510440
   0.76136237  0.75000000  0.21510440
   0.26136237  0.75000000  0.28489560
   0.23863763  0.25000000  0.78489560
   0.60694852  0.25000000  0.47270360
   0.89305148  0.75000000  0.97270360
   0.39305148  0.75000000  0.52729640
   0.10694852  0.25000000  0.02729640
   0.13592147  0.25000000  0.51789495
   0.36407853  0.75000000  0.01789495
   0.86407853  0.75000000  0.48210505
   0.63592147  0.25000000  0.98210505
   0.99087938  0.25000000  0.28054726
   0.50912062  0.75000000  0.78054726
   0.00912062  0.75000000  0.71945274
   0.49087938  0.25000000  0.21945274
   0.92864970  0.25000000  0.61979745
   0.57135030  0.75000000  0.11979745
   0.07135030  0.75000000  0.38020255
   0.42864970  0.25000000  0.88020255
   0.39319946  0.25000000  0.40100885
   0.10680054  0.75000000  0.90100885
   0.60680054  0.75000000  0.59899115
   0.89319946  0.25000000  0.09899115
   0.77456100  0.25000000  0.35546556
   0.72543900  0.75000000  0.85546556
   0.22543900  0.75000000  0.64453444
   0.27456100  0.25000000  0.14453444
Al4C3 Pnma-III - H(P) scan @ 20 GPa (ISI
           1
     9.004096    0.000000    0.000000
     0.000000    3.036358    0.000000
     0.000000    0.000000    9.817223
   Al   C 
    16    12
Direct configuration=     4
   0.73863756  0.25000000  0.71510441
   0.76136244  0.75000000  0.21510441
   0.26136244  0.75000000  0.28489559
   0.23863756  0.25000000  0.78489559
   0.60694853  0.25000000  0.47270368
   0.89305147  0.75000000  0.97270368
   0.39305147  0.75000000  0.52729632
   0.10694853  0.25000000  0.02729632
   0.13592130  0.25000000  0.51789504
   0.36407870  0.75000000  0.01789504
   0.86407870  0.75000000  0.48210496
   0.63592130  0.25000000  0.98210496
   0.99087952  0.25000000  0.28054733
   0.50912048  0.75000000  0.78054733
   0.00912048  0.75000000  0.71945267
   0.49087952  0.25000000  0.21945267
   0.92864976  0.25000000  0.61979728
   0.57135024  0.75000000  0.11979728
   0.07135024  0.75000000  0.38020272
   0.42864976  0.25000000  0.88020272
   0.39319943  0.25000000  0.40100888
   0.10680057  0.75000000  0.90100888
   0.60680057  0.75000000  0.59899112
   0.89319943  0.25000000  0.09899112
   0.77456108  0.25000000  0.35546557
   0.72543892  0.75000000  0.85546557
   0.22543892  0.75000000  0.64453443
   0.27456108  0.25000000  0.14453443
Al4C3 Pnma-III - H(P) scan @ 20 GPa (ISI
           1
     9.006697    0.000000    0.000000
     0.000000    3.037235    0.000000
     0.000000    0.000000    9.820058
   Al   C 
    16    12
Direct configuration=     5
   0.73898127  0.25000000  0.71518280
   0.76101873  0.75000000  0.21518280
   0.26101873  0.75000000  0.28481720
   0.23898127  0.25000000  0.78481720
   0.60710121  0.25000000  0.47308967
   0.89289879  0.75000000  0.97308967
   0.39289879  0.75000000  0.52691033
   0.10710121  0.25000000  0.02691033
   0.13546368  0.25000000  0.51814083
   0.36453632  0.75000000  0.01814083
   0.86453632  0.75000000  0.48185917
   0.63546368  0.25000000  0.98185917
   0.99040773  0.25000000  0.28100992
   0.50959227  0.75000000  0.78100992
   0.00959227  0.75000000  0.71899008
   0.49040773  0.25000000  0.21899008
   0.92862235  0.25000000  0.62026295
   0.57137765  0.75000000  0.12026295
   0.07137765  0.75000000  0.37973705
   0.42862235  0.25000000  0.87973705
   0.39385582  0.25000000  0.40118929
   0.10614418  0.75000000  0.90118929
   0.60614418  0.75000000  0.59881071
   0.89385582  0.25000000  0.09881071
   0.77455722  0.25000000  0.35565019
   0.72544278  0.75000000  0.85565019
   0.22544278  0.75000000  0.64434981
   0.27455722  0.25000000  0.14434981
Al4C3 Pnma-III - H(P) scan @ 20 GPa (ISI
           1
     9.007766    0.000000    0.000000
     0.000000    3.037596    0.000000
     0.000000    0.000000    9.821224
   Al   C 
    16    12
Direct configuration=     6
   0.73912244  0.25000000  0.71521499
   0.76087756  0.75000000  0.21521499
   0.26087756  0.75000000  0.28478501
   0.23912244  0.25000000  0.78478501
   0.60716392  0.25000000  0.47324822
   0.89283608  0.75000000  0.97324822
   0.39283608  0.75000000  0.52675178
   0.10716392  0.25000000  0.02675178
   0.13527570  0.25000000  0.51824178
   0.36472430  0.75000000  0.01824178
   0.86472430  0.75000000  0.48175822
   0.63527570  0.25000000  0.98175822
   0.99021395  0.25000000  0.28119993
   0.50978605  0.75000000  0.78119993
   0.00978605  0.75000000  0.71880007
   0.49021395  0.25000000  0.21880007
   0.92861110  0.25000000  0.62045423
   0.57138890  0.75000000  0.12045423
   0.07138890  0.75000000  0.37954577
   0.42861110  0.25000000  0.87954577
   0.39412543  0.25000000  0.40126339
   0.10587457  0.75000000  0.90126339
   0.60587457  0.75000000  0.59873661
   0.89412543  0.25000000  0.09873661
   0.77455563  0.25000000  0.35572603
   0.72544437  0.75000000  0.85572603
   0.22544437  0.75000000  0.64427397
   0.27455563  0.25000000  0.14427397
Al4C3 Pnma-III - H(P) scan @ 20 GPa (ISI
           1
     9.009472    0.000000    0.000000
     0.000000    3.038171    0.000000
     0.000000    0.000000    9.823085
   Al   C 
    16    12
Direct configuration=     7
   0.73920614  0.25000000  0.71544959
   0.76079386  0.75000000  0.21544959
   0.26079386  0.75000000  0.28455041
   0.23920614  0.25000000  0.78455041
   0.60726522  0.25000000  0.47358955
   0.89273478  0.75000000  0.97358955
   0.39273478  0.75000000  0.52641045
   0.10726522  0.25000000  0.02641045
   0.13499655  0.25000000  0.51846150
   0.36500345  0.75000000  0.01846150
   0.86500345  0.75000000  0.48153850
   0.63499655  0.25000000  0.98153850
   0.98935257  0.25000000  0.28106605
   0.51064743  0.75000000  0.78106605
   0.01064743  0.75000000  0.71893395
   0.48935257  0.25000000  0.21893395
   0.92871729  0.25000000  0.62047268
   0.57128271  0.75000000  0.12047268
   0.07128271  0.75000000  0.37952732
   0.42871729  0.25000000  0.87952732
   0.39463023  0.25000000  0.40082399
   0.10536977  0.75000000  0.90082399
   0.60536977  0.75000000  0.59917601
   0.89463023  0.25000000  0.09917601
   0.77473988  0.25000000  0.35593181
   0.72526012  0.75000000  0.85593181
   0.22526012  0.75000000  0.64406819
   0.27473988  0.25000000  0.14406819
Al4C3 Pnma-III - H(P) scan @ 20 GPa (ISI
           1
     9.009352    0.000000    0.000000
     0.000000    3.038131    0.000000
     0.000000    0.000000    9.822954
   Al   C 
    16    12
Direct configuration=     8
   0.73920024  0.25000000  0.71543307
   0.76079976  0.75000000  0.21543307
   0.26079976  0.75000000  0.28456693
   0.23920024  0.25000000  0.78456693
   0.60725809  0.25000000  0.47356551
   0.89274191  0.75000000  0.97356551
   0.39274191  0.75000000  0.52643449
   0.10725809  0.25000000  0.02643449
   0.13501621  0.25000000  0.51844603
   0.36498379  0.75000000  0.01844603
   0.86498379  0.75000000  0.48155397
   0.63501621  0.25000000  0.98155397
   0.98941323  0.25000000  0.28107548
   0.51058677  0.75000000  0.78107548
   0.01058677  0.75000000  0.71892452
   0.48941323  0.25000000  0.21892452
   0.92870981  0.25000000  0.62047139
   0.57129019  0.75000000  0.12047139
   0.07129019  0.75000000  0.37952861
   0.42870981  0.25000000  0.87952861
   0.39459468  0.25000000  0.40085493
   0.10540532  0.75000000  0.90085493
   0.60540532  0.75000000  0.59914507
   0.89459468  0.25000000  0.09914507
   0.77472690  0.25000000  0.35591732
   0.72527310  0.75000000  0.85591732
   0.22527310  0.75000000  0.64408268
   0.27472690  0.25000000  0.14408268
Al4C3 Pnma-III - H(P) scan @ 20 GPa (ISI
           1
     9.009427    0.000000    0.000000
     0.000000    3.038156    0.000000
     0.000000    0.000000    9.823035
   Al   C 
    16    12
Direct configuration=     9
   0.73942933  0.25000000  0.71556087
   0.76057067  0.75000000  0.21556087
   0.26057067  0.75000000  0.28443913
   0.23942933  0.25000000  0.78443913
   0.60738132  0.25000000  0.47366505
   0.89261868  0.75000000  0.97366505
   0.39261868  0.75000000  0.52633495
   0.10738132  0.25000000  0.02633495
   0.13485125  0.25000000  0.51829926
   0.36514875  0.75000000  0.01829926
   0.86514875  0.75000000  0.48170074
   0.63485125  0.25000000  0.98170074
   0.98933894  0.25000000  0.28109551
   0.51066106  0.75000000  0.78109551
   0.01066106  0.75000000  0.71890449
   0.48933894  0.25000000  0.21890449
   0.92876305  0.25000000  0.62043023
   0.57123695  0.75000000  0.12043023
   0.07123695  0.75000000  0.37956977
   0.42876305  0.25000000  0.87956977
   0.39459282  0.25000000  0.40065464
   0.10540718  0.75000000  0.90065464
   0.60540718  0.75000000  0.59934536
   0.89459282  0.25000000  0.09934536
   0.77467460  0.25000000  0.35613405
   0.72532540  0.75000000  0.85613405
   0.22532540  0.75000000  0.64386595
   0.27467460  0.25000000  0.14386595
Al4C3 Pnma-III - H(P) scan @ 20 GPa (ISI
           1
     9.009454    0.000000    0.000000
     0.000000    3.038165    0.000000
     0.000000    0.000000    9.823065
   Al   C 
    16    12
Direct configuration=    10
   0.73951280  0.25000000  0.71560743
   0.76048720  0.75000000  0.21560743
   0.26048720  0.75000000  0.28439257
   0.23951280  0.25000000  0.78439257
   0.60742621  0.25000000  0.47370132
   0.89257379  0.75000000  0.97370132
   0.39257379  0.75000000  0.52629868
   0.10742621  0.25000000  0.02629868
   0.13479115  0.25000000  0.51824578
   0.36520885  0.75000000  0.01824578
   0.86520885  0.75000000  0.48175422
   0.63479115  0.25000000  0.98175422
   0.98931188  0.25000000  0.28110281
   0.51068812  0.75000000  0.78110281
   0.01068812  0.75000000  0.71889719
   0.48931188  0.25000000  0.21889719
   0.92878245  0.25000000  0.62041524
   0.57121755  0.75000000  0.12041524
   0.07121755  0.75000000  0.37958476
   0.42878245  0.25000000  0.87958476
   0.39459214  0.25000000  0.40058167
   0.10540786  0.75000000  0.90058167
   0.60540786  0.75000000  0.59941833
   0.89459214  0.25000000  0.09941833
   0.77465555  0.25000000  0.35621301
   0.72534445  0.75000000  0.85621301
   0.22534445  0.75000000  0.64378699
   0.27465555  0.25000000  0.14378699
Al4C3 Pnma-III - H(P) scan @ 20 GPa (ISI
           1
     9.010010    0.000000    0.000000
     0.000000    3.038352    0.000000
     0.000000    0.000000    9.823671
   Al   C 
    16    12
Direct configuration=    11
   0.73965010  0.25000000  0.71583092
   0.76034990  0.75000000  0.21583092
   0.26034990  0.75000000  0.28416908
   0.23965010  0.25000000  0.78416908
   0.60732310  0.25000000  0.47392759
   0.89267690  0.75000000  0.97392759
   0.39267690  0.75000000  0.52607241
   0.10732310  0.25000000  0.02607241
   0.13478849  0.25000000  0.51809551
   0.36521151  0.75000000  0.01809551
   0.86521151  0.75000000  0.48190449
   0.63478849  0.25000000  0.98190449
   0.98927803  0.25000000  0.28113442
   0.51072197  0.75000000  0.78113442
   0.01072197  0.75000000  0.71886558
   0.48927803  0.25000000  0.21886558
   0.92887080  0.25000000  0.62041206
   0.57112920  0.75000000  0.12041206
   0.07112920  0.75000000  0.37958794
   0.42887080  0.25000000  0.87958794
   0.39451254  0.25000000  0.40052557
   0.10548746  0.75000000  0.90052557
   0.60548746  0.75000000  0.59947443
   0.89451254  0.25000000  0.09947443
   0.77468713  0.25000000  0.35630487
   0.72531287  0.75000000  0.85630487
   0.22531287  0.75000000  0.64369513
   0.27468713  0.25000000  0.14369513
Al4C3 Pnma-III - H(P) scan @ 20 GPa (ISI
           1
     9.010176    0.000000    0.000000
     0.000000    3.038408    0.000000
     0.000000    0.000000    9.823852
   Al   C 
    16    12
Direct configuration=    12
   0.73969113  0.25000000  0.71589770
   0.76030887  0.75000000  0.21589770
   0.26030887  0.75000000  0.28410230
   0.23969113  0.25000000  0.78410230
   0.60729229  0.25000000  0.47399521
   0.89270771  0.75000000  0.97399521
   0.39270771  0.75000000  0.52600479
   0.10729229  0.25000000  0.02600479
   0.13478770  0.25000000  0.51805060
   0.36521230  0.75000000  0.01805060
   0.86521230  0.75000000  0.48194940
   0.63478770  0.25000000  0.98194940
   0.98926791  0.25000000  0.28114386
   0.51073209  0.75000000  0.78114386
   0.01073209  0.75000000  0.71885614
   0.48926791  0.25000000  0.21885614
   0.92889720  0.25000000  0.62041111
   0.57110280  0.75000000  0.12041111
   0.07110280  0.75000000  0.37958889
   0.42889720  0.25000000  0.87958889
   0.39448875  0.25000000  0.40050881
   0.10551125  0.75000000  0.90050881
   0.60551125  0.75000000  0.59949119
   0.89448875  0.25000000  0.09949119
   0.77469657  0.25000000  0.35633233
   0.72530343  0.75000000  0.85633233
   0.22530343  0.75000000  0.64366767
   0.27469657  0.25000000  0.14366767
Al4C3 Pnma-III - H(P) scan @ 20 GPa (ISI
           1
     9.009918    0.000000    0.000000
     0.000000    3.038322    0.000000
     0.000000    0.000000    9.823571
   Al   C 
    16    12
Direct configuration=    13
   0.73981816  0.25000000  0.71617643
   0.76018184  0.75000000  0.21617643
   0.26018184  0.75000000  0.28382357
   0.23981816  0.25000000  0.78382357
   0.60733527  0.25000000  0.47412110
   0.89266473  0.75000000  0.97412110
   0.39266473  0.75000000  0.52587890
   0.10733527  0.25000000  0.02587890
   0.13494402  0.25000000  0.51793892
   0.36505598  0.75000000  0.01793892
   0.86505598  0.75000000  0.48206108
   0.63494402  0.25000000  0.98206108
   0.98918106  0.25000000  0.28112913
   0.51081894  0.75000000  0.78112913
   0.01081894  0.75000000  0.71887087
   0.48918106  0.25000000  0.21887087
   0.92891690  0.25000000  0.62048573
   0.57108310  0.75000000  0.12048573
   0.07108310  0.75000000  0.37951427
   0.42891690  0.25000000  0.87951427
   0.39443138  0.25000000  0.40049881
   0.10556862  0.75000000  0.90049881
   0.60556862  0.75000000  0.59950119
   0.89443138  0.25000000  0.09950119
   0.77459417  0.25000000  0.35645567
   0.72540583  0.75000000  0.85645567
   0.22540583  0.75000000  0.64354433
   0.27459417  0.25000000  0.14354433
Al4C3 Pnma-III - H(P) scan @ 20 GPa (ISI
           1
     9.009847    0.000000    0.000000
     0.000000    3.038298    0.000000
     0.000000    0.000000    9.823493
   Al   C 
    16    12
Direct configuration=    14
   0.73985313  0.25000000  0.71625318
   0.76014687  0.75000000  0.21625318
   0.26014687  0.75000000  0.28374682
   0.23985313  0.25000000  0.78374682
   0.60734710  0.25000000  0.47415576
   0.89265290  0.75000000  0.97415576
   0.39265290  0.75000000  0.52584424
   0.10734710  0.25000000  0.02584424
   0.13498706  0.25000000  0.51790817
   0.36501294  0.75000000  0.01790817
   0.86501294  0.75000000  0.48209183
   0.63498706  0.25000000  0.98209183
   0.98915714  0.25000000  0.28112507
   0.51084286  0.75000000  0.78112507
   0.01084286  0.75000000  0.71887493
   0.48915714  0.25000000  0.21887493
   0.92892232  0.25000000  0.62050628
   0.57107768  0.75000000  0.12050628
   0.07107768  0.75000000  0.37949372
   0.42892232  0.25000000  0.87949372
   0.39441558  0.25000000  0.40049606
   0.10558442  0.75000000  0.90049606
   0.60558442  0.75000000  0.59950394
   0.89441558  0.25000000  0.09950394
   0.77456597  0.25000000  0.35648963
   0.72543403  0.75000000  0.85648963
   0.22543403  0.75000000  0.64351037
   0.27456597  0.25000000  0.14351037
