       N       E                     dE             d eps       ncg     rms          rms(c)
DAV:   1    -0.221339104364E+03   -0.22134E+03   -0.45701E+02  9504   0.457E+01    0.133E+01
DAV:   2    -0.213241737785E+03    0.80974E+01   -0.70854E+01  9918   0.175E+01    0.537E+00
DAV:   3    -0.213749987204E+03   -0.50825E+00   -0.21944E+00  9768   0.374E+00    0.351E+00
DAV:   4    -0.213766697433E+03   -0.16710E-01   -0.17393E-01  9906   0.142E+00    0.135E+00
DAV:   5    -0.213771960863E+03   -0.52634E-02   -0.65394E-03  9840   0.347E-01    0.548E-01
DAV:   6    -0.213772375434E+03   -0.41457E-03   -0.27691E-03  9618   0.204E-01    0.118E-01
DAV:   7    -0.213772464644E+03   -0.89210E-04   -0.16091E-04  9762   0.545E-02    0.872E-02
DAV:   8    -0.213772458545E+03    0.60990E-05   -0.34845E-05  8184   0.288E-02
   1 F= -.90389029E+02 E0= -.90389029E+02  d E =-.903890E+02
       N       E                     dE             d eps       ncg     rms          rms(c)
DAV:   1    -0.210570098436E+03    0.32024E+01   -0.33875E+00  8568   0.794E+00    0.135E+00
DAV:   2    -0.210555003538E+03    0.15095E-01   -0.11092E-01  9948   0.126E+00    0.816E-01
DAV:   3    -0.210554921153E+03    0.82385E-04   -0.18419E-02  9672   0.442E-01    0.329E-01
DAV:   4    -0.210555408659E+03   -0.48751E-03   -0.88955E-04  9906   0.119E-01    0.159E-01
DAV:   5    -0.210555512473E+03   -0.10381E-03   -0.22330E-04  9588   0.577E-02    0.110E-01
DAV:   6    -0.210555635422E+03   -0.12295E-03   -0.48650E-05  9378   0.363E-02    0.279E-02
DAV:   7    -0.210555635172E+03    0.25033E-06   -0.11330E-05  5094   0.139E-02
   2 F= -.90281984E+02 E0= -.90281984E+02  d E =0.107045E+00
       N       E                     dE             d eps       ncg     rms          rms(c)
DAV:   1    -0.212861584038E+03   -0.23059E+01   -0.16291E+00  8556   0.545E+00    0.948E-01
DAV:   2    -0.212854022781E+03    0.75613E-02   -0.54450E-02  9918   0.883E-01    0.578E-01
DAV:   3    -0.212853325988E+03    0.69679E-03   -0.91044E-03  9684   0.309E-01    0.238E-01
DAV:   4    -0.212853250733E+03    0.75255E-04   -0.41656E-04  9906   0.828E-02    0.112E-01
DAV:   5    -0.212853195557E+03    0.55176E-04   -0.11892E-04  9384   0.417E-02    0.766E-02
DAV:   6    -0.212853120713E+03    0.74844E-04   -0.24249E-05  6462   0.256E-02    0.179E-02
DAV:   7    -0.212853117185E+03    0.35282E-05   -0.67634E-06  5046   0.108E-02
   3 F= -.90413024E+02 E0= -.90413024E+02  d E =-.239958E-01
       N       E                     dE             d eps       ncg     rms          rms(c)
DAV:   1    -0.212859226641E+03   -0.61059E-02   -0.14486E-05  4908   0.169E-02    0.539E-03
DAV:   2    -0.212859225954E+03    0.68717E-06   -0.98534E-07  4644   0.470E-03
   4 F= -.90413026E+02 E0= -.90413026E+02  d E =-.239978E-01
       N       E                     dE             d eps       ncg     rms          rms(c)
DAV:   1    -0.212949765158E+03   -0.90539E-01   -0.18786E-01  8358   0.180E+00    0.981E-02
DAV:   2    -0.212949752157E+03    0.13001E-04   -0.34196E-03 10110   0.232E-01    0.673E-02
DAV:   3    -0.212949683786E+03    0.68371E-04   -0.26279E-04 10266   0.733E-02    0.371E-02
DAV:   4    -0.212949690560E+03   -0.67747E-05   -0.12459E-04  9762   0.413E-02    0.155E-02
DAV:   5    -0.212949691747E+03   -0.11861E-05   -0.73075E-06  5064   0.124E-02
   5 F= -.90415239E+02 E0= -.90415239E+02  d E =-.221250E-02
       N       E                     dE             d eps       ncg     rms          rms(c)
DAV:   1    -0.212950885317E+03   -0.11948E-02   -0.35533E-05  7776   0.245E-02    0.295E-03
DAV:   2    -0.212950885948E+03   -0.63079E-06   -0.73874E-07  4608   0.439E-03
   6 F= -.90415245E+02 E0= -.90415245E+02  d E =-.221835E-02
       N       E                     dE             d eps       ncg     rms          rms(c)
DAV:   1    -0.212975039289E+03   -0.24154E-01   -0.80817E-02  8364   0.117E+00    0.616E-02
DAV:   2    -0.212975041605E+03   -0.23160E-05   -0.12506E-03  9972   0.141E-01    0.400E-02
DAV:   3    -0.212975001126E+03    0.40480E-04   -0.67315E-05  9822   0.349E-02    0.223E-02
DAV:   4    -0.212974991726E+03    0.93993E-05   -0.58138E-05  9174   0.289E-02
   7 F= -.90415652E+02 E0= -.90415652E+02  d E =-.407278E-03
       N       E                     dE             d eps       ncg     rms          rms(c)
DAV:   1    -0.212969774074E+03    0.52271E-02   -0.38860E-03  8364   0.256E-01    0.134E-02
DAV:   2    -0.212969775951E+03   -0.18772E-05   -0.58404E-05  9816   0.304E-02
   8 F= -.90415683E+02 E0= -.90415683E+02  d E =-.438262E-03
       N       E                     dE             d eps       ncg     rms          rms(c)
DAV:   1    -0.212956525816E+03    0.13248E-01   -0.34195E-02  8334   0.762E-01    0.373E-02
DAV:   2    -0.212956519403E+03    0.64134E-05   -0.61382E-04  9996   0.973E-02    0.254E-02
DAV:   3    -0.212956511926E+03    0.74766E-05   -0.31381E-05  7992   0.249E-02
   9 F= -.90415888E+02 E0= -.90415888E+02  d E =-.204612E-03
       N       E                     dE             d eps       ncg     rms          rms(c)
DAV:   1    -0.212958800672E+03   -0.22813E-02   -0.10481E-03  8400   0.134E-01    0.762E-03
DAV:   2    -0.212958805210E+03   -0.45385E-05   -0.29001E-05  6876   0.201E-02
  10 F= -.90415907E+02 E0= -.90415907E+02  d E =-.223596E-03
       N       E                     dE             d eps       ncg     rms          rms(c)
DAV:   1    -0.212973076036E+03   -0.14275E-01   -0.17335E-02  8328   0.526E-01    0.277E-02
DAV:   2    -0.212973069769E+03    0.62662E-05   -0.31050E-04 10062   0.702E-02    0.188E-02
DAV:   3    -0.212973063338E+03    0.64316E-05   -0.17586E-05  6492   0.196E-02
  11 F= -.90415992E+02 E0= -.90415992E+02  d E =-.850712E-04
       N       E                     dE             d eps       ncg     rms          rms(c)
DAV:   1    -0.212970848958E+03    0.22208E-02   -0.47137E-04  8388   0.871E-02    0.494E-03
DAV:   2    -0.212970851062E+03   -0.21040E-05   -0.13772E-05  5274   0.146E-02
  12 F= -.90415998E+02 E0= -.90415998E+02  d E =-.916822E-04
       N       E                     dE             d eps       ncg     rms          rms(c)
DAV:   1    -0.212966697558E+03    0.41514E-02   -0.24208E-03  8412   0.194E-01    0.119E-02
DAV:   2    -0.212966705836E+03   -0.82780E-05   -0.57879E-05  9816   0.301E-02
  13 F= -.90416030E+02 E0= -.90416030E+02  d E =-.319919E-04
