Al4C3 Pnma-III - r2SCAN H(P) scan @ 90 G
           1
     8.422115    0.000000    0.000000
     0.000000    2.840103    0.000000
     0.000000    0.000000    9.182685
   Al   C 
    16    12
Direct configuration=     1
   0.73574378  0.25000000  0.71181314
   0.76425622  0.75000000  0.21181314
   0.26425622  0.75000000  0.28818686
   0.23574378  0.25000000  0.78818686
   0.60535455  0.25000000  0.46818543
   0.89464545  0.75000000  0.96818543
   0.39464545  0.75000000  0.53181457
   0.10535455  0.25000000  0.03181457
   0.13956016  0.25000000  0.51776798
   0.36043984  0.75000000  0.01776798
   0.86043984  0.75000000  0.48223202
   0.63956016  0.25000000  0.98223202
   0.99632848  0.25000000  0.27789917
   0.50367152  0.75000000  0.77789917
   0.00367152  0.75000000  0.72210083
   0.49632848  0.25000000  0.22210083
   0.92880816  0.25000000  0.61729505
   0.57119184  0.75000000  0.11729505
   0.07119184  0.75000000  0.38270495
   0.42880816  0.25000000  0.88270495
   0.38832277  0.25000000  0.40322103
   0.11167723  0.75000000  0.90322103
   0.61167723  0.75000000  0.59677897
   0.88832277  0.25000000  0.09677897
   0.77423502  0.25000000  0.35187762
   0.72576498  0.75000000  0.85187762
   0.22576498  0.75000000  0.64812238
   0.27423502  0.25000000  0.14812238
Al4C3 Pnma-III - r2SCAN H(P) scan @ 90 G
           1
     8.350755    0.000000    0.000000
     0.000000    2.816039    0.000000
     0.000000    0.000000    9.104880
   Al   C 
    16    12
Direct configuration=     2
   0.73583183  0.25000000  0.71197987
   0.76416817  0.75000000  0.21197987
   0.26416817  0.75000000  0.28802013
   0.23583183  0.25000000  0.78802013
   0.60560481  0.25000000  0.46898528
   0.89439519  0.75000000  0.96898528
   0.39439519  0.75000000  0.53101472
   0.10560481  0.25000000  0.03101472
   0.13923744  0.25000000  0.51802652
   0.36076256  0.75000000  0.01802652
   0.86076256  0.75000000  0.48197348
   0.63923744  0.25000000  0.98197348
   0.99592981  0.25000000  0.27884190
   0.50407019  0.75000000  0.77884190
   0.00407019  0.75000000  0.72115810
   0.49592981  0.25000000  0.22115810
   0.92889389  0.25000000  0.61817953
   0.57110611  0.75000000  0.11817953
   0.07110611  0.75000000  0.38182047
   0.42889389  0.25000000  0.88182047
   0.38929765  0.25000000  0.40390933
   0.11070235  0.75000000  0.90390933
   0.61070235  0.75000000  0.59609067
   0.88929765  0.25000000  0.09609067
   0.77370246  0.25000000  0.35211581
   0.72629754  0.75000000  0.85211581
   0.22629754  0.75000000  0.64788419
   0.27370246  0.25000000  0.14788419
Al4C3 Pnma-III - r2SCAN H(P) scan @ 90 G
           1
     8.400596    0.000000    0.000000
     0.000000    2.832846    0.000000
     0.000000    0.000000    9.159223
   Al   C 
    16    12
Direct configuration=     3
   0.73576981  0.25000000  0.71186242
   0.76423019  0.75000000  0.21186242
   0.26423019  0.75000000  0.28813758
   0.23576981  0.25000000  0.78813758
   0.60542852  0.25000000  0.46842185
   0.89457148  0.75000000  0.96842185
   0.39457148  0.75000000  0.53157815
   0.10542852  0.25000000  0.03157815
   0.13946477  0.25000000  0.51784440
   0.36053523  0.75000000  0.01784440
   0.86053523  0.75000000  0.48215560
   0.63946477  0.25000000  0.98215560
   0.99621064  0.25000000  0.27817783
   0.50378936  0.75000000  0.77817783
   0.00378936  0.75000000  0.72182217
   0.49621064  0.25000000  0.22182217
   0.92883350  0.25000000  0.61755648
   0.57116650  0.75000000  0.11755648
   0.07116650  0.75000000  0.38244352
   0.42883350  0.25000000  0.88244352
   0.38861093  0.25000000  0.40342448
   0.11138907  0.75000000  0.90342448
   0.61138907  0.75000000  0.59657552
   0.88861093  0.25000000  0.09657552
   0.77407761  0.25000000  0.35194803
   0.72592239  0.75000000  0.85194803
   0.22592239  0.75000000  0.64805197
   0.27407761  0.25000000  0.14805197
Al4C3 Pnma-III - r2SCAN H(P) scan @ 90 G
           1
     8.400736    0.000000    0.000000
     0.000000    2.832893    0.000000
     0.000000    0.000000    9.159375
   Al   C 
    16    12
Direct configuration=     4
   0.73576964  0.25000000  0.71186209
   0.76423036  0.75000000  0.21186209
   0.26423036  0.75000000  0.28813791
   0.23576964  0.25000000  0.78813791
   0.60542803  0.25000000  0.46842028
   0.89457197  0.75000000  0.96842028
   0.39457197  0.75000000  0.53157972
   0.10542803  0.25000000  0.03157972
   0.13946540  0.25000000  0.51784389
   0.36053460  0.75000000  0.01784389
   0.86053460  0.75000000  0.48215611
   0.63946540  0.25000000  0.98215611
   0.99621142  0.25000000  0.27817598
   0.50378858  0.75000000  0.77817598
   0.00378858  0.75000000  0.72182402
   0.49621142  0.25000000  0.22182402
   0.92883333  0.25000000  0.61755475
   0.57116667  0.75000000  0.11755475
   0.07116667  0.75000000  0.38244525
   0.42883333  0.25000000  0.88244525
   0.38860901  0.25000000  0.40342313
   0.11139099  0.75000000  0.90342313
   0.61139099  0.75000000  0.59657687
   0.88860901  0.25000000  0.09657687
   0.77407865  0.25000000  0.35194756
   0.72592135  0.75000000  0.85194756
   0.22592135  0.75000000  0.64805244
   0.27407865  0.25000000  0.14805244
Al4C3 Pnma-III - r2SCAN H(P) scan @ 90 G
           1
     8.402754    0.000000    0.000000
     0.000000    2.833574    0.000000
     0.000000    0.000000    9.161575
   Al   C 
    16    12
Direct configuration=     5
   0.73563912  0.25000000  0.71198012
   0.76436088  0.75000000  0.21198012
   0.26436088  0.75000000  0.28801988
   0.23563912  0.25000000  0.78801988
   0.60547143  0.25000000  0.46876330
   0.89452857  0.75000000  0.96876330
   0.39452857  0.75000000  0.53123670
   0.10547143  0.25000000  0.03123670
   0.13944835  0.25000000  0.51792969
   0.36055165  0.75000000  0.01792969
   0.86055165  0.75000000  0.48207031
   0.63944835  0.25000000  0.98207031
   0.99580423  0.25000000  0.27825938
   0.50419577  0.75000000  0.77825938
   0.00419577  0.75000000  0.72174062
   0.49580423  0.25000000  0.22174062
   0.92885760  0.25000000  0.61777131
   0.57114240  0.75000000  0.11777131
   0.07114240  0.75000000  0.38222869
   0.42885760  0.25000000  0.88222869
   0.38900718  0.25000000  0.40335804
   0.11099282  0.75000000  0.90335804
   0.61099282  0.75000000  0.59664196
   0.88900718  0.25000000  0.09664196
   0.77387143  0.25000000  0.35199382
   0.72612857  0.75000000  0.85199382
   0.22612857  0.75000000  0.64800618
   0.27387143  0.25000000  0.14800618
Al4C3 Pnma-III - r2SCAN H(P) scan @ 90 G
           1
     8.402781    0.000000    0.000000
     0.000000    2.833583    0.000000
     0.000000    0.000000    9.161605
   Al   C 
    16    12
Direct configuration=     6
   0.73563736  0.25000000  0.71198171
   0.76436264  0.75000000  0.21198171
   0.26436264  0.75000000  0.28801829
   0.23563736  0.25000000  0.78801829
   0.60547202  0.25000000  0.46876791
   0.89452798  0.75000000  0.96876791
   0.39452798  0.75000000  0.53123209
   0.10547202  0.25000000  0.03123209
   0.13944812  0.25000000  0.51793085
   0.36055188  0.75000000  0.01793085
   0.86055188  0.75000000  0.48206915
   0.63944812  0.25000000  0.98206915
   0.99579875  0.25000000  0.27826050
   0.50420125  0.75000000  0.77826050
   0.00420125  0.75000000  0.72173950
   0.49579875  0.25000000  0.22173950
   0.92885793  0.25000000  0.61777423
   0.57114207  0.75000000  0.11777423
   0.07114207  0.75000000  0.38222577
   0.42885793  0.25000000  0.88222577
   0.38901254  0.25000000  0.40335717
   0.11098746  0.75000000  0.90335717
   0.61098746  0.75000000  0.59664283
   0.88901254  0.25000000  0.09664283
   0.77386864  0.25000000  0.35199445
   0.72613136  0.75000000  0.85199445
   0.22613136  0.75000000  0.64800555
   0.27386864  0.25000000  0.14800555
Al4C3 Pnma-III - r2SCAN H(P) scan @ 90 G
           1
     8.403322    0.000000    0.000000
     0.000000    2.833765    0.000000
     0.000000    0.000000    9.162195
   Al   C 
    16    12
Direct configuration=     7
   0.73580100  0.25000000  0.71203761
   0.76419900  0.75000000  0.21203761
   0.26419900  0.75000000  0.28796239
   0.23580100  0.25000000  0.78796239
   0.60557222  0.25000000  0.46885986
   0.89442778  0.75000000  0.96885986
   0.39442778  0.75000000  0.53114014
   0.10557222  0.25000000  0.03114014
   0.13934709  0.25000000  0.51782674
   0.36065291  0.75000000  0.01782674
   0.86065291  0.75000000  0.48217326
   0.63934709  0.25000000  0.98217326
   0.99572181  0.25000000  0.27833882
   0.50427819  0.75000000  0.77833882
   0.00427819  0.75000000  0.72166118
   0.49572181  0.25000000  0.22166118
   0.92877553  0.25000000  0.61781482
   0.57122447  0.75000000  0.11781482
   0.07122447  0.75000000  0.38218518
   0.42877553  0.25000000  0.88218518
   0.38911966  0.25000000  0.40313106
   0.11088034  0.75000000  0.90313106
   0.61088034  0.75000000  0.59686894
   0.88911966  0.25000000  0.09686894
   0.77374402  0.25000000  0.35211763
   0.72625598  0.75000000  0.85211763
   0.22625598  0.75000000  0.64788237
   0.27374402  0.25000000  0.14788237
Al4C3 Pnma-III - r2SCAN H(P) scan @ 90 G
           1
     8.403202    0.000000    0.000000
     0.000000    2.833725    0.000000
     0.000000    0.000000    9.162065
   Al   C 
    16    12
Direct configuration=     8
   0.73576477  0.25000000  0.71202524
   0.76423523  0.75000000  0.21202524
   0.26423523  0.75000000  0.28797476
   0.23576477  0.25000000  0.78797476
   0.60555004  0.25000000  0.46883951
   0.89444996  0.75000000  0.96883951
   0.39444996  0.75000000  0.53116049
   0.10555004  0.25000000  0.03116049
   0.13936946  0.25000000  0.51784978
   0.36063054  0.75000000  0.01784978
   0.86063054  0.75000000  0.48215022
   0.63936946  0.25000000  0.98215022
   0.99573884  0.25000000  0.27832148
   0.50426116  0.75000000  0.77832148
   0.00426116  0.75000000  0.72167852
   0.49573884  0.25000000  0.22167852
   0.92879377  0.25000000  0.61780583
   0.57120623  0.75000000  0.11780583
   0.07120623  0.75000000  0.38219417
   0.42879377  0.25000000  0.88219417
   0.38909595  0.25000000  0.40318111
   0.11090405  0.75000000  0.90318111
   0.61090405  0.75000000  0.59681889
   0.88909595  0.25000000  0.09681889
   0.77377161  0.25000000  0.35209036
   0.72622839  0.75000000  0.85209036
   0.22622839  0.75000000  0.64790964
   0.27377161  0.25000000  0.14790964
Al4C3 Pnma-III - r2SCAN H(P) scan @ 90 G
           1
     8.402895    0.000000    0.000000
     0.000000    2.833621    0.000000
     0.000000    0.000000    9.161729
   Al   C 
    16    12
Direct configuration=     9
   0.73585533  0.25000000  0.71216958
   0.76414467  0.75000000  0.21216958
   0.26414467  0.75000000  0.28783042
   0.23585533  0.25000000  0.78783042
   0.60548279  0.25000000  0.46899628
   0.89451721  0.75000000  0.96899628
   0.39451721  0.75000000  0.53100372
   0.10548279  0.25000000  0.03100372
   0.13932227  0.25000000  0.51777669
   0.36067773  0.75000000  0.01777669
   0.86067773  0.75000000  0.48222331
   0.63932227  0.25000000  0.98222331
   0.99569228  0.25000000  0.27837144
   0.50430772  0.75000000  0.77837144
   0.00430772  0.75000000  0.72162856
   0.49569228  0.25000000  0.22162856
   0.92882037  0.25000000  0.61774255
   0.57117963  0.75000000  0.11774255
   0.07117963  0.75000000  0.38225745
   0.42882037  0.25000000  0.88225745
   0.38912575  0.25000000  0.40302090
   0.11087425  0.75000000  0.90302090
   0.61087425  0.75000000  0.59697910
   0.88912575  0.25000000  0.09697910
   0.77382434  0.25000000  0.35216798
   0.72617566  0.75000000  0.85216798
   0.22617566  0.75000000  0.64783202
   0.27382434  0.25000000  0.14783202
Al4C3 Pnma-III - r2SCAN H(P) scan @ 90 G
           1
     8.402947    0.000000    0.000000
     0.000000    2.833639    0.000000
     0.000000    0.000000    9.161786
   Al   C 
    16    12
Direct configuration=    10
   0.73584004  0.25000000  0.71214520
   0.76415996  0.75000000  0.21214520
   0.26415996  0.75000000  0.28785480
   0.23584004  0.25000000  0.78785480
   0.60549414  0.25000000  0.46896981
   0.89450586  0.75000000  0.96896981
   0.39450586  0.75000000  0.53103019
   0.10549414  0.25000000  0.03103019
   0.13933024  0.25000000  0.51778903
   0.36066976  0.75000000  0.01778903
   0.86066976  0.75000000  0.48221097
   0.63933024  0.25000000  0.98221097
   0.99570015  0.25000000  0.27836301
   0.50429985  0.75000000  0.77836301
   0.00429985  0.75000000  0.72163699
   0.49570015  0.25000000  0.22163699
   0.92881588  0.25000000  0.61775324
   0.57118412  0.75000000  0.11775324
   0.07118412  0.75000000  0.38224676
   0.42881588  0.25000000  0.88224676
   0.38912072  0.25000000  0.40304795
   0.11087928  0.75000000  0.90304795
   0.61087928  0.75000000  0.59695205
   0.88912072  0.25000000  0.09695205
   0.77381544  0.25000000  0.35215487
   0.72618456  0.75000000  0.85215487
   0.22618456  0.75000000  0.64784513
   0.27381544  0.25000000  0.14784513
Al4C3 Pnma-III - r2SCAN H(P) scan @ 90 G
           1
     8.403271    0.000000    0.000000
     0.000000    2.833748    0.000000
     0.000000    0.000000    9.162139
   Al   C 
    16    12
Direct configuration=    11
   0.73589488  0.25000000  0.71228820
   0.76410512  0.75000000  0.21228820
   0.26410512  0.75000000  0.28771180
   0.23589488  0.25000000  0.78771180
   0.60552593  0.25000000  0.46904209
   0.89447407  0.75000000  0.96904209
   0.39447407  0.75000000  0.53095791
   0.10552593  0.25000000  0.03095791
   0.13937385  0.25000000  0.51776824
   0.36062615  0.75000000  0.01776824
   0.86062615  0.75000000  0.48223176
   0.63937385  0.25000000  0.98223176
   0.99570403  0.25000000  0.27839148
   0.50429597  0.75000000  0.77839148
   0.00429597  0.75000000  0.72160852
   0.49570403  0.25000000  0.22160852
   0.92883995  0.25000000  0.61773111
   0.57116005  0.75000000  0.11773111
   0.07116005  0.75000000  0.38226889
   0.42883995  0.25000000  0.88226889
   0.38910927  0.25000000  0.40301537
   0.11089073  0.75000000  0.90301537
   0.61089073  0.75000000  0.59698463
   0.88910927  0.25000000  0.09698463
   0.77380190  0.25000000  0.35228503
   0.72619810  0.75000000  0.85228503
   0.22619810  0.75000000  0.64771497
   0.27380190  0.25000000  0.14771497
Al4C3 Pnma-III - r2SCAN H(P) scan @ 90 G
           1
     8.403220    0.000000    0.000000
     0.000000    2.833731    0.000000
     0.000000    0.000000    9.162084
   Al   C 
    16    12
Direct configuration=    12
   0.73588630  0.25000000  0.71226581
   0.76411370  0.75000000  0.21226581
   0.26411370  0.75000000  0.28773419
   0.23588630  0.25000000  0.78773419
   0.60552095  0.25000000  0.46903078
   0.89447905  0.75000000  0.96903078
   0.39447905  0.75000000  0.53096922
   0.10552095  0.25000000  0.03096922
   0.13936703  0.25000000  0.51777149
   0.36063297  0.75000000  0.01777149
   0.86063297  0.75000000  0.48222851
   0.63936703  0.25000000  0.98222851
   0.99570343  0.25000000  0.27838702
   0.50429657  0.75000000  0.77838702
   0.00429657  0.75000000  0.72161298
   0.49570343  0.25000000  0.22161298
   0.92883618  0.25000000  0.61773458
   0.57116382  0.75000000  0.11773458
   0.07116382  0.75000000  0.38226542
   0.42883618  0.25000000  0.88226542
   0.38911106  0.25000000  0.40302047
   0.11088894  0.75000000  0.90302047
   0.61088894  0.75000000  0.59697953
   0.88911106  0.25000000  0.09697953
   0.77380402  0.25000000  0.35226465
   0.72619598  0.75000000  0.85226465
   0.22619598  0.75000000  0.64773535
   0.27380402  0.25000000  0.14773535
Al4C3 Pnma-III - r2SCAN H(P) scan @ 90 G
           1
     8.403124    0.000000    0.000000
     0.000000    2.833699    0.000000
     0.000000    0.000000    9.161980
   Al   C 
    16    12
Direct configuration=    13
   0.73590222  0.25000000  0.71230361
   0.76409778  0.75000000  0.21230361
   0.26409778  0.75000000  0.28769639
   0.23590222  0.25000000  0.78769639
   0.60550679  0.25000000  0.46905190
   0.89449321  0.75000000  0.96905190
   0.39449321  0.75000000  0.53094810
   0.10550679  0.25000000  0.03094810
   0.13941160  0.25000000  0.51774950
   0.36058840  0.75000000  0.01774950
   0.86058840  0.75000000  0.48225050
   0.63941160  0.25000000  0.98225050
   0.99570213  0.25000000  0.27836747
   0.50429787  0.75000000  0.77836747
   0.00429787  0.75000000  0.72163253
   0.49570213  0.25000000  0.22163253
   0.92881819  0.25000000  0.61777583
   0.57118181  0.75000000  0.11777583
   0.07118181  0.75000000  0.38222417
   0.42881819  0.25000000  0.88222417
   0.38909866  0.25000000  0.40301486
   0.11090134  0.75000000  0.90301486
   0.61090134  0.75000000  0.59698514
   0.88909866  0.25000000  0.09698514
   0.77380441  0.25000000  0.35227918
   0.72619559  0.75000000  0.85227918
   0.22619559  0.75000000  0.64772082
   0.27380441  0.25000000  0.14772082
