       N       E                     dE             d eps       ncg     rms          rms(c)
DAV:   1    -0.121441569918E+03   -0.12144E+03   -0.24389E+00  5184   0.982E+00    0.539E+00
DAV:   2    -0.113574834957E+03    0.78667E+01   -0.59830E-01  5640   0.538E+00    0.397E+00
DAV:   3    -0.113763585132E+03   -0.18875E+00   -0.10206E-01  6384   0.188E+00    0.316E+00
DAV:   4    -0.113782275736E+03   -0.18691E-01   -0.47887E-02  6504   0.100E+00    0.102E+00
DAV:   5    -0.113783770591E+03   -0.14949E-02   -0.23221E-03  6468   0.278E-01    0.273E-01
DAV:   6    -0.113783813354E+03   -0.42762E-04   -0.94665E-04  6492   0.135E-01    0.132E-01
DAV:   7    -0.113783804528E+03    0.88253E-05   -0.60074E-05  6420   0.485E-02
   1 F= -.97149642E+02 E0= -.97149243E+02  d E =-.971496E+02
       N       E                     dE             d eps       ncg     rms          rms(c)
DAV:   1    -0.113245325010E+03    0.53849E+00   -0.15639E+00  6096   0.683E+00    0.122E+00
DAV:   2    -0.113225919828E+03    0.19405E-01   -0.91666E-02  6420   0.135E+00    0.676E-01
DAV:   3    -0.113225953796E+03   -0.33968E-04   -0.10642E-02  6480   0.440E-01    0.292E-01
DAV:   4    -0.113226069731E+03   -0.11593E-03   -0.40265E-04  6444   0.115E-01    0.128E-01
DAV:   5    -0.113226050026E+03    0.19704E-04   -0.95409E-05  6348   0.562E-02    0.679E-02
DAV:   6    -0.113226024724E+03    0.25302E-04   -0.33507E-05  5868   0.356E-02    0.267E-02
DAV:   7    -0.113226032753E+03   -0.80290E-05   -0.26152E-06  3324   0.830E-03
   2 F= -.97133241E+02 E0= -.97132811E+02  d E =0.164009E-01
       N       E                     dE             d eps       ncg     rms          rms(c)
DAV:   1    -0.113574846959E+03   -0.34882E+00   -0.48700E-01  6120   0.376E+00    0.693E-01
DAV:   2    -0.113569557274E+03    0.52897E-02   -0.30204E-02  6396   0.768E-01    0.374E-01
DAV:   3    -0.113569842181E+03   -0.28491E-03   -0.31867E-03  6504   0.244E-01    0.163E-01
DAV:   4    -0.113569969728E+03   -0.12755E-03   -0.14827E-04  6396   0.682E-02    0.725E-02
DAV:   5    -0.113569997569E+03   -0.27841E-04   -0.25874E-05  5316   0.312E-02    0.370E-02
DAV:   6    -0.113570012049E+03   -0.14479E-04   -0.10271E-05  3456   0.218E-02    0.135E-02
DAV:   7    -0.113570009173E+03    0.28759E-05   -0.97562E-07  3096   0.575E-03
   3 F= -.97173773E+02 E0= -.97173355E+02  d E =-.241313E-01
       N       E                     dE             d eps       ncg     rms          rms(c)
DAV:   1    -0.113566881031E+03    0.31310E-02   -0.48883E-05  5640   0.384E-02    0.820E-03
DAV:   2    -0.113566877572E+03    0.34589E-05   -0.28595E-06  2784   0.775E-03
   4 F= -.97173770E+02 E0= -.97173352E+02  d E =-.241282E-01
       N       E                     dE             d eps       ncg     rms          rms(c)
DAV:   1    -0.113568451001E+03   -0.15700E-02   -0.10637E-02  5208   0.533E-01    0.199E-02
DAV:   2    -0.113568448644E+03    0.23570E-05   -0.20568E-04  6852   0.714E-02    0.154E-02
DAV:   3    -0.113568445038E+03    0.36060E-05   -0.93134E-06  4104   0.175E-02
   5 F= -.97174123E+02 E0= -.97173699E+02  d E =-.352657E-03
       N       E                     dE             d eps       ncg     rms          rms(c)
DAV:   1    -0.113570324043E+03   -0.18754E-02   -0.20658E-02  5208   0.743E-01    0.294E-02
DAV:   2    -0.113570321854E+03    0.21890E-05   -0.38034E-04  6852   0.976E-02    0.233E-02
DAV:   3    -0.113570316369E+03    0.54848E-05   -0.19758E-05  4872   0.248E-02
   6 F= -.97174292E+02 E0= -.97173861E+02  d E =-.521925E-03
       N       E                     dE             d eps       ncg     rms          rms(c)
DAV:   1    -0.113570256280E+03    0.65574E-04   -0.19453E-02  5208   0.733E-01    0.254E-02
DAV:   2    -0.113570269899E+03   -0.13619E-04   -0.25952E-04  6768   0.854E-02    0.164E-02
DAV:   3    -0.113570265126E+03    0.47730E-05   -0.85770E-06  4068   0.191E-02
   7 F= -.97174556E+02 E0= -.97174117E+02  d E =-.263913E-03
       N       E                     dE             d eps       ncg     rms          rms(c)
DAV:   1    -0.113569824861E+03    0.44504E-03   -0.64101E-02  5208   0.133E+00    0.439E-02
DAV:   2    -0.113569864183E+03   -0.39321E-04   -0.77296E-04  6744   0.148E-01    0.279E-02
DAV:   3    -0.113569850780E+03    0.13402E-04   -0.32521E-05  6024   0.339E-02    0.189E-02
DAV:   4    -0.113569844574E+03    0.62063E-05   -0.40480E-05  6456   0.363E-02
   8 F= -.97174714E+02 E0= -.97174264E+02  d E =-.421399E-03
       N       E                     dE             d eps       ncg     rms          rms(c)
DAV:   1    -0.113569941682E+03   -0.90901E-04   -0.17241E-03  5208   0.219E-01    0.729E-03
DAV:   2    -0.113569942242E+03   -0.55998E-06   -0.19692E-05  6072   0.249E-02
   9 F= -.97174716E+02 E0= -.97174267E+02  d E =-.423736E-03
       N       E                     dE             d eps       ncg     rms          rms(c)
DAV:   1    -0.113570563031E+03   -0.62135E-03   -0.80314E-03  5208   0.485E-01    0.128E-02
DAV:   2    -0.113570572727E+03   -0.96960E-05   -0.10982E-04  6900   0.519E-02    0.101E-02
DAV:   3    -0.113570571332E+03    0.13945E-05   -0.19815E-06  3624   0.890E-03
  10 F= -.97174775E+02 E0= -.97174321E+02  d E =-.588820E-04
       N       E                     dE             d eps       ncg     rms          rms(c)
DAV:   1    -0.113570456643E+03    0.11608E-03   -0.35205E-04  5220   0.102E-01    0.271E-03
DAV:   2    -0.113570457144E+03   -0.50159E-06   -0.68611E-06  3660   0.136E-02
  11 F= -.97174777E+02 E0= -.97174324E+02  d E =-.611942E-04
