Al4C3 Pbam - r2SCAN H(P) scan @ 20 GPa (
           1
     8.770822    0.000000    0.000000
     0.000000    5.064349    0.000000
     0.000000    0.000000    2.999975
   Al   C 
     8     6
Direct configuration=     1
   0.78555130  0.15843154  0.00000000
   0.21444870  0.84156846  0.00000000
   0.71444870  0.65843154  0.00000000
   0.28555130  0.34156846  0.00000000
   0.02832406  0.25348007  0.50000000
   0.97167597  0.74651993  0.50000000
   0.47167594  0.75348007  0.50000000
   0.52832403  0.24651993  0.50000000
   0.00000000  0.00000000  0.00000000
   0.50000000  0.50000000  0.00000000
   0.82584336  0.45008767  0.50000000
   0.17415664  0.54991233  0.50000000
   0.67415664  0.95008767  0.50000000
   0.32584336  0.04991233  0.50000000
Al4C3 Pbam - r2SCAN H(P) scan @ 20 GPa (
           1
     8.674620    0.000000    0.000000
     0.000000    5.008801    0.000000
     0.000000    0.000000    2.967070
   Al   C 
     8     6
Direct configuration=     2
   0.78569684  0.15850021 -0.00000000
   0.21430316  0.84149979  0.00000000
   0.71430316  0.65850021 -0.00000000
   0.28569684  0.34149979  0.00000000
   0.02787178  0.25339053  0.50000000
   0.97212825  0.74660947  0.50000000
   0.47212822  0.75339053  0.50000000
   0.52787175  0.24660947  0.50000000
   0.00000000 -0.00000000  0.00000000
   0.50000000  0.50000000  0.00000000
   0.82645282  0.45041892  0.50000000
   0.17354718  0.54958108  0.50000000
   0.67354718  0.95041892  0.50000000
   0.32645282  0.04958108  0.50000000
Al4C3 Pbam - r2SCAN H(P) scan @ 20 GPa (
           1
     8.728804    0.000000    0.000000
     0.000000    5.040087    0.000000
     0.000000    0.000000    2.985603
   Al   C 
     8     6
Direct configuration=     3
   0.78561396  0.15846110 -0.00000000
   0.21438604  0.84153890  0.00000000
   0.71438604  0.65846110 -0.00000000
   0.28561396  0.34153890  0.00000000
   0.02812934  0.25344152  0.50000000
   0.97187069  0.74655848  0.50000000
   0.47187066  0.75344152  0.50000000
   0.52812931  0.24655848  0.50000000
   0.00000000 -0.00000000  0.00000000
   0.50000000  0.50000000  0.00000000
   0.82610575  0.45023028  0.50000000
   0.17389425  0.54976972  0.50000000
   0.67389425  0.95023028  0.50000000
   0.32610575  0.04976972  0.50000000
Al4C3 Pbam - r2SCAN H(P) scan @ 20 GPa (
           1
     8.728248    0.000000    0.000000
     0.000000    5.039766    0.000000
     0.000000    0.000000    2.985413
   Al   C 
     8     6
Direct configuration=     4
   0.78561480  0.15846150 -0.00000000
   0.21438520  0.84153850  0.00000000
   0.71438520  0.65846150 -0.00000000
   0.28561480  0.34153850  0.00000000
   0.02812672  0.25344100  0.50000000
   0.97187331  0.74655900  0.50000000
   0.47187328  0.75344100  0.50000000
   0.52812669  0.24655900  0.50000000
   0.00000000 -0.00000000  0.00000000
   0.50000000  0.50000000  0.00000000
   0.82610928  0.45023220  0.50000000
   0.17389072  0.54976780  0.50000000
   0.67389072  0.95023220  0.50000000
   0.32610928  0.04976780  0.50000000
Al4C3 Pbam - r2SCAN H(P) scan @ 20 GPa (
           1
     8.728464    0.000000    0.000000
     0.000000    5.039891    0.000000
     0.000000    0.000000    2.985487
   Al   C 
     8     6
Direct configuration=     5
   0.78551188  0.15876084 -0.00000000
   0.21448812  0.84123916  0.00000000
   0.71448812  0.65876084 -0.00000000
   0.28551188  0.34123916  0.00000000
   0.02802645  0.25338604  0.50000000
   0.97197357  0.74661396  0.50000000
   0.47197354  0.75338604  0.50000000
   0.52802643  0.24661396  0.50000000
   0.00000000 -0.00000000  0.00000000
   0.50000000  0.50000000  0.00000000
   0.82622045  0.45025013  0.50000000
   0.17377955  0.54974987  0.50000000
   0.67377955  0.95025013  0.50000000
   0.32622045  0.04974987  0.50000000
Al4C3 Pbam - r2SCAN H(P) scan @ 20 GPa (
           1
     8.728766    0.000000    0.000000
     0.000000    5.040065    0.000000
     0.000000    0.000000    2.985590
   Al   C 
     8     6
Direct configuration=     6
   0.78536768  0.15918021 -0.00000000
   0.21463232  0.84081979  0.00000000
   0.71463232  0.65918021 -0.00000000
   0.28536768  0.34081979  0.00000000
   0.02788598  0.25330903  0.50000000
   0.97211404  0.74669097  0.50000000
   0.47211401  0.75330903  0.50000000
   0.52788596  0.24669097  0.50000000
   0.00000000 -0.00000000  0.00000000
   0.50000000  0.50000000  0.00000000
   0.82637619  0.45027525  0.50000000
   0.17362381  0.54972475  0.50000000
   0.67362381  0.95027525  0.50000000
   0.32637619  0.04972475  0.50000000
Al4C3 Pbam - r2SCAN H(P) scan @ 20 GPa (
           1
     8.728710    0.000000    0.000000
     0.000000    5.040033    0.000000
     0.000000    0.000000    2.985571
   Al   C 
     8     6
Direct configuration=     7
   0.78525730  0.15948083 -0.00000000
   0.21474270  0.84051917  0.00000000
   0.71474270  0.65948083 -0.00000000
   0.28525730  0.34051917  0.00000000
   0.02780205  0.25332860  0.50000000
   0.97219797  0.74667140  0.50000000
   0.47219794  0.75332860  0.50000000
   0.52780203  0.24667140  0.50000000
   0.00000000 -0.00000000  0.00000000
   0.50000000  0.50000000  0.00000000
   0.82633387  0.45055108  0.50000000
   0.17366613  0.54944892  0.50000000
   0.67366613  0.95055108  0.50000000
   0.32633387  0.04944892  0.50000000
Al4C3 Pbam - r2SCAN H(P) scan @ 20 GPa (
           1
     8.728608    0.000000    0.000000
     0.000000    5.039973    0.000000
     0.000000    0.000000    2.985536
   Al   C 
     8     6
Direct configuration=     8
   0.78505486  0.16003222 -0.00000000
   0.21494514  0.83996778  0.00000000
   0.71494514  0.66003222 -0.00000000
   0.28505486  0.33996778  0.00000000
   0.02764811  0.25336448  0.50000000
   0.97235192  0.74663552  0.50000000
   0.47235189  0.75336448  0.50000000
   0.52764808  0.24663552  0.50000000
   0.00000000 -0.00000000  0.00000000
   0.50000000  0.50000000  0.00000000
   0.82625624  0.45105699  0.50000000
   0.17374376  0.54894301  0.50000000
   0.67374376  0.95105699  0.50000000
   0.32625624  0.04894301  0.50000000
Al4C3 Pbam - r2SCAN H(P) scan @ 20 GPa (
           1
     8.728624    0.000000    0.000000
     0.000000    5.039983    0.000000
     0.000000    0.000000    2.985541
   Al   C 
     8     6
Direct configuration=     9
   0.78508825  0.15994128 -0.00000000
   0.21491175  0.84005872  0.00000000
   0.71491175  0.65994128 -0.00000000
   0.28508825  0.34005872  0.00000000
   0.02767350  0.25335857  0.50000000
   0.97232653  0.74664143  0.50000000
   0.47232650  0.75335857  0.50000000
   0.52767347  0.24664143  0.50000000
   0.00000000 -0.00000000  0.00000000
   0.50000000  0.50000000  0.00000000
   0.82626904  0.45097356  0.50000000
   0.17373096  0.54902644  0.50000000
   0.67373096  0.95097356  0.50000000
   0.32626904  0.04902644  0.50000000
Al4C3 Pbam - r2SCAN H(P) scan @ 20 GPa (
           1
     8.728726    0.000000    0.000000
     0.000000    5.040042    0.000000
     0.000000    0.000000    2.985576
   Al   C 
     8     6
Direct configuration=    10
   0.78516385  0.16012088  0.00000000
   0.21483615  0.83987912 -0.00000000
   0.71483615  0.66012088 -0.00000000
   0.28516385  0.33987912  0.00000000
   0.02756472  0.25324931  0.50000000
   0.97243531  0.74675069  0.50000000
   0.47243528  0.75324931  0.50000000
   0.52756469  0.24675069  0.50000000
   0.00000000 -0.00000000  0.00000000
   0.50000000  0.50000000  0.00000000
   0.82623888  0.45115457  0.50000000
   0.17376112  0.54884543  0.50000000
   0.67376112  0.95115457  0.50000000
   0.32623888  0.04884543  0.50000000
Al4C3 Pbam - r2SCAN H(P) scan @ 20 GPa (
           1
     8.728705    0.000000    0.000000
     0.000000    5.040030    0.000000
     0.000000    0.000000    2.985569
   Al   C 
     8     6
Direct configuration=    11
   0.78514840  0.16008419  0.00000000
   0.21485160  0.83991581 -0.00000000
   0.71485160  0.66008419 -0.00000000
   0.28514840  0.33991581  0.00000000
   0.02758694  0.25327163  0.50000000
   0.97241308  0.74672837  0.50000000
   0.47241305  0.75327163  0.50000000
   0.52758692  0.24672837  0.50000000
   0.00000000 -0.00000000  0.00000000
   0.50000000  0.50000000  0.00000000
   0.82624504  0.45111759  0.50000000
   0.17375496  0.54888241  0.50000000
   0.67375496  0.95111759  0.50000000
   0.32624504  0.04888241  0.50000000
