Al4C3 R-3m polymorph (findsym-output, fr
   1.00000000000000     
     3.1996840739661092    0.0000000000000000    0.0000000000000000
    -1.5998420369830546    2.7710076921747206    0.0000000000000000
     0.0000000000000000    0.0000000000000000   23.9208508885959041
   Al   C 
    12     9
Direct
 -0.0000000000000000 -0.0000000000000000  0.6296361819300981
  0.0000000000000000  0.0000000000000000  0.3703638180699019
  0.6666666870000029  0.3333333429999996  0.9629694949300952
  0.6666666870000029  0.3333333429999996  0.7036971320699027
  0.3333333429999996  0.6666666870000029  0.2963028379300948
  0.3333333429999996  0.6666666870000029  0.0370304860699068
 -0.0000000000000000  0.0000000000000000  0.2061994558529663
  0.0000000000000000  0.0000000000000000  0.7938005441470335
  0.6666666870000029  0.3333333429999996  0.5395327698529673
  0.6666666870000029  0.3333333429999996  0.1271338721470356
  0.3333333429999996  0.6666666870000029  0.8728661428529694
  0.3333333429999996  0.6666666870000029  0.4604672001470304
  0.0000000000000000 -0.0000000000000000  0.7167154305541205
  0.0000000000000000  0.0000000000000000  0.2832845694458796
  0.6666666870000029  0.3333333429999996  0.0500487625541227
  0.6666666870000029  0.3333333429999996  0.6166178824458767
  0.3333333429999996  0.6666666870000029  0.3833820875541208
  0.3333333429999996  0.6666666870000029  0.9499512564458753
  0.0000000000000000 -0.0000000000000000  0.5000000000000000
  0.6666666870000029  0.3333333429999996  0.8333333129999971
  0.3333333429999996  0.6666666870000029  0.1666666719999981
 
  0.00000000E+00  0.00000000E+00  0.00000000E+00
  0.00000000E+00  0.00000000E+00  0.00000000E+00
  0.00000000E+00  0.00000000E+00  0.00000000E+00
  0.00000000E+00  0.00000000E+00  0.00000000E+00
  0.00000000E+00  0.00000000E+00  0.00000000E+00
  0.00000000E+00  0.00000000E+00  0.00000000E+00
  0.00000000E+00  0.00000000E+00  0.00000000E+00
  0.00000000E+00  0.00000000E+00  0.00000000E+00
  0.00000000E+00  0.00000000E+00  0.00000000E+00
  0.00000000E+00  0.00000000E+00  0.00000000E+00
  0.00000000E+00  0.00000000E+00  0.00000000E+00
  0.00000000E+00  0.00000000E+00  0.00000000E+00
  0.00000000E+00  0.00000000E+00  0.00000000E+00
  0.00000000E+00  0.00000000E+00  0.00000000E+00
  0.00000000E+00  0.00000000E+00  0.00000000E+00
  0.00000000E+00  0.00000000E+00  0.00000000E+00
  0.00000000E+00  0.00000000E+00  0.00000000E+00
  0.00000000E+00  0.00000000E+00  0.00000000E+00
  0.00000000E+00  0.00000000E+00  0.00000000E+00
  0.00000000E+00  0.00000000E+00  0.00000000E+00
  0.00000000E+00  0.00000000E+00  0.00000000E+00
