  21  21   0   0
  0.9750585E+01  0.3162399E-09  0.3162399E-09  0.2364210E-08  0.5000000E-15
  1.000000000000000E-004
  CAR 
 Al4C3 R-3m - H(P) scan @ 30 GPa (ISIF=8)
     16.80093267     -6.92369403  301      9.05335927      1.00000000
     -6.924  0.0000E+00  0.0000E+00
     -6.845  0.0000E+00  0.0000E+00
     -6.766  0.0000E+00  0.0000E+00
     -6.686  0.0000E+00  0.0000E+00
     -6.607  0.0000E+00  0.0000E+00
     -6.528  0.0000E+00  0.0000E+00
     -6.449  0.0000E+00  0.0000E+00
     -6.370  0.0000E+00  0.0000E+00
     -6.291  0.0000E+00  0.0000E+00
     -6.212  0.0000E+00  0.0000E+00
     -6.133  0.9749E-19  0.7710E-20
     -6.054  0.8142E-12  0.6439E-13
     -5.975  0.5629E-07  0.4452E-08
     -5.896  0.3938E-04  0.3119E-05
     -5.817  0.6871E-03  0.5746E-04
     -5.737  0.2666E-02  0.2683E-03
     -5.658  0.6307E-02  0.7671E-03
     -5.579  0.5048E-02  0.1166E-02
     -5.500  0.6387E-02  0.1671E-02
     -5.421  0.6904E-02  0.2217E-02
     -5.342  0.1031E-01  0.3033E-02
     -5.263  0.7076E-02  0.3593E-02
     -5.184  0.3964E-02  0.3906E-02
     -5.105  0.2690E-02  0.4119E-02
     -5.026  0.1096E-01  0.4985E-02
     -4.947  0.9704E-02  0.5753E-02
     -4.868  0.1234E-01  0.6729E-02
     -4.788  0.9052E-02  0.7445E-02
     -4.709  0.9172E-02  0.8170E-02
     -4.630  0.5780E-02  0.8627E-02
     -4.551  0.7714E-02  0.9237E-02
     -4.472  0.1631E-01  0.1053E-01
     -4.393  0.2307E-01  0.1235E-01
     -4.314  0.1538E-01  0.1357E-01
     -4.235  0.1588E-01  0.1482E-01
     -4.156  0.1214E-01  0.1578E-01
     -4.077  0.1752E-01  0.1717E-01
     -3.998  0.9423E-02  0.1791E-01
     -3.919  0.8458E-02  0.1858E-01
     -3.839  0.1887E-01  0.2007E-01
     -3.760  0.1541E-01  0.2129E-01
     -3.681  0.2783E-01  0.2349E-01
     -3.602  0.2344E-01  0.2535E-01
     -3.523  0.1988E-01  0.2692E-01
     -3.444  0.6275E-02  0.2742E-01
     -3.365  0.1049E-01  0.2825E-01
     -3.286  0.1896E-01  0.2975E-01
     -3.207  0.1263E-01  0.3074E-01
     -3.128  0.1802E-01  0.3217E-01
     -3.049  0.3049E-01  0.3458E-01
     -2.970  0.3517E-01  0.3736E-01
     -2.891  0.3057E-01  0.3978E-01
     -2.811  0.3068E-01  0.4221E-01
     -2.732  0.1385E-01  0.4330E-01
     -2.653  0.2188E-01  0.4503E-01
     -2.574  0.2477E-01  0.4699E-01
     -2.495  0.3575E-01  0.4982E-01
     -2.416  0.3554E-01  0.5263E-01
     -2.337  0.3224E-01  0.5518E-01
     -2.258  0.3267E-01  0.5776E-01
     -2.179  0.2978E-01  0.6012E-01
     -2.100  0.2534E-01  0.6212E-01
     -2.021  0.1970E-01  0.6368E-01
     -1.942  0.2661E-01  0.6578E-01
     -1.862  0.3239E-01  0.6834E-01
     -1.783  0.1294E-01  0.6937E-01
     -1.704  0.1461E-01  0.7052E-01
     -1.625  0.2544E-01  0.7253E-01
     -1.546  0.4664E-01  0.7622E-01
     -1.467  0.4297E-01  0.7962E-01
     -1.388  0.7531E-01  0.8558E-01
     -1.309  0.4381E-01  0.8904E-01
     -1.230  0.1137E-01  0.8994E-01
     -1.151  0.7515E-03  0.9000E-01
     -1.072  0.2771E-05  0.9000E-01
     -0.993  0.1338E-09  0.9000E-01
     -0.913  0.5265E-16  0.9000E-01
     -0.834  0.0000E+00  0.9000E-01
     -0.755  0.0000E+00  0.9000E-01
     -0.676  0.0000E+00  0.9000E-01
     -0.597  0.0000E+00  0.9000E-01
     -0.518  0.0000E+00  0.9000E-01
     -0.439  0.0000E+00  0.9000E-01
     -0.360  0.0000E+00  0.9000E-01
     -0.281  0.0000E+00  0.9000E-01
     -0.202  0.0000E+00  0.9000E-01
     -0.123  0.0000E+00  0.9000E-01
     -0.044  0.0000E+00  0.9000E-01
      0.036  0.0000E+00  0.9000E-01
      0.115  0.0000E+00  0.9000E-01
      0.194  0.5850E-18  0.9000E-01
      0.273  0.4357E-11  0.9000E-01
      0.352  0.2410E-06  0.9000E-01
      0.431  0.1233E-03  0.9001E-01
      0.510  0.1412E-02  0.9012E-01
      0.589  0.2180E-02  0.9029E-01
      0.668  0.3156E-02  0.9054E-01
      0.747  0.1025E-01  0.9135E-01
      0.826  0.1055E-01  0.9219E-01
      0.905  0.1139E-01  0.9309E-01
      0.985  0.1490E-01  0.9427E-01
      1.064  0.9921E-02  0.9505E-01
      1.143  0.5472E-02  0.9548E-01
      1.222  0.6731E-02  0.9602E-01
      1.301  0.1731E-01  0.9739E-01
      1.380  0.2648E-01  0.9948E-01
      1.459  0.2419E-01  0.1014E+00
      1.538  0.1109E-01  0.1023E+00
      1.617  0.1434E-01  0.1034E+00
      1.696  0.1462E-01  0.1046E+00
      1.775  0.1994E-01  0.1061E+00
      1.854  0.1448E-01  0.1073E+00
      1.933  0.7561E-02  0.1079E+00
      2.013  0.1246E-01  0.1089E+00
      2.092  0.1113E-01  0.1097E+00
      2.171  0.2184E-01  0.1115E+00
      2.250  0.2734E-01  0.1136E+00
      2.329  0.2945E-01  0.1160E+00
      2.408  0.2724E-01  0.1181E+00
      2.487  0.2704E-01  0.1203E+00
      2.566  0.3983E-01  0.1234E+00
      2.645  0.4167E-01  0.1267E+00
      2.724  0.3269E-01  0.1293E+00
      2.803  0.2669E-01  0.1314E+00
      2.882  0.2810E-01  0.1336E+00
      2.962  0.3086E-01  0.1361E+00
      3.041  0.3741E-01  0.1390E+00
      3.120  0.3149E-01  0.1415E+00
      3.199  0.2359E-01  0.1434E+00
      3.278  0.3284E-01  0.1460E+00
      3.357  0.2710E-01  0.1481E+00
      3.436  0.4558E-01  0.1517E+00
      3.515  0.4163E-01  0.1550E+00
      3.594  0.4408E-01  0.1585E+00
      3.673  0.4156E-01  0.1618E+00
      3.752  0.2460E-01  0.1637E+00
      3.831  0.2714E-01  0.1659E+00
      3.911  0.2758E-01  0.1681E+00
      3.990  0.3876E-01  0.1711E+00
      4.069  0.4842E-01  0.1750E+00
      4.148  0.5644E-01  0.1794E+00
      4.227  0.3671E-01  0.1823E+00
      4.306  0.2912E-01  0.1846E+00
      4.385  0.2596E-01  0.1867E+00
      4.464  0.2967E-01  0.1890E+00
      4.543  0.2543E-01  0.1910E+00
      4.622  0.2045E-01  0.1926E+00
      4.701  0.2638E-01  0.1947E+00
      4.780  0.2985E-01  0.1971E+00
      4.860  0.4176E-01  0.2004E+00
      4.939  0.3946E-01  0.2035E+00
      5.018  0.3780E-01  0.2065E+00
      5.097  0.4612E-01  0.2102E+00
      5.176  0.2200E-01  0.2119E+00
      5.255  0.4027E-01  0.2151E+00
      5.334  0.3898E-01  0.2182E+00
      5.413  0.2902E-01  0.2205E+00
      5.492  0.2334E-01  0.2223E+00
      5.571  0.2933E-01  0.2246E+00
      5.650  0.4926E-01  0.2285E+00
      5.729  0.4965E-01  0.2324E+00
      5.809  0.4527E-01  0.2360E+00
      5.888  0.5996E-01  0.2408E+00
      5.967  0.4455E-01  0.2443E+00
      6.046  0.2384E-01  0.2462E+00
      6.125  0.2383E-01  0.2481E+00
      6.204  0.3753E-01  0.2510E+00
      6.283  0.5862E-01  0.2557E+00
      6.362  0.4275E-01  0.2590E+00
      6.441  0.3997E-01  0.2622E+00
      6.520  0.3304E-01  0.2648E+00
      6.599  0.4487E-01  0.2684E+00
      6.678  0.6958E-01  0.2739E+00
      6.758  0.7134E-01  0.2795E+00
      6.837  0.5452E-01  0.2838E+00
      6.916  0.4799E-01  0.2876E+00
      6.995  0.5592E-01  0.2920E+00
      7.074  0.5280E-01  0.2962E+00
      7.153  0.5602E-01  0.3006E+00
      7.232  0.5805E-01  0.3052E+00
      7.311  0.6392E-01  0.3103E+00
      7.390  0.4720E-01  0.3140E+00
      7.469  0.4353E-01  0.3175E+00
      7.548  0.4521E-01  0.3210E+00
      7.627  0.4496E-01  0.3246E+00
      7.706  0.5261E-01  0.3288E+00
      7.786  0.5652E-01  0.3332E+00
      7.865  0.4786E-01  0.3370E+00
      7.944  0.4739E-01  0.3408E+00
      8.023  0.3374E-01  0.3434E+00
      8.102  0.3833E-01  0.3465E+00
      8.181  0.2942E-01  0.3488E+00
      8.260  0.2379E-01  0.3507E+00
      8.339  0.2888E-01  0.3529E+00
      8.418  0.1882E-01  0.3544E+00
      8.497  0.1826E-01  0.3559E+00
      8.576  0.1787E-01  0.3573E+00
      8.655  0.1202E-01  0.3582E+00
      8.735  0.1300E-01  0.3593E+00
      8.814  0.8732E-02  0.3600E+00
      8.893  0.4796E-03  0.3600E+00
      8.972  0.7366E-06  0.3600E+00
      9.051  0.1575E-10  0.3600E+00
      9.130  0.3217E-17  0.3600E+00
      9.209  0.0000E+00  0.3600E+00
      9.288  0.0000E+00  0.3600E+00
      9.367  0.0000E+00  0.3600E+00
      9.446  0.0000E+00  0.3600E+00
      9.525  0.0000E+00  0.3600E+00
      9.604  0.0000E+00  0.3600E+00
      9.684  0.0000E+00  0.3600E+00
      9.763  0.1828E-16  0.3600E+00
      9.842  0.5144E-10  0.3600E+00
      9.921  0.1133E-05  0.3600E+00
     10.000  0.2433E-03  0.3600E+00
     10.079  0.1334E-02  0.3601E+00
     10.158  0.2170E-02  0.3603E+00
     10.237  0.3170E-02  0.3605E+00
     10.316  0.6088E-02  0.3610E+00
     10.395  0.5896E-02  0.3615E+00
     10.474  0.4355E-02  0.3618E+00
     10.553  0.5295E-02  0.3623E+00
     10.633  0.8529E-02  0.3629E+00
     10.712  0.1127E-01  0.3638E+00
     10.791  0.6801E-02  0.3644E+00
     10.870  0.4057E-02  0.3647E+00
     10.949  0.1097E-01  0.3655E+00
     11.028  0.1581E-01  0.3668E+00
     11.107  0.1469E-01  0.3680E+00
     11.186  0.2246E-01  0.3697E+00
     11.265  0.2348E-01  0.3716E+00
     11.344  0.1698E-01  0.3729E+00
     11.423  0.8599E-02  0.3736E+00
     11.502  0.1662E-01  0.3749E+00
     11.582  0.7454E-02  0.3755E+00
     11.661  0.8998E-02  0.3762E+00
     11.740  0.2325E-01  0.3781E+00
     11.819  0.2417E-01  0.3800E+00
     11.898  0.2840E-01  0.3822E+00
     11.977  0.1868E-01  0.3837E+00
     12.056  0.1150E-01  0.3846E+00
     12.135  0.1231E-01  0.3856E+00
     12.214  0.1722E-01  0.3870E+00
     12.293  0.2364E-01  0.3888E+00
     12.372  0.1755E-01  0.3902E+00
     12.451  0.1590E-01  0.3915E+00
     12.530  0.1563E-01  0.3927E+00
     12.610  0.3539E-01  0.3955E+00
     12.689  0.3883E-01  0.3986E+00
     12.768  0.6141E-01  0.4034E+00
     12.847  0.4770E-01  0.4072E+00
     12.926  0.2038E-01  0.4088E+00
     13.005  0.1844E-01  0.4103E+00
     13.084  0.1666E-01  0.4116E+00
     13.163  0.1399E-01  0.4127E+00
     13.242  0.1461E-01  0.4138E+00
     13.321  0.3489E-01  0.4166E+00
     13.400  0.2890E-01  0.4189E+00
     13.479  0.2634E-01  0.4210E+00
     13.559  0.1962E-01  0.4225E+00
     13.638  0.3483E-01  0.4253E+00
     13.717  0.4371E-01  0.4287E+00
     13.796  0.2831E-01  0.4310E+00
     13.875  0.3006E-01  0.4334E+00
     13.954  0.3918E-01  0.4365E+00
     14.033  0.3620E-01  0.4393E+00
     14.112  0.4405E-01  0.4428E+00
     14.191  0.6362E-01  0.4478E+00
     14.270  0.6874E-01  0.4533E+00
     14.349  0.5711E-01  0.4578E+00
     14.428  0.2910E-01  0.4601E+00
     14.508  0.2869E-01  0.4624E+00
     14.587  0.2137E-01  0.4640E+00
     14.666  0.2132E-01  0.4657E+00
     14.745  0.3299E-01  0.4683E+00
     14.824  0.1968E-01  0.4699E+00
     14.903  0.2203E-01  0.4716E+00
     14.982  0.1660E-01  0.4730E+00
     15.061  0.1788E-01  0.4744E+00
     15.140  0.1822E-01  0.4758E+00
     15.219  0.2623E-01  0.4779E+00
     15.298  0.1486E-01  0.4791E+00
     15.377  0.3669E-02  0.4793E+00
     15.457  0.3997E-02  0.4797E+00
     15.536  0.1635E-02  0.4798E+00
     15.615  0.1997E-04  0.4798E+00
     15.694  0.5449E-03  0.4798E+00
     15.773  0.1883E-02  0.4800E+00
     15.852  0.2033E-03  0.4800E+00
     15.931  0.3320E-06  0.4800E+00
     16.010  0.4877E-11  0.4800E+00
     16.089  0.5850E-18  0.4800E+00
     16.168  0.0000E+00  0.4800E+00
     16.247  0.0000E+00  0.4800E+00
     16.326  0.0000E+00  0.4800E+00
     16.406  0.0000E+00  0.4800E+00
     16.485  0.0000E+00  0.4800E+00
     16.564  0.0000E+00  0.4800E+00
     16.643  0.0000E+00  0.4800E+00
     16.722  0.0000E+00  0.4800E+00
     16.801  0.0000E+00  0.4800E+00
