       N       E                     dE             d eps       ncg     rms          rms(c)
DAV:   1    -0.125666555781E+03   -0.12567E+03   -0.61596E-02  3672   0.331E+00    0.156E-02
DAV:   2    -0.125666558493E+03   -0.27124E-05   -0.25893E-06  1968   0.105E-02
   1 F= -.87325806E+02 E0= -.87325806E+02  d E =-.873258E+02
       N       E                     dE             d eps       ncg     rms          rms(c)
DAV:   1    -0.129379900958E+03   -0.37133E+01   -0.15339E+01  4272   0.181E+01    0.417E+00
DAV:   2    -0.128933799597E+03    0.44610E+00   -0.12640E+00  4260   0.403E+00    0.170E+00
DAV:   3    -0.128905260886E+03    0.28539E-01   -0.18480E-01  4416   0.142E+00    0.534E-01
DAV:   4    -0.128899617490E+03    0.56434E-02   -0.17596E-02  4392   0.449E-01    0.204E-01
DAV:   5    -0.128898553521E+03    0.10640E-02   -0.28389E-03  4476   0.185E-01    0.111E-01
DAV:   6    -0.128898333223E+03    0.22030E-03   -0.39436E-04  4404   0.703E-02    0.170E-02
DAV:   7    -0.128898331625E+03    0.15976E-05   -0.48314E-05  4344   0.270E-02
   2 F= -.87085911E+02 E0= -.87085911E+02  d E =0.239895E+00
       N       E                     dE             d eps       ncg     rms          rms(c)
DAV:   1    -0.127441887316E+03    0.14564E+01   -0.55986E+00  4200   0.113E+01    0.247E+00
DAV:   2    -0.127287140318E+03    0.15475E+00   -0.43668E-01  4320   0.239E+00    0.103E+00
DAV:   3    -0.127276497236E+03    0.10643E-01   -0.64421E-02  4392   0.856E-01    0.318E-01
DAV:   4    -0.127274683336E+03    0.18139E-02   -0.53471E-03  4380   0.258E-01    0.121E-01
DAV:   5    -0.127274394211E+03    0.28913E-03   -0.74713E-04  4464   0.978E-02    0.688E-02
DAV:   6    -0.127274352781E+03    0.41430E-04   -0.11997E-04  4416   0.385E-02    0.930E-03
DAV:   7    -0.127274349879E+03    0.29018E-05   -0.11512E-05  2580   0.151E-02
   3 F= -.87547534E+02 E0= -.87547534E+02  d E =-.221728E+00
       N       E                     dE             d eps       ncg     rms          rms(c)
DAV:   1    -0.127257855719E+03    0.16497E-01   -0.38436E-04  4224   0.933E-02    0.220E-02
DAV:   2    -0.127257845761E+03    0.99580E-05   -0.32146E-05  3420   0.209E-02
   4 F= -.87547569E+02 E0= -.87547569E+02  d E =-.221763E+00
       N       E                     dE             d eps       ncg     rms          rms(c)
DAV:   1    -0.127254474584E+03    0.33811E-02   -0.78344E-06  2100   0.140E-02    0.535E-03
DAV:   2    -0.127254475001E+03   -0.41673E-06   -0.90499E-07  1932   0.386E-03
   5 F= -.87547569E+02 E0= -.87547569E+02  d E =-.221763E+00
       N       E                     dE             d eps       ncg     rms          rms(c)
DAV:   1    -0.127256018567E+03   -0.15440E-02   -0.41491E-06  1932   0.944E-03    0.201E-03
DAV:   2    -0.127256018516E+03    0.51542E-07   -0.35377E-07  1920   0.251E-03
   6 F= -.87547571E+02 E0= -.87547571E+02  d E =-.221765E+00
       N       E                     dE             d eps       ncg     rms          rms(c)
DAV:   1    -0.127256933243E+03   -0.91468E-03   -0.65188E-07  1932   0.430E-03    0.131E-03
DAV:   2    -0.127256933160E+03    0.83644E-07   -0.46986E-08  1896   0.114E-03
   7 F= -.87547571E+02 E0= -.87547571E+02  d E =-.221765E+00
       N       E                     dE             d eps       ncg     rms          rms(c)
DAV:   1    -0.127263299960E+03   -0.63667E-02   -0.57393E-02  3840   0.111E+00    0.641E-02
DAV:   2    -0.127263169930E+03    0.13003E-03   -0.19964E-03  4800   0.203E-01    0.512E-02
DAV:   3    -0.127263125447E+03    0.44483E-04   -0.23453E-04  4536   0.667E-02    0.284E-02
DAV:   4    -0.127263111792E+03    0.13655E-04   -0.66748E-05  4512   0.314E-02    0.932E-03
DAV:   5    -0.127263110685E+03    0.11074E-05   -0.46798E-06  2652   0.130E-02
   8 F= -.87547289E+02 E0= -.87547289E+02  d E =0.281948E-03
       N       E                     dE             d eps       ncg     rms          rms(c)
DAV:   1    -0.127260294480E+03    0.28173E-02   -0.17947E-02  3804   0.622E-01    0.362E-02
DAV:   2    -0.127260248515E+03    0.45965E-04   -0.60364E-04  4752   0.112E-01    0.287E-02
DAV:   3    -0.127260234581E+03    0.13934E-04   -0.77702E-05  4512   0.384E-02    0.158E-02
DAV:   4    -0.127260230323E+03    0.42578E-05   -0.19235E-05  3312   0.169E-02
   9 F= -.87548024E+02 E0= -.87548024E+02  d E =-.453634E-03
       N       E                     dE             d eps       ncg     rms          rms(c)
DAV:   1    -0.127261090776E+03   -0.85620E-03   -0.48342E-03  3672   0.289E-01    0.171E-02
DAV:   2    -0.127261081810E+03    0.89661E-05   -0.15232E-04  4344   0.547E-02    0.100E-02
DAV:   3    -0.127261078381E+03    0.34293E-05   -0.13225E-05  2700   0.175E-02
  10 F= -.87548130E+02 E0= -.87548130E+02  d E =-.106060E-03
