Al4C3 R-3m - H(P) scan @ 30 GPa (ISIF=8)
           1
     3.162399    0.000000    0.000000
    -1.581199    2.738717    0.000000
     0.000000    0.000000   23.642104
   Al   C 
    12     9
Direct configuration=     1
   0.00000000  0.00000000  0.62956530
   0.00000000  0.00000000  0.37043470
   0.66666669  0.33333334  0.96289861
   0.66666669  0.33333334  0.70376801
   0.33333334  0.66666669  0.29623196
   0.33333334  0.66666669  0.03710137
   0.00000000  0.00000000  0.20613545
   0.00000000  0.00000000  0.79386455
   0.66666669  0.33333334  0.53946876
   0.66666669  0.33333334  0.12719788
   0.33333334  0.66666669  0.87280213
   0.33333334  0.66666669  0.46053121
   0.00000000  0.00000000  0.71670427
   0.00000000  0.00000000  0.28329573
   0.66666669  0.33333334  0.05003760
   0.66666669  0.33333334  0.61662905
   0.33333334  0.66666669  0.38337092
   0.33333334  0.66666669  0.94996242
   0.00000000  0.00000000  0.50000000
   0.66666669  0.33333334  0.83333331
   0.33333334  0.66666669  0.16666667
Al4C3 R-3m - H(P) scan @ 30 GPa (ISIF=8)
           1
     3.255104    0.000000    0.000000
    -1.627552    2.819002    0.000000
     0.000000    0.000000   24.335168
   Al   C 
    12     9
Direct configuration=     2
  -0.00000000 -0.00000000  0.62957332
   0.00000000  0.00000000  0.37042668
   0.66666669  0.33333334  0.96290663
   0.66666669  0.33333334  0.70375999
   0.33333334  0.66666669  0.29623998
   0.33333334  0.66666669  0.03709335
  -0.00000000  0.00000000  0.20613423
   0.00000000  0.00000000  0.79386577
   0.66666669  0.33333334  0.53946754
   0.66666669  0.33333334  0.12719910
   0.33333334  0.66666669  0.87280092
   0.33333334  0.66666669  0.46053243
   0.00000000 -0.00000000  0.71669730
   0.00000000  0.00000000  0.28330270
   0.66666669  0.33333334  0.05003063
   0.66666669  0.33333334  0.61663601
   0.33333334  0.66666669  0.38336396
   0.33333334  0.66666669  0.94996939
   0.00000000  0.00000000  0.50000000
   0.66666669  0.33333334  0.83333331
   0.33333334  0.66666669  0.16666667
Al4C3 R-3m - H(P) scan @ 30 GPa (ISIF=8)
           1
     3.200056    0.000000    0.000000
    -1.600028    2.771330    0.000000
     0.000000    0.000000   23.923635
   Al   C 
    12     9
Direct configuration=     3
  -0.00000000 -0.00000000  0.62956869
   0.00000000  0.00000000  0.37043131
   0.66666669  0.33333334  0.96290201
   0.66666669  0.33333334  0.70376462
   0.33333334  0.66666669  0.29623535
   0.33333334  0.66666669  0.03709797
  -0.00000000  0.00000000  0.20613493
   0.00000000  0.00000000  0.79386507
   0.66666669  0.33333334  0.53946825
   0.66666669  0.33333334  0.12719840
   0.33333334  0.66666669  0.87280162
   0.33333334  0.66666669  0.46053172
   0.00000000 -0.00000000  0.71670132
   0.00000000  0.00000000  0.28329868
   0.66666669  0.33333334  0.05003465
   0.66666669  0.33333334  0.61663199
   0.33333334  0.66666669  0.38336798
   0.33333334  0.66666669  0.94996537
   0.00000000  0.00000000  0.50000000
   0.66666669  0.33333334  0.83333331
   0.33333334  0.66666669  0.16666667
Al4C3 R-3m - H(P) scan @ 30 GPa (ISIF=8)
           1
     3.199612    0.000000    0.000000
    -1.599806    2.770946    0.000000
     0.000000    0.000000   23.920315
   Al   C 
    12     9
Direct configuration=     4
  -0.00000000 -0.00000000  0.62956866
   0.00000000  0.00000000  0.37043134
   0.66666669  0.33333334  0.96290197
   0.66666669  0.33333334  0.70376466
   0.33333334  0.66666669  0.29623531
   0.33333334  0.66666669  0.03709801
  -0.00000000  0.00000000  0.20613494
   0.00000000  0.00000000  0.79386506
   0.66666669  0.33333334  0.53946825
   0.66666669  0.33333334  0.12719839
   0.33333334  0.66666669  0.87280162
   0.33333334  0.66666669  0.46053172
   0.00000000 -0.00000000  0.71670135
   0.00000000  0.00000000  0.28329865
   0.66666669  0.33333334  0.05003468
   0.66666669  0.33333334  0.61663196
   0.33333334  0.66666669  0.38336801
   0.33333334  0.66666669  0.94996534
   0.00000000  0.00000000  0.50000000
   0.66666669  0.33333334  0.83333331
   0.33333334  0.66666669  0.16666667
Al4C3 R-3m - H(P) scan @ 30 GPa (ISIF=8)
           1
     3.199522    0.000000    0.000000
    -1.599761    2.770867    0.000000
     0.000000    0.000000   23.919638
   Al   C 
    12     9
Direct configuration=     5
  -0.00000000 -0.00000000  0.62956865
   0.00000000  0.00000000  0.37043135
   0.66666669  0.33333334  0.96290196
   0.66666669  0.33333334  0.70376467
   0.33333334  0.66666669  0.29623530
   0.33333334  0.66666669  0.03709802
  -0.00000000  0.00000000  0.20613494
   0.00000000  0.00000000  0.79386506
   0.66666669  0.33333334  0.53946825
   0.66666669  0.33333334  0.12719839
   0.33333334  0.66666669  0.87280163
   0.33333334  0.66666669  0.46053172
   0.00000000 -0.00000000  0.71670136
   0.00000000  0.00000000  0.28329864
   0.66666669  0.33333334  0.05003469
   0.66666669  0.33333334  0.61663196
   0.33333334  0.66666669  0.38336801
   0.33333334  0.66666669  0.94996533
   0.00000000  0.00000000  0.50000000
   0.66666669  0.33333334  0.83333331
   0.33333334  0.66666669  0.16666667
Al4C3 R-3m - H(P) scan @ 30 GPa (ISIF=8)
           1
     3.199563    0.000000    0.000000
    -1.599782    2.770903    0.000000
     0.000000    0.000000   23.919947
   Al   C 
    12     9
Direct configuration=     6
  -0.00000000 -0.00000000  0.62956865
   0.00000000  0.00000000  0.37043135
   0.66666669  0.33333334  0.96290196
   0.66666669  0.33333334  0.70376466
   0.33333334  0.66666669  0.29623531
   0.33333334  0.66666669  0.03709802
  -0.00000000  0.00000000  0.20613494
   0.00000000  0.00000000  0.79386506
   0.66666669  0.33333334  0.53946825
   0.66666669  0.33333334  0.12719839
   0.33333334  0.66666669  0.87280163
   0.33333334  0.66666669  0.46053172
   0.00000000 -0.00000000  0.71670135
   0.00000000  0.00000000  0.28329865
   0.66666669  0.33333334  0.05003469
   0.66666669  0.33333334  0.61663196
   0.33333334  0.66666669  0.38336801
   0.33333334  0.66666669  0.94996533
   0.00000000  0.00000000  0.50000000
   0.66666669  0.33333334  0.83333331
   0.33333334  0.66666669  0.16666667
Al4C3 R-3m - H(P) scan @ 30 GPa (ISIF=8)
           1
     3.199588    0.000000    0.000000
    -1.599794    2.770924    0.000000
     0.000000    0.000000   23.920131
   Al   C 
    12     9
Direct configuration=     7
  -0.00000000 -0.00000000  0.62956865
   0.00000000  0.00000000  0.37043135
   0.66666669  0.33333334  0.96290197
   0.66666669  0.33333334  0.70376466
   0.33333334  0.66666669  0.29623531
   0.33333334  0.66666669  0.03709801
  -0.00000000  0.00000000  0.20613494
   0.00000000  0.00000000  0.79386506
   0.66666669  0.33333334  0.53946825
   0.66666669  0.33333334  0.12719839
   0.33333334  0.66666669  0.87280162
   0.33333334  0.66666669  0.46053172
   0.00000000 -0.00000000  0.71670135
   0.00000000  0.00000000  0.28329865
   0.66666669  0.33333334  0.05003468
   0.66666669  0.33333334  0.61663196
   0.33333334  0.66666669  0.38336801
   0.33333334  0.66666669  0.94996533
   0.00000000  0.00000000  0.50000000
   0.66666669  0.33333334  0.83333331
   0.33333334  0.66666669  0.16666667
Al4C3 R-3m - H(P) scan @ 30 GPa (ISIF=8)
           1
     3.199761    0.000000    0.000000
    -1.599881    2.771075    0.000000
     0.000000    0.000000   23.921428
   Al   C 
    12     9
Direct configuration=     8
  -0.00000000 -0.00000000  0.62962770
   0.00000000  0.00000000  0.37037230
   0.66666669  0.33333334  0.96296102
   0.66666669  0.33333334  0.70370561
   0.33333334  0.66666669  0.29629436
   0.33333334  0.66666669  0.03703897
  -0.00000000 -0.00000000  0.20626484
   0.00000000  0.00000000  0.79373516
   0.66666669  0.33333334  0.53959816
   0.66666669  0.33333334  0.12706849
   0.33333334  0.66666669  0.87293153
   0.33333334  0.66666669  0.46040181
  -0.00000000 -0.00000000  0.71677312
   0.00000000  0.00000000  0.28322688
   0.66666669  0.33333334  0.05010645
   0.66666669  0.33333334  0.61656019
   0.33333334  0.66666669  0.38343978
   0.33333334  0.66666669  0.94989357
   0.00000000  0.00000000  0.50000000
   0.66666669  0.33333334  0.83333331
   0.33333334  0.66666669  0.16666667
Al4C3 R-3m - H(P) scan @ 30 GPa (ISIF=8)
           1
     3.199664    0.000000    0.000000
    -1.599832    2.770990    0.000000
     0.000000    0.000000   23.920702
   Al   C 
    12     9
Direct configuration=     9
  -0.00000000 -0.00000000  0.62959465
   0.00000000  0.00000000  0.37040535
   0.66666669  0.33333334  0.96292796
   0.66666669  0.33333334  0.70373866
   0.33333334  0.66666669  0.29626131
   0.33333334  0.66666669  0.03707202
  -0.00000000 -0.00000000  0.20619213
   0.00000000  0.00000000  0.79380787
   0.66666669  0.33333334  0.53952544
   0.66666669  0.33333334  0.12714120
   0.33333334  0.66666669  0.87285882
   0.33333334  0.66666669  0.46047453
  -0.00000000 -0.00000000  0.71673295
   0.00000000  0.00000000  0.28326705
   0.66666669  0.33333334  0.05006628
   0.66666669  0.33333334  0.61660036
   0.33333334  0.66666669  0.38339961
   0.33333334  0.66666669  0.94993374
   0.00000000  0.00000000  0.50000000
   0.66666669  0.33333334  0.83333331
   0.33333334  0.66666669  0.16666667
Al4C3 R-3m - H(P) scan @ 30 GPa (ISIF=8)
           1
     3.199684    0.000000    0.000000
    -1.599842    2.771008    0.000000
     0.000000    0.000000   23.920851
   Al   C 
    12     9
Direct configuration=    10
  -0.00000000 -0.00000000  0.62963618
   0.00000000  0.00000000  0.37036382
   0.66666669  0.33333334  0.96296949
   0.66666669  0.33333334  0.70369713
   0.33333334  0.66666669  0.29630284
   0.33333334  0.66666669  0.03703049
  -0.00000000  0.00000000  0.20619946
   0.00000000  0.00000000  0.79380054
   0.66666669  0.33333334  0.53953277
   0.66666669  0.33333334  0.12713387
   0.33333334  0.66666669  0.87286614
   0.33333334  0.66666669  0.46046720
   0.00000000 -0.00000000  0.71671543
   0.00000000  0.00000000  0.28328457
   0.66666669  0.33333334  0.05004876
   0.66666669  0.33333334  0.61661788
   0.33333334  0.66666669  0.38338209
   0.33333334  0.66666669  0.94995126
   0.00000000 -0.00000000  0.50000000
   0.66666669  0.33333334  0.83333331
   0.33333334  0.66666669  0.16666667
