  56  56   0   0
  0.1072980E+02  0.8438396E-09  0.8438396E-09  0.8438396E-09  0.5000000E-15
  1.000000000000000E-004
  CAR 
 Al4C3 Fd-3m - H(P) scan @ 20 GPa (ISIF=8
     15.86189075     -6.97409161  301      9.01585354      1.00000000
     -6.974  0.0000E+00  0.0000E+00
     -6.898  0.0000E+00  0.0000E+00
     -6.822  0.0000E+00  0.0000E+00
     -6.746  0.0000E+00  0.0000E+00
     -6.670  0.0000E+00  0.0000E+00
     -6.593  0.0000E+00  0.0000E+00
     -6.517  0.0000E+00  0.0000E+00
     -6.441  0.0000E+00  0.0000E+00
     -6.365  0.0000E+00  0.0000E+00
     -6.289  0.0000E+00  0.0000E+00
     -6.213  0.5014E-17  0.3816E-18
     -6.137  0.1414E-10  0.1077E-11
     -6.061  0.4378E-06  0.3332E-07
     -5.985  0.1749E-03  0.1334E-04
     -5.908  0.1664E-02  0.1400E-03
     -5.832  0.6813E-02  0.6586E-03
     -5.756  0.1257E-01  0.1615E-02
     -5.680  0.1852E-01  0.3025E-02
     -5.604  0.1354E-01  0.4056E-02
     -5.528  0.1009E-01  0.4824E-02
     -5.452  0.2621E-01  0.6819E-02
     -5.376  0.4405E-01  0.1017E-01
     -5.299  0.3086E-01  0.1252E-01
     -5.223  0.5809E-02  0.1296E-01
     -5.147  0.3756E-01  0.1582E-01
     -5.071  0.4137E-01  0.1897E-01
     -4.995  0.3701E-01  0.2179E-01
     -4.919  0.7100E-01  0.2719E-01
     -4.843  0.5334E-01  0.3125E-01
     -4.767  0.3983E-01  0.3429E-01
     -4.690  0.7343E-02  0.3485E-01
     -4.614  0.6083E-02  0.3531E-01
     -4.538  0.1687E-01  0.3659E-01
     -4.462  0.1194E-01  0.3750E-01
     -4.386  0.5561E-01  0.4173E-01
     -4.310  0.2051E-01  0.4330E-01
     -4.234  0.1343E-01  0.4432E-01
     -4.158  0.1232E-01  0.4526E-01
     -4.082  0.2481E-01  0.4714E-01
     -4.005  0.5968E-01  0.5169E-01
     -3.929  0.7129E-01  0.5711E-01
     -3.853  0.5443E-01  0.6126E-01
     -3.777  0.4024E-01  0.6432E-01
     -3.701  0.1495E-01  0.6546E-01
     -3.625  0.1570E-01  0.6665E-01
     -3.549  0.3558E-01  0.6936E-01
     -3.473  0.2218E-01  0.7105E-01
     -3.396  0.5896E-03  0.7109E-01
     -3.320  0.1346E-02  0.7120E-01
     -3.244  0.2785E-01  0.7332E-01
     -3.168  0.3146E-01  0.7571E-01
     -3.092  0.6460E-01  0.8063E-01
     -3.016  0.3496E-01  0.8329E-01
     -2.940  0.6429E-01  0.8818E-01
     -2.864  0.7647E-01  0.9401E-01
     -2.787  0.6912E-01  0.9927E-01
     -2.711  0.4889E-01  0.1030E+00
     -2.635  0.5740E-01  0.1074E+00
     -2.559  0.8622E-01  0.1139E+00
     -2.483  0.8209E-01  0.1202E+00
     -2.407  0.9169E-01  0.1271E+00
     -2.331  0.1080E+00  0.1354E+00
     -2.255  0.1014E+00  0.1431E+00
     -2.179  0.1508E+00  0.1546E+00
     -2.102  0.8450E-01  0.1610E+00
     -2.026  0.4905E-01  0.1647E+00
     -1.950  0.6157E-01  0.1694E+00
     -1.874  0.4688E-01  0.1730E+00
     -1.798  0.1418E+00  0.1838E+00
     -1.722  0.1987E+00  0.1989E+00
     -1.646  0.1314E+00  0.2089E+00
     -1.570  0.1233E+00  0.2183E+00
     -1.493  0.1823E+00  0.2322E+00
     -1.417  0.6700E-01  0.2373E+00
     -1.341  0.3366E-01  0.2398E+00
     -1.265  0.2336E-02  0.2400E+00
     -1.189  0.4115E-05  0.2400E+00
     -1.113  0.1119E-09  0.2400E+00
     -1.037  0.3464E-16  0.2400E+00
     -0.961  0.0000E+00  0.2400E+00
     -0.884  0.0000E+00  0.2400E+00
     -0.808  0.0000E+00  0.2400E+00
     -0.732  0.0000E+00  0.2400E+00
     -0.656  0.0000E+00  0.2400E+00
     -0.580  0.0000E+00  0.2400E+00
     -0.504  0.0000E+00  0.2400E+00
     -0.428  0.0000E+00  0.2400E+00
     -0.352  0.0000E+00  0.2400E+00
     -0.276  0.0000E+00  0.2400E+00
     -0.199  0.0000E+00  0.2400E+00
     -0.123  0.0000E+00  0.2400E+00
     -0.047  0.0000E+00  0.2400E+00
      0.029  0.0000E+00  0.2400E+00
      0.105  0.0000E+00  0.2400E+00
      0.181  0.4695E-15  0.2400E+00
      0.257  0.3785E-09  0.2400E+00
      0.333  0.3463E-05  0.2400E+00
      0.410  0.4444E-03  0.2400E+00
      0.486  0.1431E-02  0.2401E+00
      0.562  0.1733E-03  0.2402E+00
      0.638  0.1177E-04  0.2402E+00
      0.714  0.2059E-02  0.2403E+00
      0.790  0.9270E-02  0.2410E+00
      0.866  0.1401E-01  0.2421E+00
      0.942  0.1183E-01  0.2430E+00
      1.019  0.1003E-01  0.2437E+00
      1.095  0.6055E-02  0.2442E+00
      1.171  0.1156E-03  0.2442E+00
      1.247  0.2848E-02  0.2444E+00
      1.323  0.3445E-01  0.2471E+00
      1.399  0.5038E-01  0.2509E+00
      1.475  0.4436E-01  0.2543E+00
      1.551  0.4121E-01  0.2574E+00
      1.627  0.1963E-01  0.2589E+00
      1.704  0.5107E-01  0.2628E+00
      1.780  0.7458E-01  0.2685E+00
      1.856  0.1049E+00  0.2764E+00
      1.932  0.9168E-01  0.2834E+00
      2.008  0.8262E-01  0.2897E+00
      2.084  0.9762E-01  0.2971E+00
      2.160  0.8654E-01  0.3037E+00
      2.236  0.5703E-01  0.3081E+00
      2.313  0.1160E+00  0.3169E+00
      2.389  0.1252E+00  0.3264E+00
      2.465  0.8644E-01  0.3330E+00
      2.541  0.1011E+00  0.3407E+00
      2.617  0.1555E+00  0.3525E+00
      2.693  0.1236E+00  0.3620E+00
      2.769  0.9822E-01  0.3694E+00
      2.845  0.7235E-01  0.3749E+00
      2.922  0.8002E-01  0.3810E+00
      2.998  0.3238E-01  0.3835E+00
      3.074  0.7371E-01  0.3891E+00
      3.150  0.1044E+00  0.3971E+00
      3.226  0.1098E+00  0.4054E+00
      3.302  0.8888E-01  0.4122E+00
      3.378  0.1047E+00  0.4201E+00
      3.454  0.5679E-01  0.4245E+00
      3.530  0.1483E-01  0.4256E+00
      3.607  0.6393E-01  0.4305E+00
      3.683  0.9065E-01  0.4374E+00
      3.759  0.8641E-01  0.4439E+00
      3.835  0.8514E-01  0.4504E+00
      3.911  0.5530E-01  0.4546E+00
      3.987  0.1052E+00  0.4626E+00
      4.063  0.4021E-01  0.4657E+00
      4.139  0.3203E-01  0.4681E+00
      4.216  0.9757E-01  0.4756E+00
      4.292  0.1214E+00  0.4848E+00
      4.368  0.8454E-01  0.4912E+00
      4.444  0.9001E-01  0.4981E+00
      4.520  0.7629E-01  0.5039E+00
      4.596  0.3220E-01  0.5063E+00
      4.672  0.6152E-01  0.5110E+00
      4.748  0.1230E+00  0.5204E+00
      4.824  0.6882E-01  0.5256E+00
      4.901  0.1815E-01  0.5270E+00
      4.977  0.1362E-01  0.5280E+00
      5.053  0.2900E-01  0.5303E+00
      5.129  0.1203E+00  0.5394E+00
      5.205  0.1187E+00  0.5484E+00
      5.281  0.1016E+00  0.5562E+00
      5.357  0.1416E+00  0.5670E+00
      5.433  0.1776E+00  0.5805E+00
      5.510  0.1127E+00  0.5891E+00
      5.586  0.8877E-01  0.5958E+00
      5.662  0.8021E-01  0.6019E+00
      5.738  0.7750E-01  0.6078E+00
      5.814  0.1132E+00  0.6164E+00
      5.890  0.1463E+00  0.6276E+00
      5.966  0.5086E-01  0.6314E+00
      6.042  0.4507E-01  0.6349E+00
      6.119  0.1706E+00  0.6479E+00
      6.195  0.2150E+00  0.6642E+00
      6.271  0.1482E+00  0.6755E+00
      6.347  0.1299E+00  0.6854E+00
      6.423  0.1257E+00  0.6950E+00
      6.499  0.2012E+00  0.7103E+00
      6.575  0.2047E+00  0.7259E+00
      6.651  0.1458E+00  0.7370E+00
      6.727  0.1824E+00  0.7508E+00
      6.804  0.2009E+00  0.7661E+00
      6.880  0.1507E+00  0.7776E+00
      6.956  0.1411E+00  0.7884E+00
      7.032  0.2342E+00  0.8062E+00
      7.108  0.2356E+00  0.8241E+00
      7.184  0.2032E+00  0.8396E+00
      7.260  0.2239E+00  0.8566E+00
      7.336  0.1210E+00  0.8658E+00
      7.413  0.1531E+00  0.8775E+00
      7.489  0.5933E-01  0.8820E+00
      7.565  0.3036E-01  0.8843E+00
      7.641  0.5661E-01  0.8886E+00
      7.717  0.8644E-01  0.8952E+00
      7.793  0.4690E-01  0.8988E+00
      7.869  0.1162E+00  0.9076E+00
      7.945  0.1070E+00  0.9158E+00
      8.022  0.8621E-01  0.9223E+00
      8.098  0.5818E-01  0.9268E+00
      8.174  0.7475E-01  0.9325E+00
      8.250  0.1098E+00  0.9408E+00
      8.326  0.8938E-01  0.9476E+00
      8.402  0.4165E-01  0.9508E+00
      8.478  0.1153E-01  0.9517E+00
      8.554  0.3659E-01  0.9544E+00
      8.630  0.3631E-01  0.9572E+00
      8.707  0.2533E-01  0.9591E+00
      8.783  0.7603E-02  0.9597E+00
      8.859  0.3516E-02  0.9600E+00
      8.935  0.1692E-03  0.9600E+00
      9.011  0.1436E-06  0.9600E+00
      9.087  0.1485E-11  0.9600E+00
      9.163  0.0000E+00  0.9600E+00
      9.239  0.0000E+00  0.9600E+00
      9.316  0.0000E+00  0.9600E+00
      9.392  0.0000E+00  0.9600E+00
      9.468  0.0000E+00  0.9600E+00
      9.544  0.0000E+00  0.9600E+00
      9.620  0.0000E+00  0.9600E+00
      9.696  0.6957E-13  0.9600E+00
      9.772  0.1261E-07  0.9600E+00
      9.848  0.2714E-04  0.9600E+00
      9.925  0.9448E-03  0.9601E+00
     10.001  0.1043E-02  0.9602E+00
     10.077  0.3788E-04  0.9602E+00
     10.153  0.2299E-07  0.9602E+00
     10.229  0.8601E-12  0.9602E+00
     10.305  0.1070E-06  0.9602E+00
     10.381  0.1976E-03  0.9602E+00
     10.457  0.6009E-02  0.9606E+00
     10.533  0.5922E-02  0.9611E+00
     10.610  0.1881E-03  0.9611E+00
     10.686  0.1373E-06  0.9611E+00
     10.762  0.1605E-03  0.9611E+00
     10.838  0.1042E-01  0.9619E+00
     10.914  0.2135E-01  0.9635E+00
     10.990  0.9794E-02  0.9643E+00
     11.066  0.5612E-02  0.9647E+00
     11.142  0.4159E-01  0.9679E+00
     11.219  0.6770E-01  0.9730E+00
     11.295  0.8492E-01  0.9795E+00
     11.371  0.1292E+00  0.9893E+00
     11.447  0.7083E-01  0.9947E+00
     11.523  0.1400E-01  0.9958E+00
     11.599  0.8285E-02  0.9964E+00
     11.675  0.6793E-01  0.1002E+01
     11.751  0.2837E-01  0.1004E+01
     11.828  0.8599E-01  0.1010E+01
     11.904  0.1219E+00  0.1020E+01
     11.980  0.5942E-01  0.1024E+01
     12.056  0.3729E-01  0.1027E+01
     12.132  0.4339E-01  0.1030E+01
     12.208  0.1575E+00  0.1042E+01
     12.284  0.1980E+00  0.1057E+01
     12.360  0.9031E-01  0.1064E+01
     12.436  0.1215E+00  0.1073E+01
     12.513  0.2122E+00  0.1090E+01
     12.589  0.1505E+00  0.1101E+01
     12.665  0.5221E-01  0.1105E+01
     12.741  0.4421E-01  0.1108E+01
     12.817  0.4892E-01  0.1112E+01
     12.893  0.2444E-01  0.1114E+01
     12.969  0.5020E-01  0.1118E+01
     13.045  0.7802E-01  0.1124E+01
     13.122  0.3526E-01  0.1126E+01
     13.198  0.7796E-01  0.1132E+01
     13.274  0.6440E-01  0.1137E+01
     13.350  0.6990E-01  0.1143E+01
     13.426  0.6152E-01  0.1147E+01
     13.502  0.1316E+00  0.1157E+01
     13.578  0.7476E-01  0.1163E+01
     13.654  0.9864E-01  0.1170E+01
     13.731  0.6754E-01  0.1176E+01
     13.807  0.1128E+00  0.1184E+01
     13.883  0.1702E+00  0.1197E+01
     13.959  0.1367E+00  0.1208E+01
     14.035  0.1259E+00  0.1217E+01
     14.111  0.1698E+00  0.1230E+01
     14.187  0.1258E+00  0.1240E+01
     14.263  0.4776E-01  0.1243E+01
     14.339  0.7124E-01  0.1249E+01
     14.416  0.9065E-01  0.1256E+01
     14.492  0.2100E-01  0.1257E+01
     14.568  0.7918E-02  0.1258E+01
     14.644  0.2575E-02  0.1258E+01
     14.720  0.1713E-01  0.1259E+01
     14.796  0.6324E-02  0.1260E+01
     14.872  0.2908E-02  0.1260E+01
     14.948  0.3494E-03  0.1260E+01
     15.025  0.8755E-06  0.1260E+01
     15.101  0.2829E-10  0.1260E+01
     15.177  0.1003E-16  0.1260E+01
     15.253  0.0000E+00  0.1260E+01
     15.329  0.0000E+00  0.1260E+01
     15.405  0.0000E+00  0.1260E+01
     15.481  0.0000E+00  0.1260E+01
     15.557  0.0000E+00  0.1260E+01
     15.634  0.0000E+00  0.1260E+01
     15.710  0.0000E+00  0.1260E+01
     15.786  0.0000E+00  0.1260E+01
     15.862  0.0000E+00  0.1260E+01
