Al4C3 Fd-3m - H(P) scan @ 20 GPa (ISIF=8
           1
     8.438396    0.000000    0.000000
     0.000000    8.438396    0.000000
     0.000000    0.000000    8.438396
   Al   C 
    32    24
Direct configuration=     1
   0.76103512  0.76103512  0.76103512
   0.23896488  0.23896488  0.23896488
   0.98896488  0.48896488  0.26103512
   0.01103512  0.51103512  0.73896488
   0.48896488  0.26103512  0.98896488
   0.51103512  0.73896488  0.01103512
   0.26103512  0.98896488  0.48896488
   0.73896488  0.01103512  0.51103512
   0.51103512  0.01103512  0.73896488
   0.48896488  0.98896488  0.26103512
   0.01103512  0.73896488  0.51103512
   0.98896488  0.26103512  0.48896488
   0.73896488  0.51103512  0.01103512
   0.26103512  0.48896488  0.98896488
   0.76103512  0.26103512  0.26103512
   0.23896488  0.73896488  0.73896488
   0.98896488  0.98896488  0.76103512
   0.01103512  0.01103512  0.23896488
   0.48896488  0.76103512  0.48896488
   0.51103512  0.23896488  0.51103512
   0.51103512  0.51103512  0.23896488
   0.48896488  0.48896488  0.76103512
   0.01103512  0.23896488  0.01103512
   0.98896488  0.76103512  0.98896488
   0.26103512  0.76103512  0.26103512
   0.73896488  0.23896488  0.73896488
   0.76103512  0.98896488  0.98896488
   0.23896488  0.01103512  0.01103512
   0.23896488  0.51103512  0.51103512
   0.76103512  0.48896488  0.48896488
   0.26103512  0.26103512  0.76103512
   0.73896488  0.73896488  0.23896488
   0.00000000  0.00000000  0.00000000
   0.75000000  0.25000000  0.50000000
   0.25000000  0.75000000  0.50000000
   0.25000000  0.50000000  0.75000000
   0.75000000  0.50000000  0.25000000
   0.50000000  0.75000000  0.25000000
   0.50000000  0.25000000  0.75000000
   0.00000000  0.50000000  0.50000000
   0.75000000  0.75000000  0.00000000
   0.25000000  0.25000000  0.00000000
   0.25000000  0.00000000  0.25000000
   0.75000000  0.00000000  0.75000000
   0.50000000  0.00000000  0.50000000
   0.00000000  0.75000000  0.75000000
   0.00000000  0.25000000  0.25000000
   0.50000000  0.50000000  0.00000000
   0.37500000  0.37500000  0.37500000
   0.62500000  0.62500000  0.62500000
   0.37500000  0.87500000  0.87500000
   0.62500000  0.12500000  0.12500000
   0.87500000  0.87500000  0.37500000
   0.12500000  0.12500000  0.62500000
   0.87500000  0.37500000  0.87500000
   0.12500000  0.62500000  0.12500000
Al4C3 Fd-3m - H(P) scan @ 20 GPa (ISIF=8
           1
     8.166322    0.000000    0.000000
     0.000000    8.166322    0.000000
     0.000000    0.000000    8.166322
   Al   C 
    32    24
Direct configuration=     2
   0.76103321  0.76103321  0.76103321
   0.23896679  0.23896679  0.23896679
   0.98896679  0.48896679  0.26103321
   0.01103321  0.51103321  0.73896679
   0.48896679  0.26103321  0.98896679
   0.51103321  0.73896679  0.01103321
   0.26103321  0.98896679  0.48896679
   0.73896679  0.01103321  0.51103321
   0.51103321  0.01103321  0.73896679
   0.48896679  0.98896679  0.26103321
   0.01103321  0.73896679  0.51103321
   0.98896679  0.26103321  0.48896679
   0.73896679  0.51103321  0.01103321
   0.26103321  0.48896679  0.98896679
   0.76103321  0.26103321  0.26103321
   0.23896679  0.73896679  0.73896679
   0.98896679  0.98896679  0.76103321
   0.01103321  0.01103321  0.23896679
   0.48896679  0.76103321  0.48896679
   0.51103321  0.23896679  0.51103321
   0.51103321  0.51103321  0.23896679
   0.48896679  0.48896679  0.76103321
   0.01103321  0.23896679  0.01103321
   0.98896679  0.76103321  0.98896679
   0.26103321  0.76103321  0.26103321
   0.73896679  0.23896679  0.73896679
   0.76103321  0.98896679  0.98896679
   0.23896679  0.01103321  0.01103321
   0.23896679  0.51103321  0.51103321
   0.76103321  0.48896679  0.48896679
   0.26103321  0.26103321  0.76103321
   0.73896679  0.73896679  0.23896679
  -0.00000000  0.00000000 -0.00000000
   0.75000000  0.25000000  0.50000000
   0.25000000  0.75000000  0.50000000
   0.25000000  0.50000000  0.75000000
   0.75000000  0.50000000  0.25000000
   0.50000000  0.75000000  0.25000000
   0.50000000  0.25000000  0.75000000
  -0.00000000  0.50000000  0.50000000
   0.75000000  0.75000000 -0.00000000
   0.25000000  0.25000000 -0.00000000
   0.25000000  0.00000000  0.25000000
   0.75000000  0.00000000  0.75000000
   0.50000000  0.00000000  0.50000000
  -0.00000000  0.75000000  0.75000000
  -0.00000000  0.25000000  0.25000000
   0.50000000  0.50000000 -0.00000000
   0.37500000  0.37500000  0.37500000
   0.62500000  0.62500000  0.62500000
   0.37500000  0.87500000  0.87500000
   0.62500000  0.12500000  0.12500000
   0.87500000  0.87500000  0.37500000
   0.12500000  0.12500000  0.62500000
   0.87500000  0.37500000  0.87500000
   0.12500000  0.62500000  0.12500000
Al4C3 Fd-3m - H(P) scan @ 20 GPa (ISIF=8
           1
     8.314024    0.000000    0.000000
     0.000000    8.314024    0.000000
     0.000000    0.000000    8.314024
   Al   C 
    32    24
Direct configuration=     3
   0.76103428  0.76103428  0.76103428
   0.23896572  0.23896572  0.23896572
   0.98896572  0.48896572  0.26103428
   0.01103428  0.51103428  0.73896572
   0.48896572  0.26103428  0.98896572
   0.51103428  0.73896572  0.01103428
   0.26103428  0.98896572  0.48896572
   0.73896572  0.01103428  0.51103428
   0.51103428  0.01103428  0.73896572
   0.48896572  0.98896572  0.26103428
   0.01103428  0.73896572  0.51103428
   0.98896572  0.26103428  0.48896572
   0.73896572  0.51103428  0.01103428
   0.26103428  0.48896572  0.98896572
   0.76103428  0.26103428  0.26103428
   0.23896572  0.73896572  0.73896572
   0.98896572  0.98896572  0.76103428
   0.01103428  0.01103428  0.23896572
   0.48896572  0.76103428  0.48896572
   0.51103428  0.23896572  0.51103428
   0.51103428  0.51103428  0.23896572
   0.48896572  0.48896572  0.76103428
   0.01103428  0.23896572  0.01103428
   0.98896572  0.76103428  0.98896572
   0.26103428  0.76103428  0.26103428
   0.73896572  0.23896572  0.73896572
   0.76103428  0.98896572  0.98896572
   0.23896572  0.01103428  0.01103428
   0.23896572  0.51103428  0.51103428
   0.76103428  0.48896572  0.48896572
   0.26103428  0.26103428  0.76103428
   0.73896572  0.73896572  0.23896572
  -0.00000000  0.00000000 -0.00000000
   0.75000000  0.25000000  0.50000000
   0.25000000  0.75000000  0.50000000
   0.25000000  0.50000000  0.75000000
   0.75000000  0.50000000  0.25000000
   0.50000000  0.75000000  0.25000000
   0.50000000  0.25000000  0.75000000
  -0.00000000  0.50000000  0.50000000
   0.75000000  0.75000000 -0.00000000
   0.25000000  0.25000000 -0.00000000
   0.25000000  0.00000000  0.25000000
   0.75000000  0.00000000  0.75000000
   0.50000000  0.00000000  0.50000000
  -0.00000000  0.75000000  0.75000000
  -0.00000000  0.25000000  0.25000000
   0.50000000  0.50000000 -0.00000000
   0.37500000  0.37500000  0.37500000
   0.62500000  0.62500000  0.62500000
   0.37500000  0.87500000  0.87500000
   0.62500000  0.12500000  0.12500000
   0.87500000  0.87500000  0.37500000
   0.12500000  0.12500000  0.62500000
   0.87500000  0.37500000  0.87500000
   0.12500000  0.62500000  0.12500000
Al4C3 Fd-3m - H(P) scan @ 20 GPa (ISIF=8
           1
     8.312764    0.000000    0.000000
     0.000000    8.312764    0.000000
     0.000000    0.000000    8.312764
   Al   C 
    32    24
Direct configuration=     4
   0.76103427  0.76103427  0.76103427
   0.23896573  0.23896573  0.23896573
   0.98896573  0.48896573  0.26103427
   0.01103427  0.51103427  0.73896573
   0.48896573  0.26103427  0.98896573
   0.51103427  0.73896573  0.01103427
   0.26103427  0.98896573  0.48896573
   0.73896573  0.01103427  0.51103427
   0.51103427  0.01103427  0.73896573
   0.48896573  0.98896573  0.26103427
   0.01103427  0.73896573  0.51103427
   0.98896573  0.26103427  0.48896573
   0.73896573  0.51103427  0.01103427
   0.26103427  0.48896573  0.98896573
   0.76103427  0.26103427  0.26103427
   0.23896573  0.73896573  0.73896573
   0.98896573  0.98896573  0.76103427
   0.01103427  0.01103427  0.23896573
   0.48896573  0.76103427  0.48896573
   0.51103427  0.23896573  0.51103427
   0.51103427  0.51103427  0.23896573
   0.48896573  0.48896573  0.76103427
   0.01103427  0.23896573  0.01103427
   0.98896573  0.76103427  0.98896573
   0.26103427  0.76103427  0.26103427
   0.73896573  0.23896573  0.73896573
   0.76103427  0.98896573  0.98896573
   0.23896573  0.01103427  0.01103427
   0.23896573  0.51103427  0.51103427
   0.76103427  0.48896573  0.48896573
   0.26103427  0.26103427  0.76103427
   0.73896573  0.73896573  0.23896573
  -0.00000000  0.00000000 -0.00000000
   0.75000000  0.25000000  0.50000000
   0.25000000  0.75000000  0.50000000
   0.25000000  0.50000000  0.75000000
   0.75000000  0.50000000  0.25000000
   0.50000000  0.75000000  0.25000000
   0.50000000  0.25000000  0.75000000
  -0.00000000  0.50000000  0.50000000
   0.75000000  0.75000000 -0.00000000
   0.25000000  0.25000000 -0.00000000
   0.25000000  0.00000000  0.25000000
   0.75000000  0.00000000  0.75000000
   0.50000000  0.00000000  0.50000000
  -0.00000000  0.75000000  0.75000000
  -0.00000000  0.25000000  0.25000000
   0.50000000  0.50000000 -0.00000000
   0.37500000  0.37500000  0.37500000
   0.62500000  0.62500000  0.62500000
   0.37500000  0.87500000  0.87500000
   0.62500000  0.12500000  0.12500000
   0.87500000  0.87500000  0.37500000
   0.12500000  0.12500000  0.62500000
   0.87500000  0.37500000  0.87500000
   0.12500000  0.62500000  0.12500000
Al4C3 Fd-3m - H(P) scan @ 20 GPa (ISIF=8
           1
     8.310249    0.000000    0.000000
     0.000000    8.310249    0.000000
     0.000000    0.000000    8.310249
   Al   C 
    32    24
Direct configuration=     5
   0.76056395  0.76056395  0.76056395
   0.23943605  0.23943605  0.23943605
   0.98943605  0.48943605  0.26056395
   0.01056395  0.51056395  0.73943605
   0.48943605  0.26056395  0.98943605
   0.51056395  0.73943605  0.01056395
   0.26056395  0.98943605  0.48943605
   0.73943605  0.01056395  0.51056395
   0.51056395  0.01056395  0.73943605
   0.48943605  0.98943605  0.26056395
   0.01056395  0.73943605  0.51056395
   0.98943605  0.26056395  0.48943605
   0.73943605  0.51056395  0.01056395
   0.26056395  0.48943605  0.98943605
   0.76056395  0.26056395  0.26056395
   0.23943605  0.73943605  0.73943605
   0.98943605  0.98943605  0.76056395
   0.01056395  0.01056395  0.23943605
   0.48943605  0.76056395  0.48943605
   0.51056395  0.23943605  0.51056395
   0.51056395  0.51056395  0.23943605
   0.48943605  0.48943605  0.76056395
   0.01056395  0.23943605  0.01056395
   0.98943605  0.76056395  0.98943605
   0.26056395  0.76056395  0.26056395
   0.73943605  0.23943605  0.73943605
   0.76056395  0.98943605  0.98943605
   0.23943605  0.01056395  0.01056395
   0.23943605  0.51056395  0.51056395
   0.76056395  0.48943605  0.48943605
   0.26056395  0.26056395  0.76056395
   0.73943605  0.73943605  0.23943605
   0.00000000  0.00000000 -0.00000000
   0.75000000  0.25000000  0.50000000
   0.25000000  0.75000000  0.50000000
   0.25000000  0.50000000  0.75000000
   0.75000000  0.50000000  0.25000000
   0.50000000  0.75000000  0.25000000
   0.50000000  0.25000000  0.75000000
   0.00000000  0.50000000  0.50000000
   0.75000000  0.75000000 -0.00000000
   0.25000000  0.25000000 -0.00000000
   0.25000000  0.00000000  0.25000000
   0.75000000  0.00000000  0.75000000
   0.50000000  0.00000000  0.50000000
   0.00000000  0.75000000  0.75000000
   0.00000000  0.25000000  0.25000000
   0.50000000  0.50000000 -0.00000000
   0.37500000  0.37500000  0.37500000
   0.62500000  0.62500000  0.62500000
   0.37500000  0.87500000  0.87500000
   0.62500000  0.12500000  0.12500000
   0.87500000  0.87500000  0.37500000
   0.12500000  0.12500000  0.62500000
   0.87500000  0.37500000  0.87500000
   0.12500000  0.62500000  0.12500000
Al4C3 Fd-3m - H(P) scan @ 20 GPa (ISIF=8
           1
     8.311244    0.000000    0.000000
     0.000000    8.311244    0.000000
     0.000000    0.000000    8.311244
   Al   C 
    32    24
Direct configuration=     6
   0.76075006  0.76075006  0.76075006
   0.23924994  0.23924994  0.23924994
   0.98924994  0.48924994  0.26075006
   0.01075006  0.51075006  0.73924994
   0.48924994  0.26075006  0.98924994
   0.51075006  0.73924994  0.01075006
   0.26075006  0.98924994  0.48924994
   0.73924994  0.01075006  0.51075006
   0.51075006  0.01075006  0.73924994
   0.48924994  0.98924994  0.26075006
   0.01075006  0.73924994  0.51075006
   0.98924994  0.26075006  0.48924994
   0.73924994  0.51075006  0.01075006
   0.26075006  0.48924994  0.98924994
   0.76075006  0.26075006  0.26075006
   0.23924994  0.73924994  0.73924994
   0.98924994  0.98924994  0.76075006
   0.01075006  0.01075006  0.23924994
   0.48924994  0.76075006  0.48924994
   0.51075006  0.23924994  0.51075006
   0.51075006  0.51075006  0.23924994
   0.48924994  0.48924994  0.76075006
   0.01075006  0.23924994  0.01075006
   0.98924994  0.76075006  0.98924994
   0.26075006  0.76075006  0.26075006
   0.73924994  0.23924994  0.73924994
   0.76075006  0.98924994  0.98924994
   0.23924994  0.01075006  0.01075006
   0.23924994  0.51075006  0.51075006
   0.76075006  0.48924994  0.48924994
   0.26075006  0.26075006  0.76075006
   0.73924994  0.73924994  0.23924994
   0.00000000  0.00000000 -0.00000000
   0.75000000  0.25000000  0.50000000
   0.25000000  0.75000000  0.50000000
   0.25000000  0.50000000  0.75000000
   0.75000000  0.50000000  0.25000000
   0.50000000  0.75000000  0.25000000
   0.50000000  0.25000000  0.75000000
   0.00000000  0.50000000  0.50000000
   0.75000000  0.75000000 -0.00000000
   0.25000000  0.25000000 -0.00000000
   0.25000000  0.00000000  0.25000000
   0.75000000  0.00000000  0.75000000
   0.50000000  0.00000000  0.50000000
   0.00000000  0.75000000  0.75000000
   0.00000000  0.25000000  0.25000000
   0.50000000  0.50000000 -0.00000000
   0.37500000  0.37500000  0.37500000
   0.62500000  0.62500000  0.62500000
   0.37500000  0.87500000  0.87500000
   0.62500000  0.12500000  0.12500000
   0.87500000  0.87500000  0.37500000
   0.12500000  0.12500000  0.62500000
   0.87500000  0.37500000  0.87500000
   0.12500000  0.62500000  0.12500000
