Al4C3 R-3m polymorph (findsym-output, fr
   1.00000000000000     
     3.0251128891923855    0.0000000000000000    0.0000000000000000
    -1.5125564445961928    2.6198246113899870    0.0000000000000000
     0.0000000000000000    0.0000000000000000   22.6157560155131350
   Al   C 
    12     9
Direct
 -0.0000000000000000 -0.0000000000000000  0.6292272574167374
 -0.0000000000000000 -0.0000000000000000  0.3707727425832627
  0.6666666870000029  0.3333333429999996  0.9625605704167345
  0.6666666870000029  0.3333333429999996  0.7041060565832634
  0.3333333429999996  0.6666666870000029  0.2958939134167340
  0.3333333429999996  0.6666666870000029  0.0374394105832676
 -0.0000000000000000  0.0000000000000000  0.2059283179384218
 -0.0000000000000000 -0.0000000000000000  0.7940716820615783
  0.6666666870000029  0.3333333429999996  0.5392616319384225
  0.6666666870000029  0.3333333429999996  0.1274050100615802
  0.3333333429999996  0.6666666870000029  0.8725950049384246
  0.3333333429999996  0.6666666870000029  0.4607383380615749
 -0.0000000000000000 -0.0000000000000000  0.7166440156616646
  0.0000000000000000  0.0000000000000000  0.2833559843383354
  0.6666666870000029  0.3333333429999996  0.0499773476616669
  0.6666666870000029  0.3333333429999996  0.6166892973383326
  0.3333333429999996  0.6666666870000029  0.3833106726616650
  0.3333333429999996  0.6666666870000029  0.9500226713383312
  0.0000000000000000  0.0000000000000000  0.5000000000000000
  0.6666666870000029  0.3333333429999996  0.8333333129999971
  0.3333333429999996  0.6666666870000029  0.1666666719999981
 
  0.00000000E+00  0.00000000E+00  0.00000000E+00
  0.00000000E+00  0.00000000E+00  0.00000000E+00
  0.00000000E+00  0.00000000E+00  0.00000000E+00
  0.00000000E+00  0.00000000E+00  0.00000000E+00
  0.00000000E+00  0.00000000E+00  0.00000000E+00
  0.00000000E+00  0.00000000E+00  0.00000000E+00
  0.00000000E+00  0.00000000E+00  0.00000000E+00
  0.00000000E+00  0.00000000E+00  0.00000000E+00
  0.00000000E+00  0.00000000E+00  0.00000000E+00
  0.00000000E+00  0.00000000E+00  0.00000000E+00
  0.00000000E+00  0.00000000E+00  0.00000000E+00
  0.00000000E+00  0.00000000E+00  0.00000000E+00
  0.00000000E+00  0.00000000E+00  0.00000000E+00
  0.00000000E+00  0.00000000E+00  0.00000000E+00
  0.00000000E+00  0.00000000E+00  0.00000000E+00
  0.00000000E+00  0.00000000E+00  0.00000000E+00
  0.00000000E+00  0.00000000E+00  0.00000000E+00
  0.00000000E+00  0.00000000E+00  0.00000000E+00
  0.00000000E+00  0.00000000E+00  0.00000000E+00
  0.00000000E+00  0.00000000E+00  0.00000000E+00
  0.00000000E+00  0.00000000E+00  0.00000000E+00
