Al4C3 R-3m - H(P) scan @ 90 GPa (ISIF=8)
           1
     3.047948    0.000000    0.000000
    -1.523974    2.639601    0.000000
     0.000000    0.000000   22.786474
   Al   C 
    12     9
Direct configuration=     1
   0.00000000  0.00000000  0.62929276
   0.00000000  0.00000000  0.37070724
   0.66666669  0.33333334  0.96262607
   0.66666669  0.33333334  0.70404055
   0.33333334  0.66666669  0.29595942
   0.33333334  0.66666669  0.03737391
   0.00000000  0.00000000  0.20595913
   0.00000000  0.00000000  0.79404087
   0.66666669  0.33333334  0.53929244
   0.66666669  0.33333334  0.12737420
   0.33333334  0.66666669  0.87262582
   0.33333334  0.66666669  0.46070753
   0.00000000  0.00000000  0.71665628
   0.00000000  0.00000000  0.28334372
   0.66666669  0.33333334  0.04998962
   0.66666669  0.33333334  0.61667703
   0.33333334  0.66666669  0.38332294
   0.33333334  0.66666669  0.95001040
   0.00000000  0.00000000  0.50000000
   0.66666669  0.33333334  0.83333331
   0.33333334  0.66666669  0.16666667
Al4C3 R-3m - H(P) scan @ 90 GPa (ISIF=8)
           1
     2.967980    0.000000    0.000000
    -1.483990    2.570347    0.000000
     0.000000    0.000000   22.188634
   Al   C 
    12     9
Direct configuration=     2
   0.00000000 -0.00000000  0.62929926
   0.00000000 -0.00000000  0.37070074
   0.66666669  0.33333334  0.96263258
   0.66666669  0.33333334  0.70403405
   0.33333334  0.66666669  0.29596592
   0.33333334  0.66666669  0.03736740
  -0.00000000 -0.00000000  0.20595912
   0.00000000  0.00000000  0.79404088
   0.66666669  0.33333334  0.53929244
   0.66666669  0.33333334  0.12737421
   0.33333334  0.66666669  0.87262581
   0.33333334  0.66666669  0.46070753
  -0.00000000 -0.00000000  0.71665366
   0.00000000  0.00000000  0.28334634
   0.66666669  0.33333334  0.04998699
   0.66666669  0.33333334  0.61667965
   0.33333334  0.66666669  0.38332032
   0.33333334  0.66666669  0.95001303
   0.00000000 -0.00000000  0.50000000
   0.66666669  0.33333334  0.83333331
   0.33333334  0.66666669  0.16666667
Al4C3 R-3m - H(P) scan @ 90 GPa (ISIF=8)
           1
     3.025632    0.000000    0.000000
    -1.512816    2.620274    0.000000
     0.000000    0.000000   22.619637
   Al   C 
    12     9
Direct configuration=     3
   0.00000000 -0.00000000  0.62929445
   0.00000000 -0.00000000  0.37070555
   0.66666669  0.33333334  0.96262776
   0.66666669  0.33333334  0.70403886
   0.33333334  0.66666669  0.29596111
   0.33333334  0.66666669  0.03737222
  -0.00000000 -0.00000000  0.20595913
   0.00000000  0.00000000  0.79404087
   0.66666669  0.33333334  0.53929244
   0.66666669  0.33333334  0.12737420
   0.33333334  0.66666669  0.87262581
   0.33333334  0.66666669  0.46070753
  -0.00000000 -0.00000000  0.71665560
   0.00000000  0.00000000  0.28334440
   0.66666669  0.33333334  0.04998893
   0.66666669  0.33333334  0.61667771
   0.33333334  0.66666669  0.38332226
   0.33333334  0.66666669  0.95001108
   0.00000000 -0.00000000  0.50000000
   0.66666669  0.33333334  0.83333331
   0.33333334  0.66666669  0.16666667
Al4C3 R-3m - H(P) scan @ 90 GPa (ISIF=8)
           1
     3.025174    0.000000    0.000000
    -1.512587    2.619878    0.000000
     0.000000    0.000000   22.616213
   Al   C 
    12     9
Direct configuration=     4
   0.00000000 -0.00000000  0.62929449
   0.00000000 -0.00000000  0.37070551
   0.66666669  0.33333334  0.96262780
   0.66666669  0.33333334  0.70403883
   0.33333334  0.66666669  0.29596114
   0.33333334  0.66666669  0.03737218
  -0.00000000 -0.00000000  0.20595913
   0.00000000  0.00000000  0.79404087
   0.66666669  0.33333334  0.53929244
   0.66666669  0.33333334  0.12737420
   0.33333334  0.66666669  0.87262581
   0.33333334  0.66666669  0.46070753
  -0.00000000 -0.00000000  0.71665559
   0.00000000  0.00000000  0.28334441
   0.66666669  0.33333334  0.04998892
   0.66666669  0.33333334  0.61667773
   0.33333334  0.66666669  0.38332224
   0.33333334  0.66666669  0.95001110
   0.00000000 -0.00000000  0.50000000
   0.66666669  0.33333334  0.83333331
   0.33333334  0.66666669  0.16666667
Al4C3 R-3m - H(P) scan @ 90 GPa (ISIF=8)
           1
     3.025116    0.000000    0.000000
    -1.512558    2.619827    0.000000
     0.000000    0.000000   22.615776
   Al   C 
    12     9
Direct configuration=     5
   0.00000000 -0.00000000  0.62929449
   0.00000000 -0.00000000  0.37070551
   0.66666669  0.33333334  0.96262781
   0.66666669  0.33333334  0.70403882
   0.33333334  0.66666669  0.29596115
   0.33333334  0.66666669  0.03737218
  -0.00000000 -0.00000000  0.20595913
   0.00000000  0.00000000  0.79404087
   0.66666669  0.33333334  0.53929244
   0.66666669  0.33333334  0.12737420
   0.33333334  0.66666669  0.87262581
   0.33333334  0.66666669  0.46070753
  -0.00000000 -0.00000000  0.71665559
   0.00000000  0.00000000  0.28334441
   0.66666669  0.33333334  0.04998892
   0.66666669  0.33333334  0.61667773
   0.33333334  0.66666669  0.38332224
   0.33333334  0.66666669  0.95001110
   0.00000000 -0.00000000  0.50000000
   0.66666669  0.33333334  0.83333331
   0.33333334  0.66666669  0.16666667
Al4C3 R-3m - H(P) scan @ 90 GPa (ISIF=8)
           1
     3.025142    0.000000    0.000000
    -1.512571    2.619850    0.000000
     0.000000    0.000000   22.615974
   Al   C 
    12     9
Direct configuration=     6
   0.00000000 -0.00000000  0.62929449
   0.00000000 -0.00000000  0.37070551
   0.66666669  0.33333334  0.96262780
   0.66666669  0.33333334  0.70403882
   0.33333334  0.66666669  0.29596115
   0.33333334  0.66666669  0.03737218
  -0.00000000 -0.00000000  0.20595913
   0.00000000  0.00000000  0.79404087
   0.66666669  0.33333334  0.53929244
   0.66666669  0.33333334  0.12737420
   0.33333334  0.66666669  0.87262581
   0.33333334  0.66666669  0.46070753
  -0.00000000 -0.00000000  0.71665559
   0.00000000  0.00000000  0.28334441
   0.66666669  0.33333334  0.04998892
   0.66666669  0.33333334  0.61667773
   0.33333334  0.66666669  0.38332224
   0.33333334  0.66666669  0.95001110
   0.00000000 -0.00000000  0.50000000
   0.66666669  0.33333334  0.83333331
   0.33333334  0.66666669  0.16666667
Al4C3 R-3m - H(P) scan @ 90 GPa (ISIF=8)
           1
     3.025161    0.000000    0.000000
    -1.512581    2.619867    0.000000
     0.000000    0.000000   22.616118
   Al   C 
    12     9
Direct configuration=     7
   0.00000000 -0.00000000  0.62929449
   0.00000000 -0.00000000  0.37070551
   0.66666669  0.33333334  0.96262780
   0.66666669  0.33333334  0.70403883
   0.33333334  0.66666669  0.29596114
   0.33333334  0.66666669  0.03737218
  -0.00000000 -0.00000000  0.20595913
   0.00000000  0.00000000  0.79404087
   0.66666669  0.33333334  0.53929244
   0.66666669  0.33333334  0.12737420
   0.33333334  0.66666669  0.87262581
   0.33333334  0.66666669  0.46070753
  -0.00000000 -0.00000000  0.71665559
   0.00000000  0.00000000  0.28334441
   0.66666669  0.33333334  0.04998892
   0.66666669  0.33333334  0.61667773
   0.33333334  0.66666669  0.38332224
   0.33333334  0.66666669  0.95001110
   0.00000000 -0.00000000  0.50000000
   0.66666669  0.33333334  0.83333331
   0.33333334  0.66666669  0.16666667
Al4C3 R-3m - H(P) scan @ 90 GPa (ISIF=8)
           1
     3.025061    0.000000    0.000000
    -1.512530    2.619780    0.000000
     0.000000    0.000000   22.615368
   Al   C 
    12     9
Direct configuration=     8
  -0.00000000 -0.00000000  0.62923366
   0.00000000 -0.00000000  0.37076634
   0.66666669  0.33333334  0.96256697
   0.66666669  0.33333334  0.70409966
   0.33333334  0.66666669  0.29590031
   0.33333334  0.66666669  0.03743301
  -0.00000000  0.00000000  0.20586987
  -0.00000000 -0.00000000  0.79413013
   0.66666669  0.33333334  0.53920318
   0.66666669  0.33333334  0.12746346
   0.33333334  0.66666669  0.87253656
   0.33333334  0.66666669  0.46079679
  -0.00000000  0.00000000  0.71659690
   0.00000000 -0.00000000  0.28340310
   0.66666669  0.33333334  0.04993023
   0.66666669  0.33333334  0.61673642
   0.33333334  0.66666669  0.38326355
   0.33333334  0.66666669  0.95006979
   0.00000000  0.00000000  0.50000000
   0.66666669  0.33333334  0.83333331
   0.33333334  0.66666669  0.16666667
Al4C3 R-3m - H(P) scan @ 90 GPa (ISIF=8)
           1
     3.025126    0.000000    0.000000
    -1.512563    2.619836    0.000000
     0.000000    0.000000   22.615851
   Al   C 
    12     9
Direct configuration=     9
  -0.00000000 -0.00000000  0.62927283
   0.00000000 -0.00000000  0.37072717
   0.66666669  0.33333334  0.96260614
   0.66666669  0.33333334  0.70406048
   0.33333334  0.66666669  0.29593949
   0.33333334  0.66666669  0.03739384
  -0.00000000 -0.00000000  0.20592735
  -0.00000000 -0.00000000  0.79407265
   0.66666669  0.33333334  0.53926066
   0.66666669  0.33333334  0.12740598
   0.33333334  0.66666669  0.87259404
   0.33333334  0.66666669  0.46073931
  -0.00000000 -0.00000000  0.71663469
   0.00000000  0.00000000  0.28336531
   0.66666669  0.33333334  0.04996802
   0.66666669  0.33333334  0.61669862
   0.33333334  0.66666669  0.38330135
   0.33333334  0.66666669  0.95003200
   0.00000000  0.00000000  0.50000000
   0.66666669  0.33333334  0.83333331
   0.33333334  0.66666669  0.16666667
Al4C3 R-3m - H(P) scan @ 90 GPa (ISIF=8)
           1
     3.025113    0.000000    0.000000
    -1.512556    2.619825    0.000000
     0.000000    0.000000   22.615756
   Al   C 
    12     9
Direct configuration=    10
  -0.00000000 -0.00000000  0.62922726
  -0.00000000 -0.00000000  0.37077274
   0.66666669  0.33333334  0.96256057
   0.66666669  0.33333334  0.70410606
   0.33333334  0.66666669  0.29589391
   0.33333334  0.66666669  0.03743941
  -0.00000000  0.00000000  0.20592832
  -0.00000000 -0.00000000  0.79407168
   0.66666669  0.33333334  0.53926163
   0.66666669  0.33333334  0.12740501
   0.33333334  0.66666669  0.87259500
   0.33333334  0.66666669  0.46073834
  -0.00000000 -0.00000000  0.71664402
   0.00000000  0.00000000  0.28335598
   0.66666669  0.33333334  0.04997735
   0.66666669  0.33333334  0.61668930
   0.33333334  0.66666669  0.38331067
   0.33333334  0.66666669  0.95002267
   0.00000000  0.00000000  0.50000000
   0.66666669  0.33333334  0.83333331
   0.33333334  0.66666669  0.16666667
