  28  28   0   0
  0.8927729E+01  0.8793178E-09  0.2965233E-09  0.9587258E-09  0.5000000E-15
  1.000000000000000E-004
  CAR 
 Al4C3 Pnma-III - H(P) scan @ 30 GPa (ISI
     18.45182508     -6.28786534  301     10.45781261      1.00000000
     -6.288  0.0000E+00  0.0000E+00
     -6.205  0.0000E+00  0.0000E+00
     -6.123  0.0000E+00  0.0000E+00
     -6.040  0.0000E+00  0.0000E+00
     -5.958  0.0000E+00  0.0000E+00
     -5.876  0.0000E+00  0.0000E+00
     -5.793  0.0000E+00  0.0000E+00
     -5.711  0.0000E+00  0.0000E+00
     -5.628  0.0000E+00  0.0000E+00
     -5.546  0.0000E+00  0.0000E+00
     -5.463  0.0000E+00  0.0000E+00
     -5.381  0.2682E-12  0.2211E-13
     -5.298  0.4658E-07  0.3841E-08
     -5.216  0.4751E-04  0.3922E-05
     -5.133  0.6504E-03  0.5756E-04
     -5.051  0.2758E-02  0.2850E-03
     -4.968  0.5334E-02  0.7249E-03
     -4.886  0.6021E-02  0.1221E-02
     -4.803  0.5267E-02  0.1656E-02
     -4.721  0.6075E-02  0.2157E-02
     -4.639  0.1072E-01  0.3041E-02
     -4.556  0.1350E-01  0.4154E-02
     -4.474  0.6894E-02  0.4723E-02
     -4.391  0.6221E-02  0.5236E-02
     -4.309  0.1201E-01  0.6226E-02
     -4.226  0.1704E-01  0.7632E-02
     -4.144  0.7458E-02  0.8247E-02
     -4.061  0.9191E-02  0.9005E-02
     -3.979  0.1548E-01  0.1028E-01
     -3.896  0.1970E-01  0.1191E-01
     -3.814  0.1155E-01  0.1286E-01
     -3.731  0.1216E-01  0.1386E-01
     -3.649  0.1568E-01  0.1515E-01
     -3.566  0.1826E-01  0.1666E-01
     -3.484  0.2055E-01  0.1835E-01
     -3.402  0.1428E-01  0.1953E-01
     -3.319  0.1291E-01  0.2060E-01
     -3.237  0.1490E-01  0.2183E-01
     -3.154  0.2342E-01  0.2376E-01
     -3.072  0.1913E-01  0.2533E-01
     -2.989  0.2510E-01  0.2740E-01
     -2.907  0.1821E-01  0.2891E-01
     -2.824  0.8561E-02  0.2961E-01
     -2.742  0.1954E-01  0.3122E-01
     -2.659  0.3355E-01  0.3399E-01
     -2.577  0.2307E-01  0.3589E-01
     -2.494  0.9907E-02  0.3671E-01
     -2.412  0.2191E-01  0.3852E-01
     -2.330  0.3014E-01  0.4100E-01
     -2.247  0.2691E-01  0.4322E-01
     -2.165  0.2585E-01  0.4535E-01
     -2.082  0.3009E-01  0.4783E-01
     -2.000  0.2816E-01  0.5016E-01
     -1.917  0.3611E-01  0.5313E-01
     -1.835  0.2441E-01  0.5515E-01
     -1.752  0.2021E-01  0.5681E-01
     -1.670  0.3088E-01  0.5936E-01
     -1.587  0.2548E-01  0.6146E-01
     -1.505  0.2992E-01  0.6393E-01
     -1.422  0.4599E-01  0.6772E-01
     -1.340  0.3540E-01  0.7064E-01
     -1.257  0.3181E-01  0.7326E-01
     -1.175  0.3004E-01  0.7574E-01
     -1.093  0.4846E-01  0.7974E-01
     -1.010  0.4885E-01  0.8377E-01
     -0.928  0.5538E-01  0.8833E-01
     -0.845  0.5043E-01  0.9249E-01
     -0.763  0.4827E-01  0.9647E-01
     -0.680  0.2862E-01  0.9883E-01
     -0.598  0.3209E-01  0.1015E+00
     -0.515  0.2634E-01  0.1037E+00
     -0.433  0.2075E-01  0.1054E+00
     -0.350  0.3090E-01  0.1079E+00
     -0.268  0.2344E-01  0.1098E+00
     -0.185  0.2619E-01  0.1120E+00
     -0.103  0.1893E-01  0.1136E+00
     -0.020  0.2056E-01  0.1153E+00
      0.062  0.1955E-01  0.1169E+00
      0.144  0.1579E-01  0.1182E+00
      0.227  0.1735E-01  0.1196E+00
      0.309  0.4459E-02  0.1200E+00
      0.392  0.3229E-03  0.1200E+00
      0.474  0.5432E-06  0.1200E+00
      0.557  0.7212E-11  0.1200E+00
      0.639  0.6119E-18  0.1200E+00
      0.722  0.0000E+00  0.1200E+00
      0.804  0.0000E+00  0.1200E+00
      0.887  0.0000E+00  0.1200E+00
      0.969  0.0000E+00  0.1200E+00
      1.052  0.0000E+00  0.1200E+00
      1.134  0.0000E+00  0.1200E+00
      1.217  0.0000E+00  0.1200E+00
      1.299  0.0000E+00  0.1200E+00
      1.381  0.0000E+00  0.1200E+00
      1.464  0.0000E+00  0.1200E+00
      1.546  0.3537E-15  0.1200E+00
      1.629  0.6975E-09  0.1200E+00
      1.711  0.7279E-05  0.1200E+00
      1.794  0.5604E-03  0.1200E+00
      1.876  0.1258E-02  0.1202E+00
      1.959  0.5586E-02  0.1206E+00
      2.041  0.1036E-01  0.1215E+00
      2.124  0.2134E-01  0.1232E+00
      2.206  0.1614E-01  0.1246E+00
      2.289  0.1240E-01  0.1256E+00
      2.371  0.1704E-01  0.1270E+00
      2.453  0.2827E-01  0.1293E+00
      2.536  0.3325E-01  0.1321E+00
      2.618  0.4308E-01  0.1356E+00
      2.701  0.3150E-01  0.1382E+00
      2.783  0.2317E-01  0.1401E+00
      2.866  0.3865E-01  0.1433E+00
      2.948  0.5132E-01  0.1475E+00
      3.031  0.4732E-01  0.1514E+00
      3.113  0.3707E-01  0.1545E+00
      3.196  0.4238E-01  0.1580E+00
      3.278  0.4187E-01  0.1614E+00
      3.361  0.3751E-01  0.1645E+00
      3.443  0.4304E-01  0.1681E+00
      3.526  0.4185E-01  0.1715E+00
      3.608  0.3253E-01  0.1742E+00
      3.690  0.3946E-01  0.1775E+00
      3.773  0.4985E-01  0.1816E+00
      3.855  0.4782E-01  0.1855E+00
      3.938  0.4752E-01  0.1894E+00
      4.020  0.4090E-01  0.1928E+00
      4.103  0.2963E-01  0.1953E+00
      4.185  0.4754E-01  0.1992E+00
      4.268  0.3454E-01  0.2020E+00
      4.350  0.2748E-01  0.2043E+00
      4.433  0.3288E-01  0.2070E+00
      4.515  0.2718E-01  0.2092E+00
      4.598  0.3541E-01  0.2122E+00
      4.680  0.4842E-01  0.2162E+00
      4.763  0.4786E-01  0.2201E+00
      4.845  0.3937E-01  0.2234E+00
      4.927  0.3815E-01  0.2265E+00
      5.010  0.3318E-01  0.2292E+00
      5.092  0.2907E-01  0.2316E+00
      5.175  0.3740E-01  0.2347E+00
      5.257  0.3842E-01  0.2379E+00
      5.340  0.3323E-01  0.2406E+00
      5.422  0.4560E-01  0.2444E+00
      5.505  0.3764E-01  0.2475E+00
      5.587  0.5195E-01  0.2518E+00
      5.670  0.5297E-01  0.2561E+00
      5.752  0.5213E-01  0.2604E+00
      5.835  0.3191E-01  0.2631E+00
      5.917  0.4264E-01  0.2666E+00
      6.000  0.6762E-01  0.2722E+00
      6.082  0.3154E-01  0.2748E+00
      6.164  0.3367E-01  0.2775E+00
      6.247  0.3164E-01  0.2802E+00
      6.329  0.5540E-01  0.2847E+00
      6.412  0.3878E-01  0.2879E+00
      6.494  0.3605E-01  0.2909E+00
      6.577  0.5562E-01  0.2955E+00
      6.659  0.4917E-01  0.2995E+00
      6.742  0.3500E-01  0.3024E+00
      6.824  0.4326E-01  0.3060E+00
      6.907  0.4482E-01  0.3097E+00
      6.989  0.4360E-01  0.3133E+00
      7.072  0.6081E-01  0.3183E+00
      7.154  0.5354E-01  0.3227E+00
      7.236  0.4684E-01  0.3266E+00
      7.319  0.3749E-01  0.3297E+00
      7.401  0.4737E-01  0.3336E+00
      7.484  0.4131E-01  0.3370E+00
      7.566  0.5877E-01  0.3418E+00
      7.649  0.5225E-01  0.3461E+00
      7.731  0.5103E-01  0.3503E+00
      7.814  0.5269E-01  0.3547E+00
      7.896  0.6538E-01  0.3601E+00
      7.979  0.6276E-01  0.3653E+00
      8.061  0.6673E-01  0.3708E+00
      8.144  0.6981E-01  0.3765E+00
      8.226  0.7016E-01  0.3823E+00
      8.309  0.5527E-01  0.3869E+00
      8.391  0.5091E-01  0.3911E+00
      8.473  0.6135E-01  0.3961E+00
      8.556  0.7310E-01  0.4021E+00
      8.638  0.6961E-01  0.4079E+00
      8.721  0.5990E-01  0.4128E+00
      8.803  0.5154E-01  0.4171E+00
      8.886  0.6022E-01  0.4220E+00
      8.968  0.5536E-01  0.4266E+00
      9.051  0.6322E-01  0.4318E+00
      9.133  0.5967E-01  0.4367E+00
      9.216  0.6422E-01  0.4420E+00
      9.298  0.6317E-01  0.4472E+00
      9.381  0.6128E-01  0.4523E+00
      9.463  0.5480E-01  0.4568E+00
      9.546  0.4208E-01  0.4603E+00
      9.628  0.3571E-01  0.4632E+00
      9.710  0.5750E-01  0.4680E+00
      9.793  0.3715E-01  0.4710E+00
      9.875  0.3058E-01  0.4736E+00
      9.958  0.2314E-01  0.4755E+00
     10.040  0.2013E-01  0.4771E+00
     10.123  0.2002E-01  0.4788E+00
     10.205  0.1020E-01  0.4796E+00
     10.288  0.4453E-02  0.4800E+00
     10.370  0.1797E-03  0.4800E+00
     10.453  0.1732E-06  0.4800E+00
     10.535  0.1470E-11  0.4800E+00
     10.618  0.7649E-19  0.4800E+00
     10.700  0.0000E+00  0.4800E+00
     10.783  0.0000E+00  0.4800E+00
     10.865  0.0000E+00  0.4800E+00
     10.947  0.0000E+00  0.4800E+00
     11.030  0.0000E+00  0.4800E+00
     11.112  0.0000E+00  0.4800E+00
     11.195  0.0000E+00  0.4800E+00
     11.277  0.0000E+00  0.4800E+00
     11.360  0.0000E+00  0.4800E+00
     11.442  0.0000E+00  0.4800E+00
     11.525  0.0000E+00  0.4800E+00
     11.607  0.0000E+00  0.4800E+00
     11.690  0.3617E-13  0.4800E+00
     11.772  0.2020E-07  0.4800E+00
     11.855  0.6288E-04  0.4800E+00
     11.937  0.1942E-02  0.4802E+00
     12.020  0.3673E-02  0.4805E+00
     12.102  0.7357E-02  0.4811E+00
     12.184  0.1157E-01  0.4820E+00
     12.267  0.1466E-01  0.4832E+00
     12.349  0.1798E-01  0.4847E+00
     12.432  0.2228E-01  0.4866E+00
     12.514  0.2105E-01  0.4883E+00
     12.597  0.1675E-01  0.4897E+00
     12.679  0.2408E-01  0.4917E+00
     12.762  0.3098E-01  0.4942E+00
     12.844  0.2450E-01  0.4962E+00
     12.927  0.2459E-01  0.4983E+00
     13.009  0.3096E-01  0.5008E+00
     13.092  0.3799E-01  0.5040E+00
     13.174  0.2736E-01  0.5062E+00
     13.256  0.3554E-01  0.5091E+00
     13.339  0.5636E-01  0.5138E+00
     13.421  0.4230E-01  0.5173E+00
     13.504  0.3092E-01  0.5198E+00
     13.586  0.2251E-01  0.5217E+00
     13.669  0.1718E-01  0.5231E+00
     13.751  0.2511E-01  0.5252E+00
     13.834  0.4949E-01  0.5292E+00
     13.916  0.5422E-01  0.5337E+00
     13.999  0.4283E-01  0.5373E+00
     14.081  0.3400E-01  0.5401E+00
     14.164  0.4053E-01  0.5434E+00
     14.246  0.3365E-01  0.5462E+00
     14.329  0.4166E-01  0.5496E+00
     14.411  0.4367E-01  0.5532E+00
     14.493  0.4154E-01  0.5566E+00
     14.576  0.4648E-01  0.5605E+00
     14.658  0.3717E-01  0.5635E+00
     14.741  0.5153E-01  0.5678E+00
     14.823  0.4238E-01  0.5713E+00
     14.906  0.3468E-01  0.5741E+00
     14.988  0.5041E-01  0.5783E+00
     15.071  0.5000E-01  0.5824E+00
     15.153  0.4322E-01  0.5860E+00
     15.236  0.3298E-01  0.5887E+00
     15.318  0.4834E-01  0.5927E+00
     15.401  0.4632E-01  0.5965E+00
     15.483  0.3537E-01  0.5994E+00
     15.566  0.3972E-01  0.6027E+00
     15.648  0.5280E-01  0.6071E+00
     15.730  0.3948E-01  0.6103E+00
     15.813  0.4232E-01  0.6138E+00
     15.895  0.4031E-01  0.6171E+00
     15.978  0.3699E-01  0.6202E+00
     16.060  0.4419E-01  0.6238E+00
     16.143  0.4448E-01  0.6275E+00
     16.225  0.4054E-01  0.6308E+00
     16.308  0.3136E-01  0.6334E+00
     16.390  0.2986E-01  0.6359E+00
     16.473  0.3368E-01  0.6387E+00
     16.555  0.3962E-01  0.6419E+00
     16.638  0.4539E-01  0.6457E+00
     16.720  0.3181E-01  0.6483E+00
     16.803  0.4382E-01  0.6519E+00
     16.885  0.2956E-01  0.6543E+00
     16.967  0.1958E-01  0.6560E+00
     17.050  0.2213E-01  0.6578E+00
     17.132  0.1204E-01  0.6588E+00
     17.215  0.8951E-02  0.6595E+00
     17.297  0.4469E-02  0.6599E+00
     17.380  0.1368E-02  0.6600E+00
     17.462  0.9683E-04  0.6600E+00
     17.545  0.9327E-07  0.6600E+00
     17.627  0.5364E-12  0.6600E+00
     17.710  0.0000E+00  0.6600E+00
     17.792  0.0000E+00  0.6600E+00
     17.875  0.0000E+00  0.6600E+00
     17.957  0.0000E+00  0.6600E+00
     18.039  0.0000E+00  0.6600E+00
     18.122  0.0000E+00  0.6600E+00
     18.204  0.0000E+00  0.6600E+00
     18.287  0.0000E+00  0.6600E+00
     18.369  0.0000E+00  0.6600E+00
     18.452  0.0000E+00  0.6600E+00
