       N       E                     dE             d eps       ncg     rms          rms(c)
DAV:   1    -0.164297635762E+03   -0.16430E+03   -0.78504E-02  7128   0.315E+00    0.167E-02
DAV:   2    -0.164297642268E+03   -0.65056E-05   -0.21922E-06  3942   0.950E-03
   1 F= -.11749076E+03 E0= -.11749076E+03  d E =-.117491E+03
       N       E                     dE             d eps       ncg     rms          rms(c)
DAV:   1    -0.168403102558E+03   -0.41055E+01   -0.16494E+01  7848   0.160E+01    0.431E+00
DAV:   2    -0.167955678533E+03    0.44742E+00   -0.12850E+00  8322   0.348E+00    0.179E+00
DAV:   3    -0.167929758342E+03    0.25920E-01   -0.15119E-01  8436   0.114E+00    0.590E-01
DAV:   4    -0.167924443842E+03    0.53145E-02   -0.13599E-02  8472   0.334E-01    0.210E-01
DAV:   5    -0.167923456347E+03    0.98750E-03   -0.27417E-03  8424   0.152E-01    0.112E-01
DAV:   6    -0.167923307457E+03    0.14889E-03   -0.34818E-04  8388   0.560E-02    0.364E-02
DAV:   7    -0.167923301466E+03    0.59913E-05   -0.68330E-05  8076   0.264E-02
   2 F= -.11724718E+03 E0= -.11724718E+03  d E =0.243585E+00
       N       E                     dE             d eps       ncg     rms          rms(c)
DAV:   1    -0.166286146732E+03    0.16372E+01   -0.58707E+00  7806   0.987E+00    0.252E+00
DAV:   2    -0.166135051035E+03    0.15110E+00   -0.42559E-01  8322   0.203E+00    0.108E+00
DAV:   3    -0.166125408780E+03    0.96423E-02   -0.53294E-02  8442   0.685E-01    0.346E-01
DAV:   4    -0.166123716309E+03    0.16925E-02   -0.42553E-03  8430   0.192E-01    0.124E-01
DAV:   5    -0.166123451597E+03    0.26471E-03   -0.72296E-04  8382   0.805E-02    0.680E-02
DAV:   6    -0.166123421274E+03    0.30324E-04   -0.94664E-05  7998   0.296E-02    0.190E-02
DAV:   7    -0.166123419253E+03    0.20208E-05   -0.16836E-05  4560   0.142E-02
   3 F= -.11774316E+03 E0= -.11774316E+03  d E =-.252397E+00
       N       E                     dE             d eps       ncg     rms          rms(c)
DAV:   1    -0.166106829445E+03    0.16592E-01   -0.32286E-04  8112   0.739E-02    0.194E-02
DAV:   2    -0.166106822688E+03    0.67563E-05   -0.22356E-05  4680   0.154E-02
   4 F= -.11774319E+03 E0= -.11774319E+03  d E =-.252428E+00
       N       E                     dE             d eps       ncg     rms          rms(c)
DAV:   1    -0.166150125875E+03   -0.43296E-01   -0.51142E-01  7140   0.289E+00    0.145E-01
DAV:   2    -0.166149680317E+03    0.44556E-03   -0.85674E-03  8742   0.364E-01    0.911E-02
DAV:   3    -0.166149483789E+03    0.19653E-03   -0.10588E-03  8604   0.126E-01    0.402E-02
DAV:   4    -0.166149483223E+03    0.56570E-06   -0.25511E-04  8556   0.489E-02    0.169E-02
DAV:   5    -0.166149481894E+03    0.13287E-05   -0.28407E-05  6648   0.204E-02
   5 F= -.11775015E+03 E0= -.11775015E+03  d E =-.695629E-02
       N       E                     dE             d eps       ncg     rms          rms(c)
DAV:   1    -0.166159026851E+03   -0.95436E-02   -0.34016E-02  7194   0.746E-01    0.376E-02
DAV:   2    -0.166159002002E+03    0.24849E-04   -0.58144E-04  8754   0.947E-02    0.236E-02
DAV:   3    -0.166158989499E+03    0.12503E-04   -0.66615E-05  8628   0.318E-02    0.110E-02
DAV:   4    -0.166158989415E+03    0.84501E-07   -0.16247E-05  5010   0.125E-02
   6 F= -.11775046E+03 E0= -.11775046E+03  d E =-.726566E-02
       N       E                     dE             d eps       ncg     rms          rms(c)
DAV:   1    -0.166183031327E+03   -0.24042E-01   -0.40160E-01  7128   0.251E+00    0.131E-01
DAV:   2    -0.166182790900E+03    0.24043E-03   -0.96643E-03  8766   0.364E-01    0.865E-02
DAV:   3    -0.166182562855E+03    0.22804E-03   -0.78268E-04  8430   0.113E-01    0.350E-02
DAV:   4    -0.166182575369E+03   -0.12514E-04   -0.27302E-04  8520   0.504E-02    0.165E-02
DAV:   5    -0.166182575658E+03   -0.28889E-06   -0.98800E-06  4482   0.127E-02
   7 F= -.11775323E+03 E0= -.11775323E+03  d E =-.277375E-02
       N       E                     dE             d eps       ncg     rms          rms(c)
DAV:   1    -0.166180528737E+03    0.20466E-02   -0.39368E-03  7164   0.249E-01    0.125E-02
DAV:   2    -0.166180526953E+03    0.17841E-05   -0.96009E-05  8778   0.358E-02
   8 F= -.11775326E+03 E0= -.11775326E+03  d E =-.280588E-02
       N       E                     dE             d eps       ncg     rms          rms(c)
DAV:   1    -0.166182503827E+03   -0.19751E-02   -0.64482E-02  7140   0.102E+00    0.463E-02
DAV:   2    -0.166182539062E+03   -0.35235E-04   -0.13016E-03  8826   0.135E-01    0.322E-02
DAV:   3    -0.166182507949E+03    0.31113E-04   -0.56662E-05  8454   0.333E-02    0.164E-02
DAV:   4    -0.166182504098E+03    0.38517E-05   -0.48643E-05  6798   0.236E-02
   9 F= -.11775389E+03 E0= -.11775389E+03  d E =-.630820E-03
       N       E                     dE             d eps       ncg     rms          rms(c)
DAV:   1    -0.166182890587E+03   -0.38264E-03   -0.44724E-03  7188   0.269E-01    0.138E-02
DAV:   2    -0.166182893883E+03   -0.32965E-05   -0.99482E-05  8916   0.368E-02
  10 F= -.11775393E+03 E0= -.11775393E+03  d E =-.666561E-03
       N       E                     dE             d eps       ncg     rms          rms(c)
DAV:   1    -0.166189876654E+03   -0.69861E-02   -0.19559E-02  7140   0.576E-01    0.258E-02
DAV:   2    -0.166189883267E+03   -0.66133E-05   -0.29327E-04  9048   0.627E-02    0.187E-02
DAV:   3    -0.166189879728E+03    0.35393E-05   -0.13879E-05  5322   0.163E-02
  11 F= -.11775429E+03 E0= -.11775429E+03  d E =-.359041E-03
       N       E                     dE             d eps       ncg     rms          rms(c)
DAV:   1    -0.166191332051E+03   -0.14488E-02   -0.91337E-04  7428   0.125E-01    0.768E-03
DAV:   2    -0.166191332017E+03    0.34272E-07   -0.11317E-05  6114   0.132E-02
  12 F= -.11775430E+03 E0= -.11775430E+03  d E =-.370810E-03
       N       E                     dE             d eps       ncg     rms          rms(c)
DAV:   1    -0.166187679659E+03    0.36524E-02   -0.20975E-02  7140   0.578E-01    0.268E-02
DAV:   2    -0.166187697614E+03   -0.17954E-04   -0.48156E-04  8736   0.829E-02    0.197E-02
DAV:   3    -0.166187688431E+03    0.91827E-05   -0.26124E-05  6504   0.229E-02
  13 F= -.11775452E+03 E0= -.11775452E+03  d E =-.223413E-03
