Al4C3 Pnma (POSCAR.III, symmetrized via 
   1.00000000000000     
     8.7931780422830226    0.0000000000000000    0.0000000000000000
     0.0000000000000000    2.9652324825690832    0.0000000000000000
     0.0000000000000000    0.0000000000000000    9.5872574801406714
   Al   C 
    16    12
Direct
  0.7377885545141637  0.2500000000000000  0.7142798928490729
  0.7622114454858363  0.7500000000000000  0.2142798928490727
  0.2622114454858362  0.7500000000000000  0.2857201071509273
  0.2377885545141637  0.2500000000000000  0.7857201071509271
  0.6066123947228190  0.2500000000000000  0.4716024543061859
  0.8933876052771810  0.7500000000000000  0.9716024543061860
  0.3933876052771810  0.7500000000000000  0.5283975456938140
  0.1066123947228191  0.2500000000000000  0.0283975456938142
  0.1367161428473276  0.2500000000000000  0.5178768826700738
  0.3632838571526723  0.7500000000000000  0.0178768826700738
  0.8632838571526724  0.7500000000000000  0.4821231173299262
  0.6367161428473276  0.2500000000000000  0.9821231173299262
  0.9922483527861674  0.2500000000000000  0.2800183366859831
  0.5077516472138326  0.7500000000000000  0.7800183366859830
  0.0077516472138325  0.7500000000000000  0.7199816633140170
  0.4922483527861674  0.2500000000000000  0.2199816633140170
  0.9285480219694728  0.2500000000000000  0.6191938326280829
  0.5714519780305272  0.7500000000000000  0.1191938326280828
  0.0714519780305273  0.7500000000000000  0.3808061673719173
  0.4285480219694727  0.2500000000000000  0.8808061673719171
  0.3921262624052290  0.2500000000000000  0.4014792144887317
  0.1078737375947710  0.7500000000000000  0.9014792144887244
  0.6078737375947711  0.7500000000000000  0.5985207855112756
  0.8921262624052289  0.2500000000000000  0.0985207855112755
  0.7745136361886098  0.2500000000000000  0.3546387419846385
  0.7254863638113902  0.7500000000000000  0.8546387419846385
  0.2254863638113900  0.7500000000000000  0.6453612580153615
  0.2745136361886100  0.2500000000000000  0.1453612580153614
 
  0.00000000E+00  0.00000000E+00  0.00000000E+00
  0.00000000E+00  0.00000000E+00  0.00000000E+00
  0.00000000E+00  0.00000000E+00  0.00000000E+00
  0.00000000E+00  0.00000000E+00  0.00000000E+00
  0.00000000E+00  0.00000000E+00  0.00000000E+00
  0.00000000E+00  0.00000000E+00  0.00000000E+00
  0.00000000E+00  0.00000000E+00  0.00000000E+00
  0.00000000E+00  0.00000000E+00  0.00000000E+00
  0.00000000E+00  0.00000000E+00  0.00000000E+00
  0.00000000E+00  0.00000000E+00  0.00000000E+00
  0.00000000E+00  0.00000000E+00  0.00000000E+00
  0.00000000E+00  0.00000000E+00  0.00000000E+00
  0.00000000E+00  0.00000000E+00  0.00000000E+00
  0.00000000E+00  0.00000000E+00  0.00000000E+00
  0.00000000E+00  0.00000000E+00  0.00000000E+00
  0.00000000E+00  0.00000000E+00  0.00000000E+00
  0.00000000E+00  0.00000000E+00  0.00000000E+00
  0.00000000E+00  0.00000000E+00  0.00000000E+00
  0.00000000E+00  0.00000000E+00  0.00000000E+00
  0.00000000E+00  0.00000000E+00  0.00000000E+00
  0.00000000E+00  0.00000000E+00  0.00000000E+00
  0.00000000E+00  0.00000000E+00  0.00000000E+00
  0.00000000E+00  0.00000000E+00  0.00000000E+00
  0.00000000E+00  0.00000000E+00  0.00000000E+00
  0.00000000E+00  0.00000000E+00  0.00000000E+00
  0.00000000E+00  0.00000000E+00  0.00000000E+00
  0.00000000E+00  0.00000000E+00  0.00000000E+00
  0.00000000E+00  0.00000000E+00  0.00000000E+00
