Al4C3 Pnma (POSCAR.IV, symmetrized via s
   1.00000000000000     
     8.2582699663847894    0.0000000000000000    0.0000000000000000
     0.0000000000000000    2.8489530619688659    0.0000000000000000
     0.0000000000000000    0.0000000000000000    9.8167574868979557
   Al   C 
    16    12
Direct
  0.2641072785264785  0.2500000000000000  0.2982408687950555
  0.2358927214735214  0.7500000000000000  0.7982408687950557
  0.7358927214735214  0.7500000000000000  0.7017591312049443
  0.7641072785264786  0.2500000000000000  0.2017591312049445
  0.3475130480889139  0.2500000000000000  0.0115010281212175
  0.1524869519110860  0.7500000000000000  0.5115010281212176
  0.6524869519110860  0.7500000000000000  0.9884989718787824
  0.8475130480889140  0.2500000000000000  0.4884989718787826
  0.5217109898077248  0.2500000000000000  0.7940959907311425
  0.9782890101922752  0.7500000000000000  0.2940959907311420
  0.4782890101922757  0.7500000000000000  0.2059040092688580
  0.0217109898077244  0.2500000000000000  0.7059040092688575
  0.0696375552735437  0.2500000000000000  0.0894868994841698
  0.4303624447264633  0.7500000000000000  0.5894868994841697
  0.9303624447264564  0.7500000000000000  0.9105131005158303
  0.5696375552735436  0.2500000000000000  0.4105131005158303
  0.2580586625088935  0.2500000000000000  0.6420150432914429
  0.2419413374911064  0.7500000000000000  0.1420150432914428
  0.7419413374911065  0.7500000000000000  0.3579849567085572
  0.7580586625088935  0.2500000000000000  0.8579849567085571
  0.6032481664144399  0.2500000000000000  0.6082976264218113
  0.8967518335855601  0.7500000000000000  0.1082976264218113
  0.3967518335855600  0.7500000000000000  0.3917023735781887
  0.1032481664144399  0.2500000000000000  0.8917023735781887
  0.0649600612169829  0.2500000000000000  0.3886142450688421
  0.4350399387830171  0.7500000000000000  0.8886142450688420
  0.9350399387830169  0.7500000000000000  0.6113857549311580
  0.5649600612169831  0.2500000000000000  0.1113857549311579
 
  0.00000000E+00  0.00000000E+00  0.00000000E+00
  0.00000000E+00  0.00000000E+00  0.00000000E+00
  0.00000000E+00  0.00000000E+00  0.00000000E+00
  0.00000000E+00  0.00000000E+00  0.00000000E+00
  0.00000000E+00  0.00000000E+00  0.00000000E+00
  0.00000000E+00  0.00000000E+00  0.00000000E+00
  0.00000000E+00  0.00000000E+00  0.00000000E+00
  0.00000000E+00  0.00000000E+00  0.00000000E+00
  0.00000000E+00  0.00000000E+00  0.00000000E+00
  0.00000000E+00  0.00000000E+00  0.00000000E+00
  0.00000000E+00  0.00000000E+00  0.00000000E+00
  0.00000000E+00  0.00000000E+00  0.00000000E+00
  0.00000000E+00  0.00000000E+00  0.00000000E+00
  0.00000000E+00  0.00000000E+00  0.00000000E+00
  0.00000000E+00  0.00000000E+00  0.00000000E+00
  0.00000000E+00  0.00000000E+00  0.00000000E+00
  0.00000000E+00  0.00000000E+00  0.00000000E+00
  0.00000000E+00  0.00000000E+00  0.00000000E+00
  0.00000000E+00  0.00000000E+00  0.00000000E+00
  0.00000000E+00  0.00000000E+00  0.00000000E+00
  0.00000000E+00  0.00000000E+00  0.00000000E+00
  0.00000000E+00  0.00000000E+00  0.00000000E+00
  0.00000000E+00  0.00000000E+00  0.00000000E+00
  0.00000000E+00  0.00000000E+00  0.00000000E+00
  0.00000000E+00  0.00000000E+00  0.00000000E+00
  0.00000000E+00  0.00000000E+00  0.00000000E+00
  0.00000000E+00  0.00000000E+00  0.00000000E+00
  0.00000000E+00  0.00000000E+00  0.00000000E+00
