       N       E                     dE             d eps       ncg     rms          rms(c)
DAV:   1    -0.234857206027E+03   -0.23486E+03   -0.47928E+00  7128   0.103E+01    0.822E+00
DAV:   2    -0.219775491914E+03    0.15082E+02   -0.12759E+00  7998   0.610E+00    0.595E+00
DAV:   3    -0.220122586366E+03   -0.34709E+00   -0.19496E-01  8268   0.199E+00    0.479E+00
DAV:   4    -0.220156719025E+03   -0.34133E-01   -0.97065E-02  8346   0.110E+00    0.958E-01
DAV:   5    -0.220157441919E+03   -0.72289E-03   -0.58661E-03  8442   0.264E-01    0.377E-01
DAV:   6    -0.220157536729E+03   -0.94810E-04   -0.94718E-04  8412   0.116E-01    0.132E-01
DAV:   7    -0.220157551472E+03   -0.14743E-04   -0.38064E-05  6792   0.285E-02    0.830E-02
DAV:   8    -0.220157545997E+03    0.54748E-05   -0.10759E-04  8274   0.433E-02    0.216E-02
DAV:   9    -0.220157530821E+03    0.15176E-04   -0.41387E-06  4470   0.864E-03    0.585E-03
DAV:  10    -0.220157530376E+03    0.44538E-06   -0.10803E-06  4386   0.405E-03
   1 F= -.14727127E+03 E0= -.14727127E+03  d E =-.147271E+03
       N       E                     dE             d eps       ncg     rms          rms(c)
DAV:   1    -0.217758890494E+03    0.23986E+01   -0.32719E+00  7926   0.770E+00    0.170E+00
DAV:   2    -0.217730316802E+03    0.28574E-01   -0.16363E-01  8568   0.141E+00    0.956E-01
DAV:   3    -0.217729405978E+03    0.91082E-03   -0.24668E-02  8190   0.487E-01    0.369E-01
DAV:   4    -0.217729757957E+03   -0.35198E-03   -0.69079E-04  8580   0.112E-01    0.184E-01
DAV:   5    -0.217729750256E+03    0.77008E-05   -0.22397E-04  8232   0.568E-02    0.128E-01
DAV:   6    -0.217729751094E+03   -0.83797E-06   -0.66477E-05  7956   0.450E-02
   2 F= -.14718075E+03 E0= -.14718075E+03  d E =0.905144E-01
       N       E                     dE             d eps       ncg     rms          rms(c)
DAV:   1    -0.219376490026E+03   -0.16467E+01   -0.13516E+00  7926   0.488E+00    0.111E+00
DAV:   2    -0.219367167998E+03    0.93220E-02   -0.70482E-02  8544   0.919E-01    0.621E-01
DAV:   3    -0.219367285960E+03   -0.11796E-03   -0.10500E-02  8202   0.316E-01    0.241E-01
DAV:   4    -0.219367568658E+03   -0.28270E-03   -0.29699E-04  8628   0.741E-02    0.118E-01
DAV:   5    -0.219367581778E+03   -0.13120E-04   -0.99651E-05  8088   0.378E-02    0.818E-02
DAV:   6    -0.219367600399E+03   -0.18621E-04   -0.25811E-05  5196   0.288E-02    0.169E-02
DAV:   7    -0.219367595756E+03    0.46432E-05   -0.54826E-06  4332   0.988E-03
   3 F= -.14730867E+03 E0= -.14730867E+03  d E =-.373983E-01
       N       E                     dE             d eps       ncg     rms          rms(c)
DAV:   1    -0.219356094231E+03    0.11506E-01   -0.73497E-05  7686   0.363E-02    0.134E-02
DAV:   2    -0.219356088176E+03    0.60550E-05   -0.38126E-06  4206   0.715E-03
   4 F= -.14730867E+03 E0= -.14730867E+03  d E =-.373966E-01
       N       E                     dE             d eps       ncg     rms          rms(c)
DAV:   1    -0.219362979606E+03   -0.68854E-02   -0.99079E-02  7176   0.129E+00    0.646E-02
DAV:   2    -0.219363033017E+03   -0.53411E-04   -0.24477E-03  8634   0.196E-01    0.480E-02
DAV:   3    -0.219363004981E+03    0.28036E-04   -0.11819E-04  8388   0.467E-02    0.306E-02
DAV:   4    -0.219362992531E+03    0.12450E-04   -0.66916E-05  8058   0.321E-02    0.123E-02
DAV:   5    -0.219362989464E+03    0.30663E-05   -0.10390E-05  4536   0.130E-02
   5 F= -.14730983E+03 E0= -.14730983E+03  d E =-.116240E-02
       N       E                     dE             d eps       ncg     rms          rms(c)
DAV:   1    -0.219363742180E+03   -0.74965E-03   -0.16173E-03  7464   0.165E-01    0.898E-03
DAV:   2    -0.219363744484E+03   -0.23041E-05   -0.38582E-05  7596   0.251E-02
   6 F= -.14730984E+03 E0= -.14730984E+03  d E =-.117884E-02
       N       E                     dE             d eps       ncg     rms          rms(c)
DAV:   1    -0.219380283335E+03   -0.16541E-01   -0.13624E-01  7152   0.152E+00    0.657E-02
DAV:   2    -0.219380308736E+03   -0.25401E-04   -0.17870E-03  8814   0.170E-01    0.440E-02
DAV:   3    -0.219380276735E+03    0.32001E-04   -0.97554E-05  8538   0.402E-02    0.292E-02
DAV:   4    -0.219380259153E+03    0.17582E-04   -0.92759E-05  8292   0.376E-02    0.766E-03
DAV:   5    -0.219380262294E+03   -0.31405E-05   -0.21335E-05  5058   0.150E-02
   7 F= -.14731041E+03 E0= -.14731041E+03  d E =-.568235E-03
       N       E                     dE             d eps       ncg     rms          rms(c)
DAV:   1    -0.219378741658E+03    0.15175E-02   -0.12422E-03  7224   0.145E-01    0.685E-03
DAV:   2    -0.219378739633E+03    0.20256E-05   -0.14492E-05  5922   0.158E-02
   8 F= -.14731042E+03 E0= -.14731042E+03  d E =-.574815E-03
       N       E                     dE             d eps       ncg     rms          rms(c)
DAV:   1    -0.219380421518E+03   -0.16799E-02   -0.55762E-02  7164   0.965E-01    0.397E-02
DAV:   2    -0.219380441024E+03   -0.19506E-04   -0.82407E-04  8472   0.113E-01    0.285E-02
DAV:   3    -0.219380424506E+03    0.16518E-04   -0.28776E-05  7044   0.236E-02    0.188E-02
DAV:   4    -0.219380412300E+03    0.12206E-04   -0.36713E-05  6810   0.244E-02    0.525E-03
DAV:   5    -0.219380412202E+03    0.98315E-07   -0.85524E-06  4146   0.104E-02
   9 F= -.14731081E+03 E0= -.14731081E+03  d E =-.388348E-03
       N       E                     dE             d eps       ncg     rms          rms(c)
DAV:   1    -0.219381114631E+03   -0.70233E-03   -0.14238E-02  7164   0.488E-01    0.209E-02
DAV:   2    -0.219381117798E+03   -0.31668E-05   -0.21124E-04  8484   0.575E-02    0.147E-02
DAV:   3    -0.219381112611E+03    0.51875E-05   -0.68916E-06  4872   0.122E-02
  10 F= -.14731086E+03 E0= -.14731086E+03  d E =-.440077E-03
       N       E                     dE             d eps       ncg     rms          rms(c)
DAV:   1    -0.219385232025E+03   -0.41142E-02   -0.25020E-02  7170   0.658E-01    0.299E-02
DAV:   2    -0.219385257180E+03   -0.25156E-04   -0.43468E-04  8856   0.790E-02    0.206E-02
DAV:   3    -0.219385253811E+03    0.33692E-05   -0.11436E-05  5352   0.154E-02
  11 F= -.14731116E+03 E0= -.14731116E+03  d E =-.300215E-03
       N       E                     dE             d eps       ncg     rms          rms(c)
DAV:   1    -0.219388229516E+03   -0.29723E-02   -0.14338E-02  7200   0.498E-01    0.247E-02
DAV:   2    -0.219388240163E+03   -0.10646E-04   -0.22057E-04  8880   0.570E-02    0.171E-02
DAV:   3    -0.219388239154E+03    0.10082E-05   -0.76402E-06  4878   0.121E-02
  12 F= -.14731123E+03 E0= -.14731123E+03  d E =-.365898E-03
       N       E                     dE             d eps       ncg     rms          rms(c)
DAV:   1    -0.219393000750E+03   -0.47606E-02   -0.34953E-02  7164   0.767E-01    0.372E-02
DAV:   2    -0.219393009976E+03   -0.92265E-05   -0.53853E-04  8706   0.935E-02    0.245E-02
DAV:   3    -0.219392998851E+03    0.11125E-04   -0.28186E-05  6924   0.229E-02    0.168E-02
DAV:   4    -0.219392993648E+03    0.52033E-05   -0.25894E-05  5880   0.211E-02
  13 F= -.14731137E+03 E0= -.14731137E+03  d E =-.148806E-03
       N       E                     dE             d eps       ncg     rms          rms(c)
DAV:   1    -0.219393207016E+03   -0.20816E-03   -0.86067E-05  7410   0.383E-02    0.452E-03
DAV:   2    -0.219393207175E+03   -0.15869E-06   -0.18049E-06  4086   0.550E-03
  14 F= -.14731138E+03 E0= -.14731138E+03  d E =-.150991E-03
       N       E                     dE             d eps       ncg     rms          rms(c)
DAV:   1    -0.219395613617E+03   -0.24066E-02   -0.64160E-03  7152   0.326E-01    0.153E-02
DAV:   2    -0.219395617544E+03   -0.39264E-05   -0.11852E-04  8910   0.423E-02    0.108E-02
DAV:   3    -0.219395614450E+03    0.30938E-05   -0.34264E-06  4428   0.884E-03
  15 F= -.14731142E+03 E0= -.14731142E+03  d E =-.456365E-04
       N       E                     dE             d eps       ncg     rms          rms(c)
DAV:   1    -0.219395604954E+03    0.12590E-04   -0.70039E-06  3984   0.109E-02    0.216E-03
DAV:   2    -0.219395604727E+03    0.22737E-06   -0.16409E-06  3894   0.526E-03
  16 F= -.14731142E+03 E0= -.14731142E+03  d E =-.427756E-04
       N       E                     dE             d eps       ncg     rms          rms(c)
DAV:   1    -0.219389298646E+03    0.63063E-02   -0.52952E-03  7152   0.297E-01    0.131E-02
DAV:   2    -0.219389298033E+03    0.61308E-06   -0.80514E-05  8736   0.354E-02
  17 F= -.14731144E+03 E0= -.14731144E+03  d E =-.236810E-04
