Al4C3 Pnma - r2SCAN H(P) scan @ 50 GPa (
           1
     8.289029    0.000000    0.000000
     0.000000    2.859565    0.000000
     0.000000    0.000000    9.853322
   Al   C 
    16    12
Direct configuration=     1
   0.26293127  0.25000000  0.29819342
   0.23706873  0.75000000  0.79819342
   0.73706873  0.75000000  0.70180658
   0.76293127  0.25000000  0.20180658
   0.34690304  0.25000000  0.01121671
   0.15309696  0.75000000  0.51121671
   0.65309696  0.75000000  0.98878329
   0.84690304  0.25000000  0.48878329
   0.52250091  0.25000000  0.79425364
   0.97749909  0.75000000  0.29425364
   0.47749909  0.75000000  0.20574636
   0.02250091  0.25000000  0.70574636
   0.06895905  0.25000000  0.08948059
   0.43104095  0.75000000  0.58948059
   0.93104095  0.75000000  0.91051941
   0.56895905  0.25000000  0.41051941
   0.25922352  0.25000000  0.64192263
   0.24077648  0.75000000  0.14192263
   0.74077648  0.75000000  0.35807737
   0.75922352  0.25000000  0.85807737
   0.60435317  0.25000000  0.60818299
   0.89564683  0.75000000  0.10818299
   0.39564683  0.75000000  0.39181701
   0.10435317  0.25000000  0.89181701
   0.06417601  0.25000000  0.38912724
   0.43582399  0.75000000  0.88912724
   0.93582399  0.75000000  0.61087276
   0.56417601  0.25000000  0.11087276
Al4C3 Pnma - r2SCAN H(P) scan @ 50 GPa (
           1
     8.199463    0.000000    0.000000
     0.000000    2.828666    0.000000
     0.000000    0.000000    9.746852
   Al   C 
    16    12
Direct configuration=     2
   0.26307812  0.25000000  0.29814579
   0.23692188  0.75000000  0.79814579
   0.73692188  0.75000000  0.70185421
   0.76307812  0.25000000  0.20185421
   0.34711484  0.25000000  0.01131155
   0.15288516  0.75000000  0.51131155
   0.65288516  0.75000000  0.98868845
   0.84711484  0.25000000  0.48868845
   0.52262919  0.25000000  0.79443083
   0.97737081  0.75000000  0.29443083
   0.47737081  0.75000000  0.20556917
   0.02262919  0.25000000  0.70556917
   0.06898982  0.25000000  0.08952839
   0.43101018  0.75000000  0.58952839
   0.93101018  0.75000000  0.91047161
   0.56898982  0.25000000  0.41047161
   0.25873306  0.25000000  0.64212320
   0.24126694  0.75000000  0.14212320
   0.74126694  0.75000000  0.35787680
   0.75873306  0.25000000  0.85787680
   0.60385312  0.25000000  0.60843583
   0.89614688  0.75000000  0.10843583
   0.39614688  0.75000000  0.39156417
   0.10385312  0.25000000  0.89156417
   0.06424449  0.25000000  0.38842115
   0.43575551  0.75000000  0.88842115
   0.93575551  0.75000000  0.61157885
   0.56424449  0.25000000  0.11157885
Al4C3 Pnma - r2SCAN H(P) scan @ 50 GPa (
           1
     8.257547    0.000000    0.000000
     0.000000    2.848704    0.000000
     0.000000    0.000000    9.815898
   Al   C 
    16    12
Direct configuration=     3
   0.26298184  0.25000000  0.29817701
   0.23701816  0.75000000  0.79817701
   0.73701816  0.75000000  0.70182299
   0.76298184  0.25000000  0.20182299
   0.34697599  0.25000000  0.01124937
   0.15302401  0.75000000  0.51124937
   0.65302401  0.75000000  0.98875063
   0.84697599  0.25000000  0.48875063
   0.52254509  0.25000000  0.79431466
   0.97745491  0.75000000  0.29431466
   0.47745491  0.75000000  0.20568534
   0.02254509  0.25000000  0.70568534
   0.06896965  0.25000000  0.08949705
   0.43103035  0.75000000  0.58949705
   0.93103035  0.75000000  0.91050295
   0.56896965  0.25000000  0.41050295
   0.25905460  0.25000000  0.64199171
   0.24094540  0.75000000  0.14199171
   0.74094540  0.75000000  0.35800829
   0.75905460  0.25000000  0.85800829
   0.60418095  0.25000000  0.60827007
   0.89581905  0.75000000  0.10827007
   0.39581905  0.75000000  0.39172993
   0.10418095  0.25000000  0.89172993
   0.06419960  0.25000000  0.38888405
   0.43580040  0.75000000  0.88888405
   0.93580040  0.75000000  0.61111595
   0.56419960  0.25000000  0.11111595
Al4C3 Pnma - r2SCAN H(P) scan @ 50 GPa (
           1
     8.257108    0.000000    0.000000
     0.000000    2.848552    0.000000
     0.000000    0.000000    9.815376
   Al   C 
    16    12
Direct configuration=     4
   0.26298257  0.25000000  0.29817678
   0.23701743  0.75000000  0.79817678
   0.73701743  0.75000000  0.70182322
   0.76298257  0.25000000  0.20182322
   0.34697703  0.25000000  0.01124984
   0.15302297  0.75000000  0.51124984
   0.65302297  0.75000000  0.98875016
   0.84697703  0.25000000  0.48875016
   0.52254572  0.25000000  0.79431554
   0.97745428  0.75000000  0.29431554
   0.47745428  0.75000000  0.20568446
   0.02254572  0.25000000  0.70568446
   0.06896980  0.25000000  0.08949729
   0.43103020  0.75000000  0.58949729
   0.93103020  0.75000000  0.91050271
   0.56896980  0.25000000  0.41050271
   0.25905218  0.25000000  0.64199270
   0.24094782  0.75000000  0.14199270
   0.74094782  0.75000000  0.35800730
   0.75905218  0.25000000  0.85800730
   0.60417848  0.25000000  0.60827132
   0.89582152  0.75000000  0.10827132
   0.39582152  0.75000000  0.39172868
   0.10417848  0.25000000  0.89172868
   0.06419993  0.25000000  0.38888058
   0.43580007  0.75000000  0.88888058
   0.93580007  0.75000000  0.61111942
   0.56419993  0.25000000  0.11111942
Al4C3 Pnma - r2SCAN H(P) scan @ 50 GPa (
           1
     8.257327    0.000000    0.000000
     0.000000    2.848628    0.000000
     0.000000    0.000000    9.815636
   Al   C 
    16    12
Direct configuration=     5
   0.26329007  0.25000000  0.29805097
   0.23670993  0.75000000  0.79805097
   0.73670993  0.75000000  0.70194903
   0.76329007  0.25000000  0.20194903
   0.34696563  0.25000000  0.01128589
   0.15303437  0.75000000  0.51128589
   0.65303437  0.75000000  0.98871411
   0.84696563  0.25000000  0.48871411
   0.52262550  0.25000000  0.79420984
   0.97737450  0.75000000  0.29420984
   0.47737450  0.75000000  0.20579016
   0.02262550  0.25000000  0.70579016
   0.06902390  0.25000000  0.08966115
   0.43097610  0.75000000  0.58966115
   0.93097610  0.75000000  0.91033885
   0.56902390  0.25000000  0.41033885
   0.25881975  0.25000000  0.64204142
   0.24118025  0.75000000  0.14204142
   0.74118025  0.75000000  0.35795858
   0.75881975  0.25000000  0.85795858
   0.60399364  0.25000000  0.60826774
   0.89600636  0.75000000  0.10826774
   0.39600636  0.75000000  0.39173226
   0.10399364  0.25000000  0.89173226
   0.06426376  0.25000000  0.38870435
   0.43573624  0.75000000  0.88870435
   0.93573624  0.75000000  0.61129565
   0.56426376  0.25000000  0.11129565
Al4C3 Pnma - r2SCAN H(P) scan @ 50 GPa (
           1
     8.257355    0.000000    0.000000
     0.000000    2.848637    0.000000
     0.000000    0.000000    9.815670
   Al   C 
    16    12
Direct configuration=     6
   0.26332964  0.25000000  0.29803478
   0.23667036  0.75000000  0.79803478
   0.73667036  0.75000000  0.70196522
   0.76332964  0.25000000  0.20196522
   0.34696417  0.25000000  0.01129053
   0.15303583  0.75000000  0.51129053
   0.65303583  0.75000000  0.98870947
   0.84696417  0.25000000  0.48870947
   0.52263577  0.25000000  0.79419624
   0.97736423  0.75000000  0.29419624
   0.47736423  0.75000000  0.20580376
   0.02263577  0.25000000  0.70580376
   0.06903086  0.25000000  0.08968224
   0.43096914  0.75000000  0.58968224
   0.93096914  0.75000000  0.91031776
   0.56903086  0.25000000  0.41031776
   0.25878984  0.25000000  0.64204770
   0.24121016  0.75000000  0.14204770
   0.74121016  0.75000000  0.35795230
   0.75878984  0.25000000  0.85795230
   0.60396985  0.25000000  0.60826728
   0.89603015  0.75000000  0.10826728
   0.39603015  0.75000000  0.39173272
   0.10396985  0.25000000  0.89173272
   0.06427197  0.25000000  0.38868167
   0.43572803  0.75000000  0.88868167
   0.93572803  0.75000000  0.61131833
   0.56427197  0.25000000  0.11131833
Al4C3 Pnma - r2SCAN H(P) scan @ 50 GPa (
           1
     8.257964    0.000000    0.000000
     0.000000    2.848848    0.000000
     0.000000    0.000000    9.816394
   Al   C 
    16    12
Direct configuration=     7
   0.26345803  0.25000000  0.29804932
   0.23654197  0.75000000  0.79804932
   0.73654197  0.75000000  0.70195068
   0.76345803  0.25000000  0.20195068
   0.34707230  0.25000000  0.01121646
   0.15292770  0.75000000  0.51121646
   0.65292770  0.75000000  0.98878354
   0.84707230  0.25000000  0.48878354
   0.52248623  0.25000000  0.79426272
   0.97751377  0.75000000  0.29426272
   0.47751377  0.75000000  0.20573728
   0.02248623  0.25000000  0.70573728
   0.06913148  0.25000000  0.08974482
   0.43086852  0.75000000  0.58974482
   0.93086852  0.75000000  0.91025518
   0.56913148  0.25000000  0.41025518
   0.25854635  0.25000000  0.64202700
   0.24145365  0.75000000  0.14202700
   0.74145365  0.75000000  0.35797300
   0.75854635  0.25000000  0.85797300
   0.60378450  0.25000000  0.60815447
   0.89621550  0.75000000  0.10815447
   0.39621550  0.75000000  0.39184553
   0.10378450  0.25000000  0.89184553
   0.06446814  0.25000000  0.38847239
   0.43553186  0.75000000  0.88847239
   0.93553186  0.75000000  0.61152761
   0.56446814  0.25000000  0.11152761
Al4C3 Pnma - r2SCAN H(P) scan @ 50 GPa (
           1
     8.257906    0.000000    0.000000
     0.000000    2.848827    0.000000
     0.000000    0.000000    9.816325
   Al   C 
    16    12
Direct configuration=     8
   0.26344572  0.25000000  0.29804793
   0.23655428  0.75000000  0.79804793
   0.73655428  0.75000000  0.70195207
   0.76344572  0.25000000  0.20195207
   0.34706193  0.25000000  0.01122356
   0.15293807  0.75000000  0.51122356
   0.65293807  0.75000000  0.98877644
   0.84706193  0.25000000  0.48877644
   0.52250057  0.25000000  0.79425635
   0.97749943  0.75000000  0.29425635
   0.47749943  0.75000000  0.20574365
   0.02250057  0.25000000  0.70574365
   0.06912183  0.25000000  0.08973882
   0.43087817  0.75000000  0.58973882
   0.93087817  0.75000000  0.91026118
   0.56912183  0.25000000  0.41026118
   0.25856969  0.25000000  0.64202898
   0.24143031  0.75000000  0.14202898
   0.74143031  0.75000000  0.35797102
   0.75856969  0.25000000  0.85797102
   0.60380227  0.25000000  0.60816528
   0.89619773  0.75000000  0.10816528
   0.39619773  0.75000000  0.39183472
   0.10380227  0.25000000  0.89183472
   0.06444933  0.25000000  0.38849245
   0.43555067  0.75000000  0.88849245
   0.93555067  0.75000000  0.61150755
   0.56444933  0.25000000  0.11150755
Al4C3 Pnma - r2SCAN H(P) scan @ 50 GPa (
           1
     8.257955    0.000000    0.000000
     0.000000    2.848844    0.000000
     0.000000    0.000000    9.816383
   Al   C 
    16    12
Direct configuration=     9
   0.26365859  0.25000000  0.29811391
   0.23634141  0.75000000  0.79811391
   0.73634141  0.75000000  0.70188609
   0.76365859  0.25000000  0.20188609
   0.34715091  0.25000000  0.01116796
   0.15284909  0.75000000  0.51116796
   0.65284909  0.75000000  0.98883204
   0.84715091  0.25000000  0.48883204
   0.52240003  0.25000000  0.79422871
   0.97759997  0.75000000  0.29422871
   0.47759997  0.75000000  0.20577129
   0.02240003  0.25000000  0.70577129
   0.06923514  0.25000000  0.08967213
   0.43076486  0.75000000  0.58967213
   0.93076486  0.75000000  0.91032787
   0.56923514  0.25000000  0.41032787
   0.25836208  0.25000000  0.64196935
   0.24163792  0.75000000  0.14196935
   0.74163792  0.75000000  0.35803065
   0.75836208  0.25000000  0.85803065
   0.60369563  0.25000000  0.60817123
   0.89630437  0.75000000  0.10817123
   0.39630437  0.75000000  0.39182877
   0.10369563  0.25000000  0.89182877
   0.06460682  0.25000000  0.38851557
   0.43539318  0.75000000  0.88851557
   0.93539318  0.75000000  0.61148443
   0.56460682  0.25000000  0.11148443
Al4C3 Pnma - r2SCAN H(P) scan @ 50 GPa (
           1
     8.257980    0.000000    0.000000
     0.000000    2.848853    0.000000
     0.000000    0.000000    9.816412
   Al   C 
    16    12
Direct configuration=    10
   0.26376611  0.25000000  0.29814724
   0.23623389  0.75000000  0.79814724
   0.73623389  0.75000000  0.70185276
   0.76376611  0.25000000  0.20185276
   0.34719586  0.25000000  0.01113987
   0.15280414  0.75000000  0.51113987
   0.65280414  0.75000000  0.98886013
   0.84719586  0.25000000  0.48886013
   0.52234925  0.25000000  0.79421475
   0.97765075  0.75000000  0.29421475
   0.47765075  0.75000000  0.20578525
   0.02234925  0.25000000  0.70578525
   0.06929237  0.25000000  0.08963844
   0.43070763  0.75000000  0.58963844
   0.93070763  0.75000000  0.91036156
   0.56929237  0.25000000  0.41036156
   0.25825721  0.25000000  0.64193923
   0.24174279  0.75000000  0.14193923
   0.74174279  0.75000000  0.35806077
   0.75825721  0.25000000  0.85806077
   0.60364176  0.25000000  0.60817424
   0.89635824  0.75000000  0.10817424
   0.39635824  0.75000000  0.39182576
   0.10364176  0.25000000  0.89182576
   0.06468636  0.25000000  0.38852725
   0.43531364  0.75000000  0.88852725
   0.93531364  0.75000000  0.61147275
   0.56468636  0.25000000  0.11147275
Al4C3 Pnma - r2SCAN H(P) scan @ 50 GPa (
           1
     8.258126    0.000000    0.000000
     0.000000    2.848904    0.000000
     0.000000    0.000000    9.816587
   Al   C 
    16    12
Direct configuration=    11
   0.26387248  0.25000000  0.29816206
   0.23612752  0.75000000  0.79816206
   0.73612752  0.75000000  0.70183794
   0.76387248  0.25000000  0.20183794
   0.34727363  0.25000000  0.01122937
   0.15272637  0.75000000  0.51122937
   0.65272637  0.75000000  0.98877063
   0.84727363  0.25000000  0.48877063
   0.52218262  0.25000000  0.79421284
   0.97781738  0.75000000  0.29421284
   0.47781738  0.75000000  0.20578716
   0.02218262  0.25000000  0.70578716
   0.06948920  0.25000000  0.08960304
   0.43051080  0.75000000  0.58960304
   0.93051080  0.75000000  0.91039696
   0.56948920  0.25000000  0.41039696
   0.25818635  0.25000000  0.64190327
   0.24181365  0.75000000  0.14190327
   0.74181365  0.75000000  0.35809673
   0.75818635  0.25000000  0.85809673
   0.60351624  0.25000000  0.60826052
   0.89648376  0.75000000  0.10826052
   0.39648376  0.75000000  0.39173948
   0.10351624  0.25000000  0.89173948
   0.06474415  0.25000000  0.38855963
   0.43525585  0.75000000  0.88855963
   0.93525585  0.75000000  0.61144037
   0.56474415  0.25000000  0.11144037
Al4C3 Pnma - r2SCAN H(P) scan @ 50 GPa (
           1
     8.258238    0.000000    0.000000
     0.000000    2.848942    0.000000
     0.000000    0.000000    9.816719
   Al   C 
    16    12
Direct configuration=    12
   0.26395333  0.25000000  0.29817333
   0.23604667  0.75000000  0.79817333
   0.73604667  0.75000000  0.70182667
   0.76395333  0.25000000  0.20182667
   0.34733275  0.25000000  0.01129739
   0.15266725  0.75000000  0.51129739
   0.65266725  0.75000000  0.98870261
   0.84733275  0.25000000  0.48870261
   0.52205597  0.25000000  0.79421139
   0.97794403  0.75000000  0.29421139
   0.47794403  0.75000000  0.20578861
   0.02205597  0.25000000  0.70578861
   0.06963881  0.25000000  0.08957614
   0.43036119  0.75000000  0.58957614
   0.93036119  0.75000000  0.91042386
   0.56963881  0.25000000  0.41042386
   0.25813249  0.25000000  0.64187594
   0.24186751  0.75000000  0.14187594
   0.74186751  0.75000000  0.35812406
   0.75813249  0.25000000  0.85812406
   0.60342083  0.25000000  0.60832610
   0.89657917  0.75000000  0.10832610
   0.39657917  0.75000000  0.39167390
   0.10342083  0.25000000  0.89167390
   0.06478808  0.25000000  0.38858424
   0.43521192  0.75000000  0.88858424
   0.93521192  0.75000000  0.61141576
   0.56478808  0.25000000  0.11141576
Al4C3 Pnma - r2SCAN H(P) scan @ 50 GPa (
           1
     8.258414    0.000000    0.000000
     0.000000    2.849003    0.000000
     0.000000    0.000000    9.816928
   Al   C 
    16    12
Direct configuration=    13
   0.26401501  0.25000000  0.29822377
   0.23598499  0.75000000  0.79822377
   0.73598499  0.75000000  0.70177623
   0.76401501  0.25000000  0.20177623
   0.34746658  0.25000000  0.01139717
   0.15253342  0.75000000  0.51139717
   0.65253342  0.75000000  0.98860283
   0.84746658  0.25000000  0.48860283
   0.52186686  0.25000000  0.79416455
   0.97813314  0.75000000  0.29416455
   0.47813314  0.75000000  0.20583545
   0.02186686  0.25000000  0.70583545
   0.06965097  0.25000000  0.08949572
   0.43034903  0.75000000  0.58949572
   0.93034903  0.75000000  0.91050428
   0.56965097  0.25000000  0.41050428
   0.25810563  0.25000000  0.64190110
   0.24189437  0.75000000  0.14190110
   0.74189437  0.75000000  0.35809890
   0.75810563  0.25000000  0.85809890
   0.60324316  0.25000000  0.60837754
   0.89675684  0.75000000  0.10837754
   0.39675684  0.75000000  0.39162246
   0.10324316  0.25000000  0.89162246
   0.06490592  0.25000000  0.38859762
   0.43509408  0.75000000  0.88859762
   0.93509408  0.75000000  0.61140238
   0.56490592  0.25000000  0.11140238
Al4C3 Pnma - r2SCAN H(P) scan @ 50 GPa (
           1
     8.258422    0.000000    0.000000
     0.000000    2.849005    0.000000
     0.000000    0.000000    9.816938
   Al   C 
    16    12
Direct configuration=    14
   0.26401784  0.25000000  0.29822608
   0.23598216  0.75000000  0.79822608
   0.73598216  0.75000000  0.70177392
   0.76401784  0.25000000  0.20177392
   0.34747272  0.25000000  0.01140175
   0.15252728  0.75000000  0.51140175
   0.65252728  0.75000000  0.98859825
   0.84747272  0.25000000  0.48859825
   0.52185818  0.25000000  0.79416240
   0.97814182  0.75000000  0.29416240
   0.47814182  0.75000000  0.20583760
   0.02185818  0.25000000  0.70583760
   0.06965153  0.25000000  0.08949203
   0.43034847  0.75000000  0.58949203
   0.93034847  0.75000000  0.91050797
   0.56965153  0.25000000  0.41050797
   0.25810440  0.25000000  0.64190226
   0.24189560  0.75000000  0.14190226
   0.74189560  0.75000000  0.35809774
   0.75810440  0.25000000  0.85809774
   0.60323501  0.25000000  0.60837990
   0.89676499  0.75000000  0.10837990
   0.39676499  0.75000000  0.39162010
   0.10323501  0.25000000  0.89162010
   0.06491132  0.25000000  0.38859823
   0.43508868  0.75000000  0.88859823
   0.93508868  0.75000000  0.61140177
   0.56491132  0.25000000  0.11140177
Al4C3 Pnma - r2SCAN H(P) scan @ 50 GPa (
           1
     8.258512    0.000000    0.000000
     0.000000    2.849037    0.000000
     0.000000    0.000000    9.817045
   Al   C 
    16    12
Direct configuration=    15
   0.26409512  0.25000000  0.29822494
   0.23590488  0.75000000  0.79822494
   0.73590488  0.75000000  0.70177506
   0.76409512  0.25000000  0.20177506
   0.34749651  0.25000000  0.01146160
   0.15250349  0.75000000  0.51146160
   0.65250349  0.75000000  0.98853840
   0.84749651  0.25000000  0.48853840
   0.52179998  0.25000000  0.79411614
   0.97820002  0.75000000  0.29411614
   0.47820002  0.75000000  0.20588386
   0.02179998  0.25000000  0.70588386
   0.06962872  0.25000000  0.08947280
   0.43037128  0.75000000  0.58947280
   0.93037128  0.75000000  0.91052720
   0.56962872  0.25000000  0.41052720
   0.25807459  0.25000000  0.64196208
   0.24192541  0.75000000  0.14196208
   0.74192541  0.75000000  0.35803792
   0.75807459  0.25000000  0.85803792
   0.60323573  0.25000000  0.60834082
   0.89676427  0.75000000  0.10834082
   0.39676427  0.75000000  0.39165918
   0.10323573  0.25000000  0.89165918
   0.06493226  0.25000000  0.38862066
   0.43506774  0.75000000  0.88862066
   0.93506774  0.75000000  0.61137934
   0.56493226  0.25000000  0.11137934
Al4C3 Pnma - r2SCAN H(P) scan @ 50 GPa (
           1
     8.258512    0.000000    0.000000
     0.000000    2.849036    0.000000
     0.000000    0.000000    9.817045
   Al   C 
    16    12
Direct configuration=    16
   0.26409490  0.25000000  0.29822494
   0.23590510  0.75000000  0.79822494
   0.73590510  0.75000000  0.70177506
   0.76409490  0.25000000  0.20177506
   0.34749644  0.25000000  0.01146143
   0.15250356  0.75000000  0.51146143
   0.65250356  0.75000000  0.98853857
   0.84749644  0.25000000  0.48853857
   0.52180015  0.25000000  0.79411627
   0.97819985  0.75000000  0.29411627
   0.47819985  0.75000000  0.20588373
   0.02180015  0.25000000  0.70588373
   0.06962879  0.25000000  0.08947286
   0.43037121  0.75000000  0.58947286
   0.93037121  0.75000000  0.91052714
   0.56962879  0.25000000  0.41052714
   0.25807468  0.25000000  0.64196191
   0.24192532  0.75000000  0.14196191
   0.74192532  0.75000000  0.35803809
   0.75807468  0.25000000  0.85803809
   0.60323573  0.25000000  0.60834094
   0.89676427  0.75000000  0.10834094
   0.39676427  0.75000000  0.39165906
   0.10323573  0.25000000  0.89165906
   0.06493220  0.25000000  0.38862060
   0.43506780  0.75000000  0.88862060
   0.93506780  0.75000000  0.61137940
   0.56493220  0.25000000  0.11137940
Al4C3 Pnma - r2SCAN H(P) scan @ 50 GPa (
           1
     8.258270    0.000000    0.000000
     0.000000    2.848953    0.000000
     0.000000    0.000000    9.816757
   Al   C 
    16    12
Direct configuration=    17
   0.26410728  0.25000000  0.29824087
   0.23589272  0.75000000  0.79824087
   0.73589272  0.75000000  0.70175913
   0.76410728  0.25000000  0.20175913
   0.34751305  0.25000000  0.01150103
   0.15248695  0.75000000  0.51150103
   0.65248695  0.75000000  0.98849897
   0.84751305  0.25000000  0.48849897
   0.52171099  0.25000000  0.79409599
   0.97828901  0.75000000  0.29409599
   0.47828901  0.75000000  0.20590401
   0.02171099  0.25000000  0.70590401
   0.06963756  0.25000000  0.08948690
   0.43036244  0.75000000  0.58948690
   0.93036244  0.75000000  0.91051310
   0.56963756  0.25000000  0.41051310
   0.25805866  0.25000000  0.64201504
   0.24194134  0.75000000  0.14201504
   0.74194134  0.75000000  0.35798496
   0.75805866  0.25000000  0.85798496
   0.60324817  0.25000000  0.60829763
   0.89675183  0.75000000  0.10829763
   0.39675183  0.75000000  0.39170237
   0.10324817  0.25000000  0.89170237
   0.06496006  0.25000000  0.38861425
   0.43503994  0.75000000  0.88861425
   0.93503994  0.75000000  0.61138575
   0.56496006  0.25000000  0.11138575
