Al4C3 anti-CaFe2O4-type, volume pre-scal
   1.00000000000000     
     2.7408646942834909    0.0000000000000000    0.0000000000000000
     0.0000000000000000    8.3733646515548354    0.0000000000000000
     0.0000000000000000    0.0000000000000000    9.7132416883139250
   Al   C 
    16    12
Direct
  0.2500000000000000  0.4275384645397937  0.5890620749698525
  0.7500000000000000  0.5724615354602062  0.4109379250301474
  0.2500000000000000  0.9275384645397938  0.9109379250301475
  0.7500000000000000  0.0724615354602063  0.0890620749698526
  0.2500000000000000  0.4772439586958995  0.2061031081726958
  0.7500000000000000  0.5227560413041004  0.7938968918273038
  0.2500000000000000  0.9772439586958996  0.2938968918273042
  0.7500000000000000  0.0227560413041004  0.7061031081726962
  0.2500000000000000  0.1520744314568895  0.5128581782947730
  0.7500000000000000  0.8479255685431035  0.4871418217052265
  0.2500000000000000  0.6520744314568965  0.9871418217052270
  0.7500000000000000  0.3479255685431107  0.0128581782947734
  0.7500000000000000  0.2633113821689505  0.2989057838662988
  0.2500000000000000  0.7366886178310500  0.7010942161337012
  0.2500000000000000  0.2366886178310497  0.7989057838662988
  0.7500000000000000  0.7633113821689500  0.2010942161337012
  0.7500000000000000  0.7566688702731286  0.8586181206603490
  0.2500000000000000  0.2433311297268716  0.1413818793396509
  0.7500000000000000  0.2566688702731285  0.6413818793396510
  0.2500000000000000  0.7433311297268714  0.3586181206603493
  0.2500000000000000  0.9325952430754180  0.6103134870060702
  0.7500000000000000  0.5674047569245820  0.1103134870060703
  0.2500000000000000  0.4325952430754177  0.8896865129939298
  0.7500000000000000  0.0674047569245822  0.3896865129939295
  0.7500000000000000  0.1010866442640312  0.8908715405847226
  0.2500000000000000  0.8989133557359689  0.1091284594152773
  0.7500000000000000  0.6010866442640311  0.6091284594152774
  0.2500000000000000  0.3989133557359688  0.3908715405847226
 
  0.00000000E+00  0.00000000E+00  0.00000000E+00
  0.00000000E+00  0.00000000E+00  0.00000000E+00
  0.00000000E+00  0.00000000E+00  0.00000000E+00
  0.00000000E+00  0.00000000E+00  0.00000000E+00
  0.00000000E+00  0.00000000E+00  0.00000000E+00
  0.00000000E+00  0.00000000E+00  0.00000000E+00
  0.00000000E+00  0.00000000E+00  0.00000000E+00
  0.00000000E+00  0.00000000E+00  0.00000000E+00
  0.00000000E+00  0.00000000E+00  0.00000000E+00
  0.00000000E+00  0.00000000E+00  0.00000000E+00
  0.00000000E+00  0.00000000E+00  0.00000000E+00
  0.00000000E+00  0.00000000E+00  0.00000000E+00
  0.00000000E+00  0.00000000E+00  0.00000000E+00
  0.00000000E+00  0.00000000E+00  0.00000000E+00
  0.00000000E+00  0.00000000E+00  0.00000000E+00
  0.00000000E+00  0.00000000E+00  0.00000000E+00
  0.00000000E+00  0.00000000E+00  0.00000000E+00
  0.00000000E+00  0.00000000E+00  0.00000000E+00
  0.00000000E+00  0.00000000E+00  0.00000000E+00
  0.00000000E+00  0.00000000E+00  0.00000000E+00
  0.00000000E+00  0.00000000E+00  0.00000000E+00
  0.00000000E+00  0.00000000E+00  0.00000000E+00
  0.00000000E+00  0.00000000E+00  0.00000000E+00
  0.00000000E+00  0.00000000E+00  0.00000000E+00
  0.00000000E+00  0.00000000E+00  0.00000000E+00
  0.00000000E+00  0.00000000E+00  0.00000000E+00
  0.00000000E+00  0.00000000E+00  0.00000000E+00
  0.00000000E+00  0.00000000E+00  0.00000000E+00
