       N       E                     dE             d eps       ncg     rms          rms(c)
DAV:   1    -0.150401053403E+03   -0.15040E+03   -0.43686E+02  9810   0.413E+01    0.493E+00
DAV:   2    -0.157166346600E+03   -0.67653E+01   -0.66653E+01  9900   0.144E+01    0.155E+00
DAV:   3    -0.157348897844E+03   -0.18255E+00   -0.20000E+00  9906   0.247E+00    0.152E+00
DAV:   4    -0.157344153762E+03    0.47441E-02   -0.25452E-02  9870   0.475E-01    0.114E+00
DAV:   5    -0.157343853323E+03    0.30044E-03   -0.54982E-04 10278   0.795E-02    0.955E-01
DAV:   6    -0.157343367883E+03    0.48544E-03   -0.14111E-04  9792   0.350E-02    0.845E-01
DAV:   7    -0.157342239003E+03    0.11289E-02   -0.12335E-03  9774   0.103E-01    0.481E-01
DAV:   8    -0.157342121964E+03    0.11704E-03   -0.83700E-05  9474   0.309E-02    0.409E-01
DAV:   9    -0.157342030862E+03    0.91102E-04   -0.18624E-05  5538   0.140E-02    0.357E-01
DAV:  10    -0.157341792512E+03    0.23835E-03   -0.43781E-04  9678   0.620E-02    0.134E-01
DAV:  11    -0.157341762759E+03    0.29753E-04   -0.96195E-05  9594   0.308E-02    0.266E-02
DAV:  12    -0.157341761847E+03    0.91107E-06   -0.32738E-06  5070   0.666E-03
   1 F= -.58050068E+02 E0= -.58050068E+02  d E =-.580501E+02
       N       E                     dE             d eps       ncg     rms          rms(c)
DAV:   1    -0.150021313237E+03    0.73204E+01   -0.14113E+01  9450   0.160E+01    0.397E+00
DAV:   2    -0.149701732240E+03    0.31958E+00   -0.81953E-01  9660   0.298E+00    0.188E+00
DAV:   3    -0.149672210781E+03    0.29521E-01   -0.13912E-01  9552   0.114E+00    0.530E-01
DAV:   4    -0.149668692919E+03    0.35179E-02   -0.74858E-03  9864   0.283E-01    0.182E-01
DAV:   5    -0.149668155071E+03    0.53785E-03   -0.67868E-04  9792   0.943E-02    0.111E-01
DAV:   6    -0.149668096542E+03    0.58529E-04   -0.17120E-04  9672   0.450E-02    0.159E-02
DAV:   7    -0.149668093029E+03    0.35132E-05   -0.14128E-05  5706   0.205E-02
   2 F= -.57464368E+02 E0= -.57464368E+02  d E =0.585701E+00
       N       E                     dE             d eps       ncg     rms          rms(c)
DAV:   1    -0.155348944021E+03   -0.56808E+01   -0.62472E+00  9402   0.103E+01    0.270E+00
DAV:   2    -0.155199523544E+03    0.14942E+00   -0.38708E-01  9738   0.201E+00    0.125E+00
DAV:   3    -0.155186484094E+03    0.13039E-01   -0.62426E-02  9546   0.748E-01    0.363E-01
DAV:   4    -0.155184659359E+03    0.18247E-02   -0.38172E-03  9918   0.197E-01    0.120E-01
DAV:   5    -0.155184322640E+03    0.33672E-03   -0.40305E-04  9816   0.702E-02    0.714E-02
DAV:   6    -0.155184265882E+03    0.56758E-04   -0.92698E-05  9426   0.323E-02    0.125E-02
DAV:   7    -0.155184260626E+03    0.52567E-05   -0.73803E-06  5202   0.147E-02
   3 F= -.58221947E+02 E0= -.58221947E+02  d E =-.171879E+00
       N       E                     dE             d eps       ncg     rms          rms(c)
DAV:   1    -0.155148101997E+03    0.36164E-01   -0.35787E-04  9456   0.780E-02    0.211E-02
DAV:   2    -0.155148096123E+03    0.58740E-05   -0.21249E-05  5382   0.153E-02
   4 F= -.58221992E+02 E0= -.58221992E+02  d E =-.171924E+00
       N       E                     dE             d eps       ncg     rms          rms(c)
DAV:   1    -0.155143124584E+03    0.49774E-02   -0.36957E-06  4926   0.742E-03    0.569E-03
DAV:   2    -0.155143125273E+03   -0.68920E-06   -0.65546E-07  4770   0.263E-03
   5 F= -.58221994E+02 E0= -.58221994E+02  d E =-.171925E+00
       N       E                     dE             d eps       ncg     rms          rms(c)
DAV:   1    -0.155145396923E+03   -0.22723E-02   -0.16098E-06  4740   0.543E-03    0.104E-03
DAV:   2    -0.155145396888E+03    0.35307E-07   -0.10357E-07  4662   0.129E-03
   6 F= -.58221995E+02 E0= -.58221995E+02  d E =-.171926E+00
       N       E                     dE             d eps       ncg     rms          rms(c)
DAV:   1    -0.155104498105E+03    0.40899E-01   -0.28719E-01  8370   0.221E+00    0.122E-01
DAV:   2    -0.155104449724E+03    0.48380E-04   -0.54567E-03 10062   0.284E-01    0.816E-02
DAV:   3    -0.155104265440E+03    0.18428E-03   -0.48201E-04  9840   0.902E-02    0.341E-02
DAV:   4    -0.155104257856E+03    0.75845E-05   -0.14941E-04  9918   0.441E-02    0.176E-02
DAV:   5    -0.155104256862E+03    0.99375E-06   -0.17625E-05  5928   0.156E-02
   7 F= -.58224790E+02 E0= -.58224790E+02  d E =-.279495E-02
       N       E                     dE             d eps       ncg     rms          rms(c)
DAV:   1    -0.155109395684E+03   -0.51378E-02   -0.37792E-03  8406   0.254E-01    0.139E-02
DAV:   2    -0.155109395445E+03    0.23960E-06   -0.70919E-05 10074   0.320E-02
   8 F= -.58224839E+02 E0= -.58224839E+02  d E =-.284393E-02
       N       E                     dE             d eps       ncg     rms          rms(c)
DAV:   1    -0.155100301423E+03    0.90943E-02   -0.22211E-01  8358   0.188E+00    0.975E-02
DAV:   2    -0.155100134773E+03    0.16665E-03   -0.46430E-03 10164   0.265E-01    0.585E-02
DAV:   3    -0.155100025251E+03    0.10952E-03   -0.33993E-04  9660   0.757E-02    0.252E-02
DAV:   4    -0.155100025475E+03   -0.22409E-06   -0.11556E-04  9450   0.343E-02    0.106E-02
DAV:   5    -0.155100025549E+03   -0.74235E-07   -0.55932E-06  5112   0.901E-03
   9 F= -.58226129E+02 E0= -.58226129E+02  d E =-.128977E-02
       N       E                     dE             d eps       ncg     rms          rms(c)
DAV:   1    -0.155101347278E+03   -0.13218E-02   -0.32421E-03  8394   0.228E-01    0.115E-02
DAV:   2    -0.155101345384E+03    0.18934E-05   -0.67629E-05 10098   0.319E-02
  10 F= -.58226155E+02 E0= -.58226155E+02  d E =-.131624E-02
       N       E                     dE             d eps       ncg     rms          rms(c)
DAV:   1    -0.155083473823E+03    0.17873E-01   -0.56414E-02  8352   0.974E-01    0.457E-02
DAV:   2    -0.155083498013E+03   -0.24190E-04   -0.12219E-03 10200   0.134E-01    0.318E-02
DAV:   3    -0.155083476420E+03    0.21593E-04   -0.60041E-05  9750   0.319E-02    0.170E-02
DAV:   4    -0.155083472004E+03    0.44162E-05   -0.32685E-05  6678   0.204E-02
  11 F= -.58226672E+02 E0= -.58226672E+02  d E =-.517415E-03
       N       E                     dE             d eps       ncg     rms          rms(c)
DAV:   1    -0.155083000091E+03    0.47633E-03   -0.42452E-05  8052   0.274E-02    0.399E-03
DAV:   2    -0.155083000168E+03   -0.77534E-07   -0.25012E-06  4860   0.611E-03
  12 F= -.58226673E+02 E0= -.58226673E+02  d E =-.518256E-03
       N       E                     dE             d eps       ncg     rms          rms(c)
DAV:   1    -0.155091587316E+03   -0.85872E-02   -0.16523E-02  8352   0.522E-01    0.227E-02
DAV:   2    -0.155091589336E+03   -0.20203E-05   -0.22300E-04 10038   0.582E-02    0.147E-02
DAV:   3    -0.155091581675E+03    0.76614E-05   -0.14367E-05  6186   0.171E-02
  13 F= -.58226902E+02 E0= -.58226902E+02  d E =-.228420E-03
       N       E                     dE             d eps       ncg     rms          rms(c)
DAV:   1    -0.155100308920E+03   -0.87196E-02   -0.17560E-02  8364   0.539E-01    0.238E-02
DAV:   2    -0.155100310896E+03   -0.19759E-05   -0.22813E-04 10074   0.588E-02    0.152E-02
DAV:   3    -0.155100303246E+03    0.76500E-05   -0.13782E-05  6174   0.169E-02
  14 F= -.58226979E+02 E0= -.58226979E+02  d E =-.305493E-03
       N       E                     dE             d eps       ncg     rms          rms(c)
DAV:   1    -0.155059564010E+03    0.40747E-01   -0.22748E-02  8376   0.614E-01    0.339E-02
DAV:   2    -0.155059559293E+03    0.47178E-05   -0.29115E-04 10200   0.665E-02    0.188E-02
DAV:   3    -0.155059551925E+03    0.73671E-05   -0.27489E-05  7770   0.213E-02
  15 F= -.58227115E+02 E0= -.58227115E+02  d E =-.135728E-03
       N       E                     dE             d eps       ncg     rms          rms(c)
DAV:   1    -0.155057245638E+03    0.23137E-02   -0.79006E-05  8892   0.368E-02    0.428E-03
DAV:   2    -0.155057245930E+03   -0.29206E-06   -0.10930E-06  4836   0.421E-03
  16 F= -.58227116E+02 E0= -.58227116E+02  d E =-.137656E-03
       N       E                     dE             d eps       ncg     rms          rms(c)
DAV:   1    -0.155087238530E+03   -0.29993E-01   -0.15581E-02  8388   0.510E-01    0.262E-02
DAV:   2    -0.155087230356E+03    0.81737E-05   -0.20807E-04 10212   0.576E-02    0.160E-02
DAV:   3    -0.155087223042E+03    0.73143E-05   -0.16027E-05  5976   0.165E-02
  17 F= -.58227217E+02 E0= -.58227217E+02  d E =-.100859E-03
       N       E                     dE             d eps       ncg     rms          rms(c)
DAV:   1    -0.155092253173E+03   -0.50228E-02   -0.43137E-04  8790   0.850E-02    0.531E-03
DAV:   2    -0.155092252274E+03    0.89828E-06   -0.39983E-06  5568   0.870E-03
  18 F= -.58227219E+02 E0= -.58227219E+02  d E =-.102089E-03
       N       E                     dE             d eps       ncg     rms          rms(c)
DAV:   1    -0.155084448892E+03    0.78043E-02   -0.55245E-03  8370   0.304E-01    0.163E-02
DAV:   2    -0.155084446158E+03    0.27337E-05   -0.83453E-05 10236   0.360E-02
  19 F= -.58227274E+02 E0= -.58227274E+02  d E =-.559123E-04
