Al4C3 Pnma - H(P) scan @ 70 GPa (ISIF=8)
           1
     8.213913    0.000000    0.000000
     0.000000    2.833651    0.000000
     0.000000    0.000000    9.764029
   Al   C 
    16    12
Direct configuration=     1
   0.26239905  0.25000000  0.29777386
   0.23760095  0.75000000  0.79777386
   0.73760095  0.75000000  0.70222614
   0.76239905  0.25000000  0.20222614
   0.34577010  0.25000000  0.01104973
   0.15422990  0.75000000  0.51104973
   0.65422990  0.75000000  0.98895027
   0.84577010  0.25000000  0.48895027
   0.52254174  0.25000000  0.79400115
   0.97745826  0.75000000  0.29400115
   0.47745826  0.75000000  0.20599885
   0.02254174  0.25000000  0.70599885
   0.06799080  0.25000000  0.08997590
   0.43200920  0.75000000  0.58997590
   0.93200920  0.75000000  0.91002410
   0.56799080  0.25000000  0.41002410
   0.26025942  0.25000000  0.64218022
   0.23974058  0.75000000  0.14218022
   0.73974058  0.75000000  0.35781978
   0.76025942  0.25000000  0.85781978
   0.60561121  0.25000000  0.60763922
   0.89438879  0.75000000  0.10763922
   0.39438879  0.75000000  0.39236078
   0.10561121  0.25000000  0.89236078
   0.06360625  0.25000000  0.38952713
   0.43639375  0.75000000  0.88952713
   0.93639375  0.75000000  0.61047287
   0.56360625  0.25000000  0.11047287
Al4C3 Pnma - H(P) scan @ 70 GPa (ISIF=8)
           1
     8.013617    0.000000    0.000000
     0.000000    2.764552    0.000000
     0.000000    0.000000    9.525934
   Al   C 
    16    12
Direct configuration=     2
   0.26238665  0.25000000  0.29774857
   0.23761335  0.75000000  0.79774857
   0.73761335  0.75000000  0.70225143
   0.76238665  0.25000000  0.20225143
   0.34577936  0.25000000  0.01102639
   0.15422064  0.75000000  0.51102639
   0.65422064  0.75000000  0.98897361
   0.84577936  0.25000000  0.48897361
   0.52257837  0.25000000  0.79398288
   0.97742163  0.75000000  0.29398288
   0.47742163  0.75000000  0.20601712
   0.02257837  0.25000000  0.70601712
   0.06797687  0.25000000  0.08999862
   0.43202313  0.75000000  0.58999862
   0.93202313  0.75000000  0.91000138
   0.56797687  0.25000000  0.41000138
   0.26024222  0.25000000  0.64219273
   0.23975778  0.75000000  0.14219273
   0.73975778  0.75000000  0.35780727
   0.76024222  0.25000000  0.85780727
   0.60559977  0.25000000  0.60764735
   0.89440023  0.75000000  0.10764735
   0.39440023  0.75000000  0.39235265
   0.10559977  0.25000000  0.89235265
   0.06364099  0.25000000  0.38951850
   0.43635901  0.75000000  0.88951850
   0.93635901  0.75000000  0.61048150
   0.56364099  0.25000000  0.11048150
Al4C3 Pnma - H(P) scan @ 70 GPa (ISIF=8)
           1
     8.149171    0.000000    0.000000
     0.000000    2.811316    0.000000
     0.000000    0.000000    9.687070
   Al   C 
    16    12
Direct configuration=     3
   0.26239525  0.25000000  0.29776611
   0.23760475  0.75000000  0.79776611
   0.73760475  0.75000000  0.70223389
   0.76239525  0.25000000  0.20223389
   0.34577294  0.25000000  0.01104258
   0.15422706  0.75000000  0.51104258
   0.65422706  0.75000000  0.98895742
   0.84577294  0.25000000  0.48895742
   0.52255296  0.25000000  0.79399555
   0.97744704  0.75000000  0.29399555
   0.47744704  0.75000000  0.20600445
   0.02255296  0.25000000  0.70600445
   0.06798654  0.25000000  0.08998286
   0.43201346  0.75000000  0.58998286
   0.93201346  0.75000000  0.91001714
   0.56798654  0.25000000  0.41001714
   0.26025415  0.25000000  0.64218405
   0.23974585  0.75000000  0.14218405
   0.73974585  0.75000000  0.35781595
   0.76025415  0.25000000  0.85781595
   0.60560770  0.25000000  0.60764171
   0.89439230  0.75000000  0.10764171
   0.39439230  0.75000000  0.39235829
   0.10560770  0.25000000  0.89235829
   0.06361689  0.25000000  0.38952449
   0.43638311  0.75000000  0.88952449
   0.93638311  0.75000000  0.61047551
   0.56361689  0.25000000  0.11047551
Al4C3 Pnma - H(P) scan @ 70 GPa (ISIF=8)
           1
     8.148157    0.000000    0.000000
     0.000000    2.810966    0.000000
     0.000000    0.000000    9.685864
   Al   C 
    16    12
Direct configuration=     4
   0.26239519  0.25000000  0.29776598
   0.23760481  0.75000000  0.79776598
   0.73760481  0.75000000  0.70223402
   0.76239519  0.25000000  0.20223402
   0.34577298  0.25000000  0.01104246
   0.15422702  0.75000000  0.51104246
   0.65422702  0.75000000  0.98895754
   0.84577298  0.25000000  0.48895754
   0.52255315  0.25000000  0.79399546
   0.97744685  0.75000000  0.29399546
   0.47744685  0.75000000  0.20600454
   0.02255315  0.25000000  0.70600454
   0.06798646  0.25000000  0.08998297
   0.43201354  0.75000000  0.58998297
   0.93201354  0.75000000  0.91001703
   0.56798646  0.25000000  0.41001703
   0.26025407  0.25000000  0.64218412
   0.23974593  0.75000000  0.14218412
   0.73974593  0.75000000  0.35781588
   0.76025407  0.25000000  0.85781588
   0.60560764  0.25000000  0.60764175
   0.89439236  0.75000000  0.10764175
   0.39439236  0.75000000  0.39235825
   0.10560764  0.25000000  0.89235825
   0.06361707  0.25000000  0.38952444
   0.43638293  0.75000000  0.88952444
   0.93638293  0.75000000  0.61047556
   0.56361707  0.25000000  0.11047556
Al4C3 Pnma - H(P) scan @ 70 GPa (ISIF=8)
           1
     8.148017    0.000000    0.000000
     0.000000    2.810918    0.000000
     0.000000    0.000000    9.685698
   Al   C 
    16    12
Direct configuration=     5
   0.26239518  0.25000000  0.29776597
   0.23760482  0.75000000  0.79776597
   0.73760482  0.75000000  0.70223403
   0.76239518  0.25000000  0.20223403
   0.34577299  0.25000000  0.01104245
   0.15422701  0.75000000  0.51104245
   0.65422701  0.75000000  0.98895755
   0.84577299  0.25000000  0.48895755
   0.52255317  0.25000000  0.79399545
   0.97744683  0.75000000  0.29399545
   0.47744683  0.75000000  0.20600455
   0.02255317  0.25000000  0.70600455
   0.06798645  0.25000000  0.08998299
   0.43201355  0.75000000  0.58998299
   0.93201355  0.75000000  0.91001701
   0.56798645  0.25000000  0.41001701
   0.26025405  0.25000000  0.64218413
   0.23974595  0.75000000  0.14218413
   0.73974595  0.75000000  0.35781587
   0.76025405  0.25000000  0.85781587
   0.60560764  0.25000000  0.60764176
   0.89439236  0.75000000  0.10764176
   0.39439236  0.75000000  0.39235824
   0.10560764  0.25000000  0.89235824
   0.06361709  0.25000000  0.38952444
   0.43638291  0.75000000  0.88952444
   0.93638291  0.75000000  0.61047556
   0.56361709  0.25000000  0.11047556
Al4C3 Pnma - H(P) scan @ 70 GPa (ISIF=8)
           1
     8.148081    0.000000    0.000000
     0.000000    2.810940    0.000000
     0.000000    0.000000    9.685774
   Al   C 
    16    12
Direct configuration=     6
   0.26239518  0.25000000  0.29776598
   0.23760482  0.75000000  0.79776598
   0.73760482  0.75000000  0.70223402
   0.76239518  0.25000000  0.20223402
   0.34577299  0.25000000  0.01104245
   0.15422701  0.75000000  0.51104245
   0.65422701  0.75000000  0.98895755
   0.84577299  0.25000000  0.48895755
   0.52255316  0.25000000  0.79399545
   0.97744684  0.75000000  0.29399545
   0.47744684  0.75000000  0.20600455
   0.02255316  0.25000000  0.70600455
   0.06798646  0.25000000  0.08998298
   0.43201354  0.75000000  0.58998298
   0.93201354  0.75000000  0.91001702
   0.56798646  0.25000000  0.41001702
   0.26025406  0.25000000  0.64218412
   0.23974594  0.75000000  0.14218412
   0.73974594  0.75000000  0.35781588
   0.76025406  0.25000000  0.85781588
   0.60560764  0.25000000  0.60764176
   0.89439236  0.75000000  0.10764176
   0.39439236  0.75000000  0.39235824
   0.10560764  0.25000000  0.89235824
   0.06361708  0.25000000  0.38952444
   0.43638292  0.75000000  0.88952444
   0.93638292  0.75000000  0.61047556
   0.56361708  0.25000000  0.11047556
Al4C3 Pnma - H(P) scan @ 70 GPa (ISIF=8)
           1
     8.146849    0.000000    0.000000
     0.000000    2.810515    0.000000
     0.000000    0.000000    9.684310
   Al   C 
    16    12
Direct configuration=     7
   0.26261925  0.25000000  0.29755349
   0.23738075  0.75000000  0.79755349
   0.73738075  0.75000000  0.70244651
   0.76261925  0.25000000  0.20244651
   0.34539689  0.25000000  0.01103288
   0.15460311  0.75000000  0.51103288
   0.65460311  0.75000000  0.98896712
   0.84539689  0.25000000  0.48896712
   0.52246843  0.25000000  0.79365340
   0.97753157  0.75000000  0.29365340
   0.47753157  0.75000000  0.20634660
   0.02246843  0.25000000  0.70634660
   0.06792165  0.25000000  0.09030434
   0.43207835  0.75000000  0.59030434
   0.93207835  0.75000000  0.90969566
   0.56792165  0.25000000  0.40969566
   0.26047559  0.25000000  0.64216806
   0.23952441  0.75000000  0.14216806
   0.73952441  0.75000000  0.35783194
   0.76047559  0.25000000  0.85783194
   0.60595632  0.25000000  0.60737758
   0.89404368  0.75000000  0.10737758
   0.39404368  0.75000000  0.39262242
   0.10595632  0.25000000  0.89262242
   0.06355825  0.25000000  0.38985977
   0.43644175  0.75000000  0.88985977
   0.93644175  0.75000000  0.61014023
   0.56355825  0.25000000  0.11014023
Al4C3 Pnma - H(P) scan @ 70 GPa (ISIF=8)
           1
     8.146992    0.000000    0.000000
     0.000000    2.810564    0.000000
     0.000000    0.000000    9.684480
   Al   C 
    16    12
Direct configuration=     8
   0.26259329  0.25000000  0.29757811
   0.23740671  0.75000000  0.79757811
   0.73740671  0.75000000  0.70242189
   0.76259329  0.25000000  0.20242189
   0.34544047  0.25000000  0.01103399
   0.15455953  0.75000000  0.51103399
   0.65455953  0.75000000  0.98896601
   0.84544047  0.25000000  0.48896601
   0.52247825  0.25000000  0.79369304
   0.97752175  0.75000000  0.29369304
   0.47752175  0.75000000  0.20630696
   0.02247825  0.25000000  0.70630696
   0.06792916  0.25000000  0.09026710
   0.43207084  0.75000000  0.59026710
   0.93207084  0.75000000  0.90973290
   0.56792916  0.25000000  0.40973290
   0.26044992  0.25000000  0.64216992
   0.23955008  0.75000000  0.14216992
   0.73955008  0.75000000  0.35783008
   0.76044992  0.25000000  0.85783008
   0.60591591  0.25000000  0.60740819
   0.89408409  0.75000000  0.10740819
   0.39408409  0.75000000  0.39259181
   0.10591591  0.25000000  0.89259181
   0.06356507  0.25000000  0.38982091
   0.43643493  0.75000000  0.88982091
   0.93643493  0.75000000  0.61017909
   0.56356507  0.25000000  0.11017909
Al4C3 Pnma - H(P) scan @ 70 GPa (ISIF=8)
           1
     8.146693    0.000000    0.000000
     0.000000    2.810461    0.000000
     0.000000    0.000000    9.684124
   Al   C 
    16    12
Direct configuration=     9
   0.26240363  0.25000000  0.29751666
   0.23759637  0.75000000  0.79751666
   0.73759637  0.75000000  0.70248334
   0.76240363  0.25000000  0.20248334
   0.34514517  0.25000000  0.01095224
   0.15485483  0.75000000  0.51095224
   0.65485483  0.75000000  0.98904776
   0.84514517  0.25000000  0.48904776
   0.52210277  0.25000000  0.79370158
   0.97789723  0.75000000  0.29370158
   0.47789723  0.75000000  0.20629842
   0.02210277  0.25000000  0.70629842
   0.06768752  0.25000000  0.09043245
   0.43231248  0.75000000  0.59043245
   0.93231248  0.75000000  0.90956755
   0.56768752  0.25000000  0.40956755
   0.26067629  0.25000000  0.64227231
   0.23932371  0.75000000  0.14227231
   0.73932371  0.75000000  0.35772769
   0.76067629  0.25000000  0.85772769
   0.60624953  0.25000000  0.60710497
   0.89375047  0.75000000  0.10710497
   0.39375047  0.75000000  0.39289503
   0.10624953  0.25000000  0.89289503
   0.06352736  0.25000000  0.38979563
   0.43647264  0.75000000  0.88979563
   0.93647264  0.75000000  0.61020437
   0.56352736  0.25000000  0.11020437
Al4C3 Pnma - H(P) scan @ 70 GPa (ISIF=8)
           1
     8.146730    0.000000    0.000000
     0.000000    2.810474    0.000000
     0.000000    0.000000    9.684167
   Al   C 
    16    12
Direct configuration=    10
   0.26242664  0.25000000  0.29752411
   0.23757336  0.75000000  0.79752411
   0.73757336  0.75000000  0.70247589
   0.76242664  0.25000000  0.20247589
   0.34518101  0.25000000  0.01096216
   0.15481899  0.75000000  0.51096216
   0.65481899  0.75000000  0.98903784
   0.84518101  0.25000000  0.48903784
   0.52214833  0.25000000  0.79370055
   0.97785167  0.75000000  0.29370055
   0.47785167  0.75000000  0.20629945
   0.02214833  0.25000000  0.70629945
   0.06771684  0.25000000  0.09041239
   0.43228316  0.75000000  0.59041239
   0.93228316  0.75000000  0.90958761
   0.56771684  0.25000000  0.40958761
   0.26064882  0.25000000  0.64225988
   0.23935118  0.75000000  0.14225988
   0.73935118  0.75000000  0.35774012
   0.76064882  0.25000000  0.85774012
   0.60620905  0.25000000  0.60714177
   0.89379095  0.75000000  0.10714177
   0.39379095  0.75000000  0.39285823
   0.10620905  0.25000000  0.89285823
   0.06353194  0.25000000  0.38979870
   0.43646806  0.75000000  0.88979870
   0.93646806  0.75000000  0.61020130
   0.56353194  0.25000000  0.11020130
Al4C3 Pnma - H(P) scan @ 70 GPa (ISIF=8)
           1
     8.146214    0.000000    0.000000
     0.000000    2.810296    0.000000
     0.000000    0.000000    9.683555
   Al   C 
    16    12
Direct configuration=    11
   0.26236928  0.25000000  0.29749256
   0.23763072  0.75000000  0.79749256
   0.73763072  0.75000000  0.70250744
   0.76236928  0.25000000  0.20250744
   0.34501035  0.25000000  0.01095966
   0.15498965  0.75000000  0.51095966
   0.65498965  0.75000000  0.98904034
   0.84501035  0.25000000  0.48904034
   0.52213515  0.25000000  0.79365070
   0.97786485  0.75000000  0.29365070
   0.47786485  0.75000000  0.20634930
   0.02213515  0.25000000  0.70634930
   0.06739738  0.25000000  0.09036768
   0.43260262  0.75000000  0.59036768
   0.93260262  0.75000000  0.90963232
   0.56739738  0.25000000  0.40963232
   0.26074270  0.25000000  0.64242085
   0.23925730  0.75000000  0.14242085
   0.73925730  0.75000000  0.35757915
   0.76074270  0.25000000  0.85757915
   0.60638507  0.25000000  0.60716488
   0.89361493  0.75000000  0.10716488
   0.39361493  0.75000000  0.39283512
   0.10638507  0.25000000  0.89283512
   0.06343665  0.25000000  0.38980368
   0.43656335  0.75000000  0.88980368
   0.93656335  0.75000000  0.61019632
   0.56343665  0.25000000  0.11019632
Al4C3 Pnma - H(P) scan @ 70 GPa (ISIF=8)
           1
     8.146201    0.000000    0.000000
     0.000000    2.810291    0.000000
     0.000000    0.000000    9.683539
   Al   C 
    16    12
Direct configuration=    12
   0.26236781  0.25000000  0.29749175
   0.23763219  0.75000000  0.79749175
   0.73763219  0.75000000  0.70250825
   0.76236781  0.25000000  0.20250825
   0.34500596  0.25000000  0.01095959
   0.15499404  0.75000000  0.51095959
   0.65499404  0.75000000  0.98904041
   0.84500596  0.25000000  0.48904041
   0.52213481  0.25000000  0.79364942
   0.97786519  0.75000000  0.29364942
   0.47786519  0.75000000  0.20635058
   0.02213481  0.25000000  0.70635058
   0.06738917  0.25000000  0.09036653
   0.43261083  0.75000000  0.59036653
   0.93261083  0.75000000  0.90963347
   0.56738917  0.25000000  0.40963347
   0.26074511  0.25000000  0.64242499
   0.23925489  0.75000000  0.14242499
   0.73925489  0.75000000  0.35757501
   0.76074511  0.25000000  0.85757501
   0.60638959  0.25000000  0.60716548
   0.89361041  0.75000000  0.10716548
   0.39361041  0.75000000  0.39283452
   0.10638959  0.25000000  0.89283452
   0.06343420  0.25000000  0.38980380
   0.43656580  0.75000000  0.88980380
   0.93656580  0.75000000  0.61019620
   0.56343420  0.25000000  0.11019620
Al4C3 Pnma - H(P) scan @ 70 GPa (ISIF=8)
           1
     8.146435    0.000000    0.000000
     0.000000    2.810372    0.000000
     0.000000    0.000000    9.683817
   Al   C 
    16    12
Direct configuration=    13
   0.26223698  0.25000000  0.29743480
   0.23776302  0.75000000  0.79743480
   0.73776302  0.75000000  0.70256520
   0.76223698  0.25000000  0.20256520
   0.34497624  0.25000000  0.01100119
   0.15502376  0.75000000  0.51100119
   0.65502376  0.75000000  0.98899881
   0.84497624  0.25000000  0.48899881
   0.52222732  0.25000000  0.79367509
   0.97777268  0.75000000  0.29367509
   0.47777268  0.75000000  0.20632491
   0.02222732  0.25000000  0.70632491
   0.06732316  0.25000000  0.09036498
   0.43267684  0.75000000  0.59036498
   0.93267684  0.75000000  0.90963502
   0.56732316  0.25000000  0.40963502
   0.26087136  0.25000000  0.64246140
   0.23912864  0.75000000  0.14246140
   0.73912864  0.75000000  0.35753860
   0.76087136  0.25000000  0.85753860
   0.60643623  0.25000000  0.60716626
   0.89356377  0.75000000  0.10716626
   0.39356377  0.75000000  0.39283374
   0.10643623  0.25000000  0.89283374
   0.06337371  0.25000000  0.38984102
   0.43662629  0.75000000  0.88984102
   0.93662629  0.75000000  0.61015898
   0.56337371  0.25000000  0.11015898
Al4C3 Pnma - H(P) scan @ 70 GPa (ISIF=8)
           1
     8.146677    0.000000    0.000000
     0.000000    2.810456    0.000000
     0.000000    0.000000    9.684105
   Al   C 
    16    12
Direct configuration=    14
   0.26210160  0.25000000  0.29737588
   0.23789840  0.75000000  0.79737588
   0.73789840  0.75000000  0.70262412
   0.76210160  0.25000000  0.20262412
   0.34494548  0.25000000  0.01104423
   0.15505452  0.75000000  0.51104423
   0.65505452  0.75000000  0.98895577
   0.84494548  0.25000000  0.48895577
   0.52232304  0.25000000  0.79370164
   0.97767696  0.75000000  0.29370164
   0.47767696  0.75000000  0.20629836
   0.02232304  0.25000000  0.70629836
   0.06725485  0.25000000  0.09036337
   0.43274515  0.75000000  0.59036337
   0.93274515  0.75000000  0.90963663
   0.56725485  0.25000000  0.40963663
   0.26100201  0.25000000  0.64249907
   0.23899799  0.75000000  0.14249907
   0.73899799  0.75000000  0.35750093
   0.76100201  0.25000000  0.85750093
   0.60648449  0.25000000  0.60716706
   0.89351551  0.75000000  0.10716706
   0.39351551  0.75000000  0.39283294
   0.10648449  0.25000000  0.89283294
   0.06331112  0.25000000  0.38987952
   0.43668888  0.75000000  0.88987952
   0.93668888  0.75000000  0.61012048
   0.56331112  0.25000000  0.11012048
Al4C3 Pnma - H(P) scan @ 70 GPa (ISIF=8)
           1
     8.145531    0.000000    0.000000
     0.000000    2.810060    0.000000
     0.000000    0.000000    9.682743
   Al   C 
    16    12
Direct configuration=    15
   0.26196234  0.25000000  0.29740557
   0.23803766  0.75000000  0.79740557
   0.73803766  0.75000000  0.70259443
   0.76196234  0.25000000  0.20259443
   0.34490936  0.25000000  0.01099732
   0.15509064  0.75000000  0.51099732
   0.65509064  0.75000000  0.98900268
   0.84490936  0.25000000  0.48900268
   0.52245802  0.25000000  0.79374691
   0.97754198  0.75000000  0.29374691
   0.47754198  0.75000000  0.20625309
   0.02245802  0.25000000  0.70625309
   0.06718313  0.25000000  0.09038009
   0.43281687  0.75000000  0.59038009
   0.93281687  0.75000000  0.90961991
   0.56718313  0.25000000  0.40961991
   0.26111223  0.25000000  0.64246228
   0.23888777  0.75000000  0.14246228
   0.73888777  0.75000000  0.35753772
   0.76111223  0.25000000  0.85753772
   0.60659075  0.25000000  0.60718759
   0.89340925  0.75000000  0.10718759
   0.39340925  0.75000000  0.39281241
   0.10659075  0.25000000  0.89281241
   0.06322688  0.25000000  0.38990855
   0.43677312  0.75000000  0.88990855
   0.93677312  0.75000000  0.61009145
   0.56322688  0.25000000  0.11009145
Al4C3 Pnma - H(P) scan @ 70 GPa (ISIF=8)
           1
     8.145466    0.000000    0.000000
     0.000000    2.810038    0.000000
     0.000000    0.000000    9.682666
   Al   C 
    16    12
Direct configuration=    16
   0.26195448  0.25000000  0.29740725
   0.23804552  0.75000000  0.79740725
   0.73804552  0.75000000  0.70259275
   0.76195448  0.25000000  0.20259275
   0.34490732  0.25000000  0.01099467
   0.15509268  0.75000000  0.51099467
   0.65509268  0.75000000  0.98900533
   0.84490732  0.25000000  0.48900533
   0.52246565  0.25000000  0.79374947
   0.97753435  0.75000000  0.29374947
   0.47753435  0.75000000  0.20625053
   0.02246565  0.25000000  0.70625053
   0.06717908  0.25000000  0.09038103
   0.43282092  0.75000000  0.59038103
   0.93282092  0.75000000  0.90961897
   0.56717908  0.25000000  0.40961897
   0.26111845  0.25000000  0.64246021
   0.23888155  0.75000000  0.14246021
   0.73888155  0.75000000  0.35753979
   0.76111845  0.25000000  0.85753979
   0.60659675  0.25000000  0.60718875
   0.89340325  0.75000000  0.10718875
   0.39340325  0.75000000  0.39281125
   0.10659675  0.25000000  0.89281125
   0.06322213  0.25000000  0.38991019
   0.43677787  0.75000000  0.88991019
   0.93677787  0.75000000  0.61008981
   0.56322213  0.25000000  0.11008981
Al4C3 Pnma - H(P) scan @ 70 GPa (ISIF=8)
           1
     8.146304    0.000000    0.000000
     0.000000    2.810327    0.000000
     0.000000    0.000000    9.683661
   Al   C 
    16    12
Direct configuration=    17
   0.26188953  0.25000000  0.29743375
   0.23811047  0.75000000  0.79743375
   0.73811047  0.75000000  0.70256625
   0.76188953  0.25000000  0.20256625
   0.34484537  0.25000000  0.01092954
   0.15515463  0.75000000  0.51092954
   0.65515463  0.75000000  0.98907046
   0.84484537  0.25000000  0.48907046
   0.52260637  0.25000000  0.79377867
   0.97739363  0.75000000  0.29377867
   0.47739363  0.75000000  0.20622133
   0.02260637  0.25000000  0.70622133
   0.06712537  0.25000000  0.09040647
   0.43287463  0.75000000  0.59040647
   0.93287463  0.75000000  0.90959353
   0.56712537  0.25000000  0.40959353
   0.26116941  0.25000000  0.64240963
   0.23883059  0.75000000  0.14240963
   0.73883059  0.75000000  0.35759037
   0.76116941  0.25000000  0.85759037
   0.60669053  0.25000000  0.60718912
   0.89330947  0.75000000  0.10718912
   0.39330947  0.75000000  0.39281088
   0.10669053  0.25000000  0.89281088
   0.06313317  0.25000000  0.38991342
   0.43686683  0.75000000  0.88991342
   0.93686683  0.75000000  0.61008658
   0.56313317  0.25000000  0.11008658
Al4C3 Pnma - H(P) scan @ 70 GPa (ISIF=8)
           1
     8.146445    0.000000    0.000000
     0.000000    2.810375    0.000000
     0.000000    0.000000    9.683829
   Al   C 
    16    12
Direct configuration=    18
   0.26187860  0.25000000  0.29743820
   0.23812140  0.75000000  0.79743820
   0.73812140  0.75000000  0.70256180
   0.76187860  0.25000000  0.20256180
   0.34483494  0.25000000  0.01091858
   0.15516506  0.75000000  0.51091858
   0.65516506  0.75000000  0.98908142
   0.84483494  0.25000000  0.48908142
   0.52263004  0.25000000  0.79378358
   0.97736996  0.75000000  0.29378358
   0.47736996  0.75000000  0.20621642
   0.02263004  0.25000000  0.70621642
   0.06711634  0.25000000  0.09041075
   0.43288366  0.75000000  0.59041075
   0.93288366  0.75000000  0.90958925
   0.56711634  0.25000000  0.40958925
   0.26117798  0.25000000  0.64240112
   0.23882202  0.75000000  0.14240112
   0.73882202  0.75000000  0.35759888
   0.76117798  0.25000000  0.85759888
   0.60670631  0.25000000  0.60718919
   0.89329369  0.75000000  0.10718919
   0.39329369  0.75000000  0.39281081
   0.10670631  0.25000000  0.89281081
   0.06311820  0.25000000  0.38991397
   0.43688180  0.75000000  0.88991397
   0.93688180  0.75000000  0.61008603
   0.56311820  0.25000000  0.11008603
Al4C3 Pnma - H(P) scan @ 70 GPa (ISIF=8)
           1
     8.146224    0.000000    0.000000
     0.000000    2.810299    0.000000
     0.000000    0.000000    9.683567
   Al   C 
    16    12
Direct configuration=    19
   0.26184273  0.25000000  0.29741759
   0.23815727  0.75000000  0.79741759
   0.73815727  0.75000000  0.70258241
   0.76184273  0.25000000  0.20258241
   0.34478783  0.25000000  0.01087664
   0.15521217  0.75000000  0.51087664
   0.65521217  0.75000000  0.98912336
   0.84478783  0.25000000  0.48912336
   0.52272898  0.25000000  0.79381502
   0.97727102  0.75000000  0.29381502
   0.47727102  0.75000000  0.20618498
   0.02272898  0.25000000  0.70618498
   0.06709762  0.25000000  0.09043583
   0.43290238  0.75000000  0.59043583
   0.93290238  0.75000000  0.90956417
   0.56709762  0.25000000  0.40956417
   0.26118109  0.25000000  0.64238245
   0.23881891  0.75000000  0.14238245
   0.73881891  0.75000000  0.35761755
   0.76118109  0.25000000  0.85761755
   0.60673361  0.25000000  0.60715806
   0.89326639  0.75000000  0.10715806
   0.39326639  0.75000000  0.39284194
   0.10673361  0.25000000  0.89284194
   0.06306736  0.25000000  0.38987055
   0.43693264  0.75000000  0.88987055
   0.93693264  0.75000000  0.61012945
   0.56306736  0.25000000  0.11012945
