Al4C3 Pnma (POSCAR.IV, symmetrized via s
   1.00000000000000     
     8.8670441497567207    0.0000000000000000    0.0000000000000000
     0.0000000000000000    3.0589690920604933    0.0000000000000000
     0.0000000000000000    0.0000000000000000   10.5404185620108510
   Al   C 
    16    12
Direct
  0.2734370110847748  0.2500000000000000  0.3073944612602539
  0.2265629889152251  0.7500000000000000  0.8073944612602537
  0.7265629889152252  0.7500000000000000  0.6926055387397463
  0.7734370110847748  0.2500000000000000  0.1926055387397461
  0.3614244531940145  0.2500000000000000  0.0185467800852564
  0.1385755468059855  0.7500000000000000  0.5185467800852565
  0.6385755468059856  0.7500000000000000  0.9814532199147435
  0.8614244531940144  0.2500000000000000  0.4814532199147436
  0.5162969332381958  0.2500000000000000  0.7949191506904948
  0.9837030667618042  0.7500000000000000  0.2949191506904948
  0.4837030667618042  0.7500000000000000  0.2050808493095052
  0.0162969332381958  0.2500000000000000  0.7050808493095052
  0.0812258554997120  0.2500000000000000  0.0834010369757406
  0.4187741445002951  0.7500000000000000  0.5834010369757405
  0.9187741445002879  0.7500000000000000  0.9165989630242595
  0.5812258554997121  0.2500000000000000  0.4165989630242593
  0.2458720630484465  0.2500000000000000  0.6384014684007446
  0.2541279369515535  0.7500000000000000  0.1384014684007447
  0.7541279369515534  0.7500000000000000  0.3615985315992553
  0.7458720630484466  0.2500000000000000  0.8615985315992554
  0.5876749291773553  0.2500000000000000  0.6136415214694905
  0.9123250708226447  0.7500000000000000  0.1136415214694906
  0.4123250708226447  0.7500000000000000  0.3863584785305095
  0.0876749291773553  0.2500000000000000  0.8863584785305095
  0.0720896966831560  0.2500000000000000  0.3871957458097681
  0.4279103033168440  0.7500000000000000  0.8871957458097681
  0.9279103033168441  0.7500000000000000  0.6128042541902319
  0.5720896966831559  0.2500000000000000  0.1128042541902319
 
  0.00000000E+00  0.00000000E+00  0.00000000E+00
  0.00000000E+00  0.00000000E+00  0.00000000E+00
  0.00000000E+00  0.00000000E+00  0.00000000E+00
  0.00000000E+00  0.00000000E+00  0.00000000E+00
  0.00000000E+00  0.00000000E+00  0.00000000E+00
  0.00000000E+00  0.00000000E+00  0.00000000E+00
  0.00000000E+00  0.00000000E+00  0.00000000E+00
  0.00000000E+00  0.00000000E+00  0.00000000E+00
  0.00000000E+00  0.00000000E+00  0.00000000E+00
  0.00000000E+00  0.00000000E+00  0.00000000E+00
  0.00000000E+00  0.00000000E+00  0.00000000E+00
  0.00000000E+00  0.00000000E+00  0.00000000E+00
  0.00000000E+00  0.00000000E+00  0.00000000E+00
  0.00000000E+00  0.00000000E+00  0.00000000E+00
  0.00000000E+00  0.00000000E+00  0.00000000E+00
  0.00000000E+00  0.00000000E+00  0.00000000E+00
  0.00000000E+00  0.00000000E+00  0.00000000E+00
  0.00000000E+00  0.00000000E+00  0.00000000E+00
  0.00000000E+00  0.00000000E+00  0.00000000E+00
  0.00000000E+00  0.00000000E+00  0.00000000E+00
  0.00000000E+00  0.00000000E+00  0.00000000E+00
  0.00000000E+00  0.00000000E+00  0.00000000E+00
  0.00000000E+00  0.00000000E+00  0.00000000E+00
  0.00000000E+00  0.00000000E+00  0.00000000E+00
  0.00000000E+00  0.00000000E+00  0.00000000E+00
  0.00000000E+00  0.00000000E+00  0.00000000E+00
  0.00000000E+00  0.00000000E+00  0.00000000E+00
  0.00000000E+00  0.00000000E+00  0.00000000E+00
