  28  28   0   0
  0.1022558E+02  0.8871363E-09  0.3060459E-09  0.1054555E-08  0.5000000E-15
  1.000000000000000E-004
  CAR 
 Al4C3 Pnma (POSCAR.IV) - relax @ 0 GPa (
     16.35090404     -6.55702616  301      9.82572329      1.00000000
     -6.557  0.0000E+00  0.0000E+00
     -6.481  0.0000E+00  0.0000E+00
     -6.404  0.0000E+00  0.0000E+00
     -6.328  0.0000E+00  0.0000E+00
     -6.252  0.0000E+00  0.0000E+00
     -6.175  0.0000E+00  0.0000E+00
     -6.099  0.0000E+00  0.0000E+00
     -6.023  0.0000E+00  0.0000E+00
     -5.946  0.0000E+00  0.0000E+00
     -5.870  0.0000E+00  0.0000E+00
     -5.793  0.9043E-19  0.6905E-20
     -5.717  0.4346E-12  0.3319E-13
     -5.641  0.2609E-07  0.1992E-08
     -5.564  0.2608E-04  0.1993E-05
     -5.488  0.8654E-03  0.6808E-04
     -5.412  0.3287E-02  0.3191E-03
     -5.335  0.5156E-02  0.7128E-03
     -5.259  0.6552E-02  0.1213E-02
     -5.183  0.7819E-02  0.1810E-02
     -5.106  0.9156E-02  0.2509E-02
     -5.030  0.1095E-01  0.3346E-02
     -4.953  0.1205E-01  0.4265E-02
     -4.877  0.1159E-01  0.5151E-02
     -4.801  0.1097E-01  0.5989E-02
     -4.724  0.1037E-01  0.6781E-02
     -4.648  0.9705E-02  0.7522E-02
     -4.572  0.9906E-02  0.8278E-02
     -4.495  0.1121E-01  0.9135E-02
     -4.419  0.1249E-01  0.1009E-01
     -4.343  0.1460E-01  0.1120E-01
     -4.266  0.1611E-01  0.1243E-01
     -4.190  0.1602E-01  0.1366E-01
     -4.114  0.1602E-01  0.1488E-01
     -4.037  0.1667E-01  0.1615E-01
     -3.961  0.1711E-01  0.1746E-01
     -3.884  0.1732E-01  0.1878E-01
     -3.808  0.1764E-01  0.2013E-01
     -3.732  0.1794E-01  0.2150E-01
     -3.655  0.1817E-01  0.2289E-01
     -3.579  0.1860E-01  0.2431E-01
     -3.503  0.1911E-01  0.2577E-01
     -3.426  0.2001E-01  0.2729E-01
     -3.350  0.2159E-01  0.2894E-01
     -3.274  0.2194E-01  0.3062E-01
     -3.197  0.2216E-01  0.3231E-01
     -3.121  0.2248E-01  0.3403E-01
     -3.044  0.2299E-01  0.3578E-01
     -2.968  0.2398E-01  0.3761E-01
     -2.892  0.2528E-01  0.3954E-01
     -2.815  0.2639E-01  0.4156E-01
     -2.739  0.2820E-01  0.4371E-01
     -2.663  0.2834E-01  0.4588E-01
     -2.586  0.2831E-01  0.4804E-01
     -2.510  0.2838E-01  0.5020E-01
     -2.434  0.3040E-01  0.5253E-01
     -2.357  0.3293E-01  0.5504E-01
     -2.281  0.3499E-01  0.5771E-01
     -2.205  0.3786E-01  0.6060E-01
     -2.128  0.4292E-01  0.6388E-01
     -2.052  0.4619E-01  0.6741E-01
     -1.975  0.4179E-01  0.7060E-01
     -1.899  0.4373E-01  0.7394E-01
     -1.823  0.5300E-01  0.7798E-01
     -1.746  0.5561E-01  0.8223E-01
     -1.670  0.5137E-01  0.8615E-01
     -1.594  0.5514E-01  0.9036E-01
     -1.517  0.4795E-01  0.9402E-01
     -1.441  0.2924E-01  0.9626E-01
     -1.365  0.2115E-01  0.9787E-01
     -1.288  0.1948E-01  0.9936E-01
     -1.212  0.1908E-01  0.1008E+00
     -1.135  0.1896E-01  0.1023E+00
     -1.059  0.1812E-01  0.1036E+00
     -0.983  0.1722E-01  0.1050E+00
     -0.906  0.1701E-01  0.1063E+00
     -0.830  0.1739E-01  0.1076E+00
     -0.754  0.1890E-01  0.1090E+00
     -0.677  0.2111E-01  0.1106E+00
     -0.601  0.1906E-01  0.1121E+00
     -0.525  0.1681E-01  0.1134E+00
     -0.448  0.1498E-01  0.1145E+00
     -0.372  0.1376E-01  0.1156E+00
     -0.296  0.1420E-01  0.1167E+00
     -0.219  0.1359E-01  0.1177E+00
     -0.143  0.1247E-01  0.1187E+00
     -0.066  0.1144E-01  0.1195E+00
      0.010  0.5780E-02  0.1200E+00
      0.086  0.4293E-03  0.1200E+00
      0.163  0.1357E-05  0.1200E+00
      0.239  0.8212E-10  0.1200E+00
      0.315  0.6630E-16  0.1200E+00
      0.392  0.0000E+00  0.1200E+00
      0.468  0.0000E+00  0.1200E+00
      0.544  0.0000E+00  0.1200E+00
      0.621  0.0000E+00  0.1200E+00
      0.697  0.0000E+00  0.1200E+00
      0.774  0.2441E-18  0.1200E+00
      0.850  0.6861E-12  0.1200E+00
      0.926  0.2544E-07  0.1200E+00
      1.003  0.1715E-04  0.1200E+00
      1.079  0.4311E-03  0.1200E+00
      1.155  0.1499E-02  0.1201E+00
      1.232  0.3138E-02  0.1204E+00
      1.308  0.5746E-02  0.1208E+00
      1.384  0.9165E-02  0.1215E+00
      1.461  0.1308E-01  0.1225E+00
      1.537  0.1794E-01  0.1239E+00
      1.613  0.2474E-01  0.1258E+00
      1.690  0.2924E-01  0.1280E+00
      1.766  0.3705E-01  0.1308E+00
      1.843  0.3688E-01  0.1337E+00
      1.919  0.3208E-01  0.1361E+00
      1.995  0.3519E-01  0.1388E+00
      2.072  0.3809E-01  0.1417E+00
      2.148  0.3822E-01  0.1446E+00
      2.224  0.3927E-01  0.1476E+00
      2.301  0.4177E-01  0.1508E+00
      2.377  0.4647E-01  0.1544E+00
      2.453  0.4824E-01  0.1580E+00
      2.530  0.4732E-01  0.1617E+00
      2.606  0.4467E-01  0.1651E+00
      2.683  0.4155E-01  0.1682E+00
      2.759  0.4063E-01  0.1713E+00
      2.835  0.4158E-01  0.1745E+00
      2.912  0.4160E-01  0.1777E+00
      2.988  0.4038E-01  0.1808E+00
      3.064  0.3845E-01  0.1837E+00
      3.141  0.3869E-01  0.1867E+00
      3.217  0.3869E-01  0.1896E+00
      3.293  0.3944E-01  0.1926E+00
      3.370  0.3932E-01  0.1956E+00
      3.446  0.3876E-01  0.1986E+00
      3.522  0.3863E-01  0.2015E+00
      3.599  0.4033E-01  0.2046E+00
      3.675  0.4473E-01  0.2080E+00
      3.752  0.4207E-01  0.2113E+00
      3.828  0.3680E-01  0.2141E+00
      3.904  0.3458E-01  0.2167E+00
      3.981  0.3475E-01  0.2194E+00
      4.057  0.3641E-01  0.2221E+00
      4.133  0.3951E-01  0.2252E+00
      4.210  0.4095E-01  0.2283E+00
      4.286  0.3861E-01  0.2312E+00
      4.362  0.3805E-01  0.2341E+00
      4.439  0.4080E-01  0.2373E+00
      4.515  0.4239E-01  0.2405E+00
      4.591  0.4156E-01  0.2437E+00
      4.668  0.4527E-01  0.2471E+00
      4.744  0.4637E-01  0.2507E+00
      4.821  0.4761E-01  0.2543E+00
      4.897  0.4832E-01  0.2580E+00
      4.973  0.4804E-01  0.2617E+00
      5.050  0.4869E-01  0.2654E+00
      5.126  0.4935E-01  0.2691E+00
      5.202  0.5033E-01  0.2730E+00
      5.279  0.5056E-01  0.2768E+00
      5.355  0.5290E-01  0.2809E+00
      5.431  0.5164E-01  0.2848E+00
      5.508  0.5052E-01  0.2887E+00
      5.584  0.4896E-01  0.2924E+00
      5.661  0.4426E-01  0.2958E+00
      5.737  0.4462E-01  0.2992E+00
      5.813  0.4754E-01  0.3028E+00
      5.890  0.5045E-01  0.3067E+00
      5.966  0.5009E-01  0.3105E+00
      6.042  0.4703E-01  0.3141E+00
      6.119  0.4638E-01  0.3177E+00
      6.195  0.4520E-01  0.3211E+00
      6.271  0.4790E-01  0.3248E+00
      6.348  0.4964E-01  0.3286E+00
      6.424  0.5018E-01  0.3324E+00
      6.500  0.5299E-01  0.3364E+00
      6.577  0.5607E-01  0.3407E+00
      6.653  0.5511E-01  0.3449E+00
      6.730  0.5563E-01  0.3492E+00
      6.806  0.5525E-01  0.3534E+00
      6.882  0.5569E-01  0.3576E+00
      6.959  0.5706E-01  0.3620E+00
      7.035  0.5509E-01  0.3662E+00
      7.111  0.4854E-01  0.3699E+00
      7.188  0.4432E-01  0.3733E+00
      7.264  0.3938E-01  0.3763E+00
      7.340  0.3841E-01  0.3792E+00
      7.417  0.4377E-01  0.3826E+00
      7.493  0.5258E-01  0.3866E+00
      7.570  0.5874E-01  0.3911E+00
      7.646  0.5909E-01  0.3956E+00
      7.722  0.6393E-01  0.4005E+00
      7.799  0.7323E-01  0.4061E+00
      7.875  0.7128E-01  0.4115E+00
      7.951  0.6470E-01  0.4164E+00
      8.028  0.6430E-01  0.4214E+00
      8.104  0.7242E-01  0.4269E+00
      8.180  0.8321E-01  0.4332E+00
      8.257  0.8111E-01  0.4394E+00
      8.333  0.6895E-01  0.4447E+00
      8.409  0.6031E-01  0.4493E+00
      8.486  0.5932E-01  0.4538E+00
      8.562  0.5701E-01  0.4582E+00
      8.639  0.5348E-01  0.4623E+00
      8.715  0.4639E-01  0.4658E+00
      8.791  0.3945E-01  0.4688E+00
      8.868  0.3159E-01  0.4712E+00
      8.944  0.2592E-01  0.4732E+00
      9.020  0.2226E-01  0.4749E+00
      9.097  0.1690E-01  0.4762E+00
      9.173  0.1247E-01  0.4772E+00
      9.249  0.1073E-01  0.4780E+00
      9.326  0.9374E-02  0.4787E+00
      9.402  0.7038E-02  0.4792E+00
      9.479  0.5036E-02  0.4796E+00
      9.555  0.3367E-02  0.4799E+00
      9.631  0.1527E-02  0.4800E+00
      9.708  0.1652E-03  0.4800E+00
      9.784  0.1080E-05  0.4800E+00
      9.860  0.9660E-09  0.4800E+00
      9.937  0.3280E-05  0.4800E+00
     10.013  0.3051E-03  0.4800E+00
     10.089  0.1910E-02  0.4802E+00
     10.166  0.3439E-02  0.4804E+00
     10.242  0.4882E-02  0.4808E+00
     10.318  0.7173E-02  0.4814E+00
     10.395  0.1092E-01  0.4822E+00
     10.471  0.1721E-01  0.4835E+00
     10.548  0.2204E-01  0.4852E+00
     10.624  0.2268E-01  0.4869E+00
     10.700  0.1820E-01  0.4883E+00
     10.777  0.1495E-01  0.4894E+00
     10.853  0.1338E-01  0.4905E+00
     10.929  0.1274E-01  0.4914E+00
     11.006  0.1373E-01  0.4925E+00
     11.082  0.1463E-01  0.4936E+00
     11.158  0.1923E-01  0.4951E+00
     11.235  0.2966E-01  0.4973E+00
     11.311  0.3166E-01  0.4998E+00
     11.388  0.2794E-01  0.5019E+00
     11.464  0.2778E-01  0.5040E+00
     11.540  0.2736E-01  0.5061E+00
     11.617  0.2595E-01  0.5081E+00
     11.693  0.2568E-01  0.5100E+00
     11.769  0.2554E-01  0.5120E+00
     11.846  0.2695E-01  0.5141E+00
     11.922  0.2753E-01  0.5162E+00
     11.998  0.2781E-01  0.5183E+00
     12.075  0.2812E-01  0.5204E+00
     12.151  0.2953E-01  0.5227E+00
     12.227  0.2982E-01  0.5250E+00
     12.304  0.2928E-01  0.5272E+00
     12.380  0.3103E-01  0.5296E+00
     12.457  0.3657E-01  0.5324E+00
     12.533  0.4883E-01  0.5361E+00
     12.609  0.5040E-01  0.5399E+00
     12.686  0.4603E-01  0.5434E+00
     12.762  0.4466E-01  0.5469E+00
     12.838  0.4570E-01  0.5503E+00
     12.915  0.4751E-01  0.5540E+00
     12.991  0.4906E-01  0.5577E+00
     13.067  0.5064E-01  0.5616E+00
     13.144  0.4924E-01  0.5653E+00
     13.220  0.4761E-01  0.5690E+00
     13.297  0.4769E-01  0.5726E+00
     13.373  0.4727E-01  0.5762E+00
     13.449  0.4757E-01  0.5799E+00
     13.526  0.4631E-01  0.5834E+00
     13.602  0.4222E-01  0.5866E+00
     13.678  0.4121E-01  0.5898E+00
     13.755  0.4367E-01  0.5931E+00
     13.831  0.4360E-01  0.5964E+00
     13.907  0.4552E-01  0.5999E+00
     13.984  0.4656E-01  0.6035E+00
     14.060  0.4722E-01  0.6071E+00
     14.136  0.4726E-01  0.6107E+00
     14.213  0.4488E-01  0.6141E+00
     14.289  0.4537E-01  0.6176E+00
     14.366  0.3874E-01  0.6205E+00
     14.442  0.3166E-01  0.6229E+00
     14.518  0.3066E-01  0.6253E+00
     14.595  0.3026E-01  0.6276E+00
     14.671  0.3033E-01  0.6299E+00
     14.747  0.2924E-01  0.6321E+00
     14.824  0.2956E-01  0.6344E+00
     14.900  0.2588E-01  0.6364E+00
     14.976  0.2327E-01  0.6382E+00
     15.053  0.1521E-01  0.6393E+00
     15.129  0.5817E-02  0.6398E+00
     15.206  0.2096E-02  0.6399E+00
     15.282  0.8539E-03  0.6400E+00
     15.358  0.1243E-03  0.6400E+00
     15.435  0.3474E-05  0.6400E+00
     15.511  0.5076E-08  0.6400E+00
     15.587  0.1246E-12  0.6400E+00
     15.664  0.3512E-19  0.6400E+00
     15.740  0.0000E+00  0.6400E+00
     15.816  0.0000E+00  0.6400E+00
     15.893  0.0000E+00  0.6400E+00
     15.969  0.0000E+00  0.6400E+00
     16.045  0.0000E+00  0.6400E+00
     16.122  0.0000E+00  0.6400E+00
     16.198  0.0000E+00  0.6400E+00
     16.275  0.0000E+00  0.6400E+00
     16.351  0.0000E+00  0.6400E+00
