       N       E                     dE             d eps       ncg     rms          rms(c)
DAV:   1     0.296957911912E+03    0.29696E+03   -0.45174E+04640640   0.149E+03
DAV:   2    -0.153229328164E+03   -0.45019E+03   -0.42612E+03812096   0.228E+02
DAV:   3    -0.187942605015E+03   -0.34713E+02   -0.34277E+02785656   0.602E+01
DAV:   4    -0.188746112105E+03   -0.80351E+00   -0.79967E+00771792   0.985E+00
DAV:   5    -0.188766279131E+03   -0.20167E-01   -0.20144E-01766392   0.154E+00    0.238E+01
DAV:   6    -0.166716112189E+03    0.22050E+02   -0.80233E+01748176   0.245E+01    0.726E+00
DAV:   7    -0.166524273702E+03    0.19184E+00   -0.49793E+00798552   0.696E+00    0.498E+00
DAV:   8    -0.166408602913E+03    0.11567E+00   -0.35131E-01744504   0.230E+00    0.105E+00
DAV:   9    -0.166395850922E+03    0.12752E-01   -0.62468E-02767152   0.926E-01    0.459E-01
DAV:  10    -0.166394626264E+03    0.12247E-02   -0.22274E-02757792   0.508E-01    0.214E-01
DAV:  11    -0.166394806942E+03   -0.18068E-03   -0.30757E-03755856   0.198E-01    0.166E-01
DAV:  12    -0.166394903255E+03   -0.96313E-04   -0.10072E-03758408   0.957E-02    0.741E-02
DAV:  13    -0.166394729033E+03    0.17422E-03   -0.84440E-04752000   0.944E-02    0.219E-02
DAV:  14    -0.166394736748E+03   -0.77157E-05   -0.10585E-04720288   0.374E-02    0.210E-02
DAV:  15    -0.166394733511E+03    0.32372E-05   -0.64212E-06434896   0.874E-03
   1 F= -.16639473E+03 E0= -.16639473E+03  d E =-.166395E+03
       N       E                     dE             d eps       ncg     rms          rms(c)
DAV:   1    -0.166395570136E+03   -0.83339E-03   -0.48635E-02675480   0.889E-01    0.707E-02
DAV:   2    -0.166395464407E+03    0.10573E-03   -0.13533E-03762584   0.129E-01    0.404E-02
DAV:   3    -0.166395436199E+03    0.28208E-04   -0.15737E-04756136   0.444E-02    0.145E-02
DAV:   4    -0.166395436776E+03   -0.57697E-06   -0.35047E-05509760   0.181E-02
   2 F= -.16639544E+03 E0= -.16639544E+03  d E =-.703264E-03
       N       E                     dE             d eps       ncg     rms          rms(c)
DAV:   1    -0.166395456940E+03   -0.20741E-04   -0.16610E-03690520   0.165E-01    0.141E-02
DAV:   2    -0.166395454009E+03    0.29309E-05   -0.41282E-05630080   0.231E-02
   3 F= -.16639545E+03 E0= -.16639545E+03  d E =-.720498E-03
       N       E                     dE             d eps       ncg     rms          rms(c)
DAV:   1    -0.166396025800E+03   -0.56886E-03   -0.24157E-02657248   0.644E-01    0.291E-02
DAV:   2    -0.166396047759E+03   -0.21959E-04   -0.59282E-04782840   0.875E-02    0.210E-02
DAV:   3    -0.166396039189E+03    0.85699E-05   -0.18855E-05493552   0.199E-02
   4 F= -.16639604E+03 E0= -.16639604E+03  d E =-.585180E-03
       N       E                     dE             d eps       ncg     rms          rms(c)
DAV:   1    -0.166396218340E+03   -0.17058E-03   -0.27756E-02655976   0.691E-01    0.324E-02
DAV:   2    -0.166396240479E+03   -0.22139E-04   -0.65052E-04789064   0.919E-02    0.227E-02
DAV:   3    -0.166396231971E+03    0.85082E-05   -0.24267E-05534048   0.215E-02
   5 F= -.16639623E+03 E0= -.16639623E+03  d E =-.777962E-03
       N       E                     dE             d eps       ncg     rms          rms(c)
DAV:   1    -0.166396497154E+03   -0.25668E-03   -0.13985E-02651328   0.475E-01    0.295E-02
DAV:   2    -0.166396534512E+03   -0.37357E-04   -0.61737E-04778064   0.902E-02    0.230E-02
DAV:   3    -0.166396524740E+03    0.97713E-05   -0.21375E-05505352   0.209E-02
   6 F= -.16639652E+03 E0= -.16639652E+03  d E =-.292770E-03
       N       E                     dE             d eps       ncg     rms          rms(c)
DAV:   1    -0.166396528992E+03    0.55198E-05   -0.70326E-04687808   0.106E-01    0.941E-03
DAV:   2    -0.166396528867E+03    0.12525E-06   -0.17505E-05519968   0.177E-02
   7 F= -.16639653E+03 E0= -.16639653E+03  d E =-.296896E-03
       N       E                     dE             d eps       ncg     rms          rms(c)
DAV:   1    -0.166396628656E+03   -0.99664E-04   -0.15418E-02646856   0.497E-01    0.266E-02
DAV:   2    -0.166396634199E+03   -0.55428E-05   -0.37099E-04771352   0.701E-02    0.177E-02
DAV:   3    -0.166396625858E+03    0.83409E-05   -0.17572E-05483616   0.181E-02
   8 F= -.16639663E+03 E0= -.16639663E+03  d E =-.969912E-04
