Al4C3 Pnma (POSCAR.IV, symmetrized via s
   1.00000000000000     
     8.8713624201690457    0.0000000000000000    0.0000000000000000
     0.0000000000000000    3.0604588168773956    0.0000000000000000
     0.0000000000000000    0.0000000000000000   10.5455517695195891
   Al   C 
    16    12
Direct
  0.2733267224859999  0.2500000000000000  0.3084263507293775
  0.2266732775140001  0.7500000000000000  0.8084263507293774
  0.7266732775140001  0.7500000000000000  0.6915736492706226
  0.7733267224859999  0.2500000000000000  0.1915736492706226
  0.3617800848005756  0.2500000000000000  0.0187597528063897
  0.1382199151994244  0.7500000000000000  0.5187597528063895
  0.6382199151994246  0.7500000000000000  0.9812402471936105
  0.8617800848005754  0.2500000000000000  0.4812402471936104
  0.5172276310726973  0.2500000000000000  0.7948777962672937
  0.9827723689273027  0.7500000000000000  0.2948777962672937
  0.4827723689273024  0.7500000000000000  0.2051222037327063
  0.0172276310726976  0.2500000000000000  0.7051222037327063
  0.0814631340122511  0.2500000000000000  0.0836474033337671
  0.4185368659877562  0.7500000000000000  0.5836474033337671
  0.9185368659877489  0.7500000000000000  0.9163525966662329
  0.5814631340122511  0.2500000000000000  0.4163525966662329
  0.2458117079329898  0.2500000000000000  0.6382379263145289
  0.2541882920670102  0.7500000000000000  0.1382379263145291
  0.7541882920670101  0.7500000000000000  0.3617620736854709
  0.7458117079329899  0.2500000000000000  0.8617620736854711
  0.5877523297109573  0.2500000000000000  0.6134034269212740
  0.9122476702890427  0.7500000000000000  0.1134034269212739
  0.4122476702890426  0.7500000000000000  0.3865965730787261
  0.0877523297109574  0.2500000000000000  0.8865965730787260
  0.0715363614131370  0.2500000000000000  0.3870619429127448
  0.4284636385868629  0.7500000000000000  0.8870619429127445
  0.9284636385868632  0.7500000000000000  0.6129380570872555
  0.5715363614131368  0.2500000000000000  0.1129380570872552
 
  0.00000000E+00  0.00000000E+00  0.00000000E+00
  0.00000000E+00  0.00000000E+00  0.00000000E+00
  0.00000000E+00  0.00000000E+00  0.00000000E+00
  0.00000000E+00  0.00000000E+00  0.00000000E+00
  0.00000000E+00  0.00000000E+00  0.00000000E+00
  0.00000000E+00  0.00000000E+00  0.00000000E+00
  0.00000000E+00  0.00000000E+00  0.00000000E+00
  0.00000000E+00  0.00000000E+00  0.00000000E+00
  0.00000000E+00  0.00000000E+00  0.00000000E+00
  0.00000000E+00  0.00000000E+00  0.00000000E+00
  0.00000000E+00  0.00000000E+00  0.00000000E+00
  0.00000000E+00  0.00000000E+00  0.00000000E+00
  0.00000000E+00  0.00000000E+00  0.00000000E+00
  0.00000000E+00  0.00000000E+00  0.00000000E+00
  0.00000000E+00  0.00000000E+00  0.00000000E+00
  0.00000000E+00  0.00000000E+00  0.00000000E+00
  0.00000000E+00  0.00000000E+00  0.00000000E+00
  0.00000000E+00  0.00000000E+00  0.00000000E+00
  0.00000000E+00  0.00000000E+00  0.00000000E+00
  0.00000000E+00  0.00000000E+00  0.00000000E+00
  0.00000000E+00  0.00000000E+00  0.00000000E+00
  0.00000000E+00  0.00000000E+00  0.00000000E+00
  0.00000000E+00  0.00000000E+00  0.00000000E+00
  0.00000000E+00  0.00000000E+00  0.00000000E+00
  0.00000000E+00  0.00000000E+00  0.00000000E+00
  0.00000000E+00  0.00000000E+00  0.00000000E+00
  0.00000000E+00  0.00000000E+00  0.00000000E+00
  0.00000000E+00  0.00000000E+00  0.00000000E+00
