Al4C3 Pnma (POSCAR.IV) - relax @ 0 GPa (
           1
     8.871362    0.000000    0.000000
     0.000000    3.060459    0.000000
     0.000000    0.000000   10.545552
   Al   C 
    16    12
Direct configuration=     1
   0.27332672  0.25000000  0.30842635
   0.22667328  0.75000000  0.80842635
   0.72667328  0.75000000  0.69157365
   0.77332672  0.25000000  0.19157365
   0.36178008  0.25000000  0.01875975
   0.13821992  0.75000000  0.51875975
   0.63821992  0.75000000  0.98124025
   0.86178008  0.25000000  0.48124025
   0.51722763  0.25000000  0.79487780
   0.98277237  0.75000000  0.29487780
   0.48277237  0.75000000  0.20512220
   0.01722763  0.25000000  0.70512220
   0.08146313  0.25000000  0.08364740
   0.41853687  0.75000000  0.58364740
   0.91853687  0.75000000  0.91635260
   0.58146313  0.25000000  0.41635260
   0.24581171  0.25000000  0.63823793
   0.25418829  0.75000000  0.13823793
   0.75418829  0.75000000  0.36176207
   0.74581171  0.25000000  0.86176207
   0.58775233  0.25000000  0.61340343
   0.91224767  0.75000000  0.11340343
   0.41224767  0.75000000  0.38659657
   0.08775233  0.25000000  0.88659657
   0.07153636  0.25000000  0.38706194
   0.42846364  0.75000000  0.88706194
   0.92846364  0.75000000  0.61293806
   0.57153636  0.25000000  0.11293806
Al4C3 Pnma (POSCAR.IV) - relax @ 0 GPa (
           1
     8.867719    0.000000    0.000000
     0.000000    3.059202    0.000000
     0.000000    0.000000   10.541221
   Al   C 
    16    12
Direct configuration=     2
   0.27327790  0.25000000  0.30830101
   0.22672210  0.75000000  0.80830101
   0.72672210  0.75000000  0.69169899
   0.77327790  0.25000000  0.19169899
   0.36166117  0.25000000  0.01870138
   0.13833883  0.75000000  0.51870138
   0.63833883  0.75000000  0.98129862
   0.86166117  0.25000000  0.48129862
   0.51705619  0.25000000  0.79493434
   0.98294381  0.75000000  0.29493434
   0.48294381  0.75000000  0.20506566
   0.01705619  0.25000000  0.70506566
   0.08151131  0.25000000  0.08355257
   0.41848869  0.75000000  0.58355257
   0.91848869  0.75000000  0.91644743
   0.58151131  0.25000000  0.41644743
   0.24586123  0.25000000  0.63825941
   0.25413877  0.75000000  0.13825941
   0.75413877  0.75000000  0.36174059
   0.74586123  0.25000000  0.86174059
   0.58777333  0.25000000  0.61344361
   0.91222667  0.75000000  0.11344361
   0.41222667  0.75000000  0.38655639
   0.08777333  0.25000000  0.88655639
   0.07173893  0.25000000  0.38701083
   0.42826107  0.75000000  0.88701083
   0.92826107  0.75000000  0.61298917
   0.57173893  0.25000000  0.11298917
Al4C3 Pnma (POSCAR.IV) - relax @ 0 GPa (
           1
     8.867037    0.000000    0.000000
     0.000000    3.058967    0.000000
     0.000000    0.000000   10.540410
   Al   C 
    16    12
Direct configuration=     3
   0.27326875  0.25000000  0.30827752
   0.22673125  0.75000000  0.80827752
   0.72673125  0.75000000  0.69172248
   0.77326875  0.25000000  0.19172248
   0.36163889  0.25000000  0.01869044
   0.13836111  0.75000000  0.51869044
   0.63836111  0.75000000  0.98130956
   0.86163889  0.25000000  0.48130956
   0.51702407  0.25000000  0.79494493
   0.98297593  0.75000000  0.29494493
   0.48297593  0.75000000  0.20505507
   0.01702407  0.25000000  0.70505507
   0.08152034  0.25000000  0.08353481
   0.41847966  0.75000000  0.58353481
   0.91847966  0.75000000  0.91646519
   0.58152034  0.25000000  0.41646519
   0.24587051  0.25000000  0.63826343
   0.25412949  0.75000000  0.13826343
   0.75412949  0.75000000  0.36173657
   0.74587051  0.25000000  0.86173657
   0.58777727  0.25000000  0.61345113
   0.91222273  0.75000000  0.11345113
   0.41222273  0.75000000  0.38654887
   0.08777727  0.25000000  0.88654887
   0.07177688  0.25000000  0.38700125
   0.42822312  0.75000000  0.88700125
   0.92822312  0.75000000  0.61299875
   0.57177688  0.25000000  0.11299875
Al4C3 Pnma (POSCAR.IV) - relax @ 0 GPa (
           1
     8.867718    0.000000    0.000000
     0.000000    3.059201    0.000000
     0.000000    0.000000   10.541219
   Al   C 
    16    12
Direct configuration=     4
   0.27336511  0.25000000  0.30804158
   0.22663489  0.75000000  0.80804158
   0.72663489  0.75000000  0.69195842
   0.77336511  0.25000000  0.19195842
   0.36150212  0.25000000  0.01862340
   0.13849788  0.75000000  0.51862340
   0.63849788  0.75000000  0.98137660
   0.86150212  0.25000000  0.48137660
   0.51683947  0.25000000  0.79492718
   0.98316053  0.75000000  0.29492718
   0.48316053  0.75000000  0.20507282
   0.01683947  0.25000000  0.70507282
   0.08150060  0.25000000  0.08345420
   0.41849940  0.75000000  0.58345420
   0.91849940  0.75000000  0.91654580
   0.58150060  0.25000000  0.41654580
   0.24591409  0.25000000  0.63828584
   0.25408591  0.75000000  0.13828584
   0.75408591  0.75000000  0.36171416
   0.74591409  0.25000000  0.86171416
   0.58779568  0.25000000  0.61351385
   0.91220432  0.75000000  0.11351385
   0.41220432  0.75000000  0.38648615
   0.08779568  0.25000000  0.88648615
   0.07189614  0.25000000  0.38705404
   0.42810386  0.75000000  0.88705404
   0.92810386  0.75000000  0.61294596
   0.57189614  0.25000000  0.11294596
Al4C3 Pnma (POSCAR.IV) - relax @ 0 GPa (
           1
     8.868452    0.000000    0.000000
     0.000000    3.059455    0.000000
     0.000000    0.000000   10.542092
   Al   C 
    16    12
Direct configuration=     5
   0.27346899  0.25000000  0.30778720
   0.22653101  0.75000000  0.80778720
   0.72653101  0.75000000  0.69221280
   0.77346899  0.25000000  0.19221280
   0.36135467  0.25000000  0.01855112
   0.13864533  0.75000000  0.51855112
   0.63864533  0.75000000  0.98144888
   0.86135467  0.25000000  0.48144888
   0.51664045  0.25000000  0.79490805
   0.98335955  0.75000000  0.29490805
   0.48335955  0.75000000  0.20509195
   0.01664045  0.25000000  0.70509195
   0.08147933  0.25000000  0.08336729
   0.41852067  0.75000000  0.58336729
   0.91852067  0.75000000  0.91663271
   0.58147933  0.25000000  0.41663271
   0.24596107  0.25000000  0.63831000
   0.25403893  0.75000000  0.13831000
   0.75403893  0.75000000  0.36169000
   0.74596107  0.25000000  0.86169000
   0.58781552  0.25000000  0.61358147
   0.91218448  0.75000000  0.11358147
   0.41218448  0.75000000  0.38641853
   0.08781552  0.25000000  0.88641853
   0.07202471  0.25000000  0.38711096
   0.42797529  0.75000000  0.88711096
   0.92797529  0.75000000  0.61288904
   0.57202471  0.25000000  0.11288904
Al4C3 Pnma (POSCAR.IV) - relax @ 0 GPa (
           1
     8.868083    0.000000    0.000000
     0.000000    3.059327    0.000000
     0.000000    0.000000   10.541653
   Al   C 
    16    12
Direct configuration=     6
   0.27346444  0.25000000  0.30755024
   0.22653556  0.75000000  0.80755024
   0.72653556  0.75000000  0.69244976
   0.77346444  0.25000000  0.19244976
   0.36141173  0.25000000  0.01850037
   0.13858827  0.75000000  0.51850037
   0.63858827  0.75000000  0.98149963
   0.86141173  0.25000000  0.48149963
   0.51639100  0.25000000  0.79495998
   0.98360900  0.75000000  0.29495998
   0.48360900  0.75000000  0.20504002
   0.01639100  0.25000000  0.70504002
   0.08134877  0.25000000  0.08337845
   0.41865123  0.75000000  0.58337845
   0.91865123  0.75000000  0.91662155
   0.58134877  0.25000000  0.41662155
   0.24594529  0.25000000  0.63833941
   0.25405471  0.75000000  0.13833941
   0.75405471  0.75000000  0.36166059
   0.74594529  0.25000000  0.86166059
   0.58775342  0.25000000  0.61359959
   0.91224658  0.75000000  0.11359959
   0.41224658  0.75000000  0.38640041
   0.08775342  0.25000000  0.88640041
   0.07204921  0.25000000  0.38715905
   0.42795079  0.75000000  0.88715905
   0.92795079  0.75000000  0.61284095
   0.57204921  0.25000000  0.11284095
Al4C3 Pnma (POSCAR.IV) - relax @ 0 GPa (
           1
     8.867999    0.000000    0.000000
     0.000000    3.059299    0.000000
     0.000000    0.000000   10.541554
   Al   C 
    16    12
Direct configuration=     7
   0.27346340  0.25000000  0.30749632
   0.22653660  0.75000000  0.80749632
   0.72653660  0.75000000  0.69250368
   0.77346340  0.25000000  0.19250368
   0.36142471  0.25000000  0.01848883
   0.13857529  0.75000000  0.51848883
   0.63857529  0.75000000  0.98151117
   0.86142471  0.25000000  0.48151117
   0.51633425  0.25000000  0.79497179
   0.98366575  0.75000000  0.29497179
   0.48366575  0.75000000  0.20502821
   0.01633425  0.25000000  0.70502821
   0.08131907  0.25000000  0.08338099
   0.41868093  0.75000000  0.58338099
   0.91868093  0.75000000  0.91661901
   0.58131907  0.25000000  0.41661901
   0.24594170  0.25000000  0.63834610
   0.25405830  0.75000000  0.13834610
   0.75405830  0.75000000  0.36165390
   0.74594170  0.25000000  0.86165390
   0.58773930  0.25000000  0.61360371
   0.91226070  0.75000000  0.11360371
   0.41226070  0.75000000  0.38639629
   0.08773930  0.25000000  0.88639629
   0.07205479  0.25000000  0.38716999
   0.42794521  0.75000000  0.88716999
   0.92794521  0.75000000  0.61283001
   0.57205479  0.25000000  0.11283001
Al4C3 Pnma (POSCAR.IV) - relax @ 0 GPa (
           1
     8.867044    0.000000    0.000000
     0.000000    3.058969    0.000000
     0.000000    0.000000   10.540419
   Al   C 
    16    12
Direct configuration=     8
   0.27343701  0.25000000  0.30739446
   0.22656299  0.75000000  0.80739446
   0.72656299  0.75000000  0.69260554
   0.77343701  0.25000000  0.19260554
   0.36142445  0.25000000  0.01854678
   0.13857555  0.75000000  0.51854678
   0.63857555  0.75000000  0.98145322
   0.86142445  0.25000000  0.48145322
   0.51629693  0.25000000  0.79491915
   0.98370307  0.75000000  0.29491915
   0.48370307  0.75000000  0.20508085
   0.01629693  0.25000000  0.70508085
   0.08122586  0.25000000  0.08340104
   0.41877414  0.75000000  0.58340104
   0.91877414  0.75000000  0.91659896
   0.58122586  0.25000000  0.41659896
   0.24587206  0.25000000  0.63840147
   0.25412794  0.75000000  0.13840147
   0.75412794  0.75000000  0.36159853
   0.74587206  0.25000000  0.86159853
   0.58767493  0.25000000  0.61364152
   0.91232507  0.75000000  0.11364152
   0.41232507  0.75000000  0.38635848
   0.08767493  0.25000000  0.88635848
   0.07208970  0.25000000  0.38719575
   0.42791030  0.75000000  0.88719575
   0.92791030  0.75000000  0.61280425
   0.57208970  0.25000000  0.11280425
