  21  21   0   0
  0.9181418E+01  0.3099628E-09  0.3099628E-09  0.2317283E-08  0.5000000E-15
  1.000000000000000E-004
  CAR 
 Al4C3 R-3m - H(P) scan @ 70 GPa (ISIF=8)
     18.82957201     -6.54784211  301     10.37572093      1.00000000
     -6.548  0.0000E+00  0.0000E+00
     -6.463  0.0000E+00  0.0000E+00
     -6.379  0.0000E+00  0.0000E+00
     -6.294  0.0000E+00  0.0000E+00
     -6.209  0.0000E+00  0.0000E+00
     -6.125  0.0000E+00  0.0000E+00
     -6.040  0.0000E+00  0.0000E+00
     -5.956  0.0000E+00  0.0000E+00
     -5.871  0.0000E+00  0.0000E+00
     -5.787  0.0000E+00  0.0000E+00
     -5.702  0.0000E+00  0.0000E+00
     -5.617  0.5816E-13  0.4920E-14
     -5.533  0.1878E-07  0.1589E-08
     -5.448  0.3001E-04  0.2540E-05
     -5.364  0.6584E-03  0.5823E-04
     -5.279  0.2381E-02  0.2596E-03
     -5.194  0.6265E-02  0.7896E-03
     -5.110  0.5075E-02  0.1219E-02
     -5.025  0.5023E-02  0.1644E-02
     -4.941  0.6199E-02  0.2168E-02
     -4.856  0.1014E-01  0.3026E-02
     -4.771  0.6858E-02  0.3606E-02
     -4.687  0.3771E-02  0.3925E-02
     -4.602  0.9949E-03  0.4009E-02
     -4.518  0.8959E-02  0.4767E-02
     -4.433  0.9945E-02  0.5608E-02
     -4.348  0.9692E-02  0.6428E-02
     -4.264  0.7416E-02  0.7055E-02
     -4.179  0.7500E-02  0.7690E-02
     -4.095  0.5784E-02  0.8179E-02
     -4.010  0.4519E-02  0.8561E-02
     -3.926  0.7962E-02  0.9235E-02
     -3.841  0.1926E-01  0.1086E-01
     -3.756  0.2165E-01  0.1270E-01
     -3.672  0.1353E-01  0.1384E-01
     -3.587  0.6037E-02  0.1435E-01
     -3.503  0.1256E-01  0.1541E-01
     -3.418  0.1475E-01  0.1666E-01
     -3.333  0.1304E-01  0.1776E-01
     -3.249  0.5558E-02  0.1823E-01
     -3.164  0.1672E-01  0.1965E-01
     -3.080  0.1985E-01  0.2133E-01
     -2.995  0.1710E-01  0.2277E-01
     -2.910  0.2211E-01  0.2464E-01
     -2.826  0.1821E-01  0.2618E-01
     -2.741  0.1039E-01  0.2706E-01
     -2.657  0.5410E-02  0.2752E-01
     -2.572  0.1260E-01  0.2859E-01
     -2.487  0.1608E-01  0.2995E-01
     -2.403  0.1411E-01  0.3114E-01
     -2.318  0.2367E-01  0.3314E-01
     -2.234  0.2599E-01  0.3534E-01
     -2.149  0.2964E-01  0.3785E-01
     -2.064  0.2565E-01  0.4002E-01
     -1.980  0.2105E-01  0.4180E-01
     -1.895  0.1357E-01  0.4295E-01
     -1.811  0.1626E-01  0.4432E-01
     -1.726  0.2797E-01  0.4669E-01
     -1.642  0.3362E-01  0.4953E-01
     -1.557  0.1813E-01  0.5107E-01
     -1.472  0.1649E-01  0.5246E-01
     -1.388  0.3470E-01  0.5540E-01
     -1.303  0.2654E-01  0.5764E-01
     -1.219  0.2537E-01  0.5979E-01
     -1.134  0.2186E-01  0.6164E-01
     -1.049  0.2025E-01  0.6335E-01
     -0.965  0.1507E-01  0.6463E-01
     -0.880  0.3087E-01  0.6724E-01
     -0.796  0.1881E-01  0.6883E-01
     -0.711  0.1244E-01  0.6988E-01
     -0.626  0.1676E-01  0.7130E-01
     -0.542  0.2347E-01  0.7328E-01
     -0.457  0.4471E-01  0.7707E-01
     -0.373  0.3192E-01  0.7977E-01
     -0.288  0.6351E-01  0.8514E-01
     -0.203  0.4324E-01  0.8879E-01
     -0.119  0.1273E-01  0.8987E-01
     -0.034  0.1500E-02  0.9000E-01
      0.050  0.1120E-04  0.9000E-01
      0.135  0.6616E-09  0.9000E-01
      0.219  0.1608E-15  0.9000E-01
      0.304  0.0000E+00  0.9000E-01
      0.389  0.0000E+00  0.9000E-01
      0.473  0.0000E+00  0.9000E-01
      0.558  0.0000E+00  0.9000E-01
      0.642  0.0000E+00  0.9000E-01
      0.727  0.0000E+00  0.9000E-01
      0.812  0.0000E+00  0.9000E-01
      0.896  0.0000E+00  0.9000E-01
      0.981  0.5367E-12  0.9000E-01
      1.065  0.1139E-06  0.9000E-01
      1.150  0.1099E-03  0.9001E-01
      1.235  0.1179E-02  0.9011E-01
      1.319  0.2070E-02  0.9028E-01
      1.404  0.1825E-02  0.9044E-01
      1.488  0.9639E-02  0.9125E-01
      1.573  0.8381E-02  0.9196E-01
      1.658  0.1066E-01  0.9286E-01
      1.742  0.1197E-01  0.9388E-01
      1.827  0.1220E-01  0.9491E-01
      1.911  0.5286E-02  0.9536E-01
      1.996  0.4882E-02  0.9577E-01
      2.080  0.1364E-01  0.9692E-01
      2.165  0.2345E-01  0.9891E-01
      2.250  0.2477E-01  0.1010E+00
      2.334  0.9704E-02  0.1018E+00
      2.419  0.1232E-01  0.1029E+00
      2.503  0.1274E-01  0.1039E+00
      2.588  0.2034E-01  0.1057E+00
      2.673  0.1586E-01  0.1070E+00
      2.757  0.6492E-02  0.1076E+00
      2.842  0.9674E-02  0.1084E+00
      2.926  0.7080E-02  0.1090E+00
      3.011  0.1365E-01  0.1101E+00
      3.096  0.2018E-01  0.1118E+00
      3.180  0.2661E-01  0.1141E+00
      3.265  0.2859E-01  0.1165E+00
      3.349  0.2692E-01  0.1188E+00
      3.434  0.2886E-01  0.1212E+00
      3.519  0.2902E-01  0.1237E+00
      3.603  0.3957E-01  0.1270E+00
      3.688  0.2488E-01  0.1291E+00
      3.772  0.3149E-01  0.1318E+00
      3.857  0.2425E-01  0.1338E+00
      3.941  0.3302E-01  0.1366E+00
      4.026  0.3464E-01  0.1396E+00
      4.111  0.1900E-01  0.1412E+00
      4.195  0.1477E-01  0.1424E+00
      4.280  0.2948E-01  0.1449E+00
      4.364  0.2885E-01  0.1474E+00
      4.449  0.3394E-01  0.1502E+00
      4.534  0.4578E-01  0.1541E+00
      4.618  0.3757E-01  0.1573E+00
      4.703  0.3871E-01  0.1606E+00
      4.787  0.3400E-01  0.1634E+00
      4.872  0.2521E-01  0.1656E+00
      4.957  0.2405E-01  0.1676E+00
      5.041  0.2441E-01  0.1697E+00
      5.126  0.5059E-01  0.1739E+00
      5.210  0.4773E-01  0.1780E+00
      5.295  0.4888E-01  0.1821E+00
      5.380  0.3142E-01  0.1848E+00
      5.464  0.2478E-01  0.1869E+00
      5.549  0.2720E-01  0.1892E+00
      5.633  0.2361E-01  0.1912E+00
      5.718  0.1902E-01  0.1928E+00
      5.802  0.2478E-01  0.1949E+00
      5.887  0.2673E-01  0.1971E+00
      5.972  0.4333E-01  0.2008E+00
      6.056  0.3945E-01  0.2041E+00
      6.141  0.3805E-01  0.2074E+00
      6.225  0.3532E-01  0.2103E+00
      6.310  0.3628E-01  0.2134E+00
      6.395  0.3087E-01  0.2160E+00
      6.479  0.3422E-01  0.2189E+00
      6.564  0.1456E-01  0.2201E+00
      6.648  0.2954E-01  0.2226E+00
      6.733  0.5247E-01  0.2271E+00
      6.818  0.4294E-01  0.2307E+00
      6.902  0.3356E-01  0.2336E+00
      6.987  0.4538E-01  0.2374E+00
      7.071  0.3455E-01  0.2403E+00
      7.156  0.4327E-01  0.2440E+00
      7.241  0.3323E-01  0.2468E+00
      7.325  0.2405E-01  0.2488E+00
      7.410  0.4254E-01  0.2524E+00
      7.494  0.3885E-01  0.2557E+00
      7.579  0.2958E-01  0.2582E+00
      7.664  0.3266E-01  0.2610E+00
      7.748  0.3260E-01  0.2637E+00
      7.833  0.6103E-01  0.2689E+00
      7.917  0.5861E-01  0.2739E+00
      8.002  0.4727E-01  0.2779E+00
      8.086  0.3667E-01  0.2810E+00
      8.171  0.4889E-01  0.2851E+00
      8.256  0.5957E-01  0.2901E+00
      8.340  0.5709E-01  0.2950E+00
      8.425  0.3663E-01  0.2981E+00
      8.509  0.5731E-01  0.3029E+00
      8.594  0.5297E-01  0.3074E+00
      8.679  0.4747E-01  0.3114E+00
      8.763  0.3537E-01  0.3144E+00
      8.848  0.4752E-01  0.3184E+00
      8.932  0.5083E-01  0.3227E+00
      9.017  0.4133E-01  0.3262E+00
      9.102  0.5030E-01  0.3305E+00
      9.186  0.5091E-01  0.3348E+00
      9.271  0.4539E-01  0.3386E+00
      9.355  0.4003E-01  0.3420E+00
      9.440  0.3259E-01  0.3447E+00
      9.525  0.3605E-01  0.3478E+00
      9.609  0.2335E-01  0.3498E+00
      9.694  0.2813E-01  0.3522E+00
      9.778  0.2156E-01  0.3540E+00
      9.863  0.1847E-01  0.3555E+00
      9.947  0.1728E-01  0.3570E+00
     10.032  0.1248E-01  0.3581E+00
     10.117  0.1317E-01  0.3592E+00
     10.201  0.9418E-02  0.3600E+00
     10.286  0.3833E-03  0.3600E+00
     10.370  0.2062E-06  0.3600E+00
     10.455  0.7015E-12  0.3600E+00
     10.540  0.0000E+00  0.3600E+00
     10.624  0.0000E+00  0.3600E+00
     10.709  0.0000E+00  0.3600E+00
     10.793  0.0000E+00  0.3600E+00
     10.878  0.0000E+00  0.3600E+00
     10.963  0.0000E+00  0.3600E+00
     11.047  0.0000E+00  0.3600E+00
     11.132  0.3338E-12  0.3600E+00
     11.216  0.8426E-07  0.3600E+00
     11.301  0.9554E-04  0.3600E+00
     11.386  0.1014E-02  0.3601E+00
     11.470  0.1877E-02  0.3603E+00
     11.555  0.1143E-02  0.3603E+00
     11.639  0.5514E-02  0.3608E+00
     11.724  0.4741E-02  0.3612E+00
     11.808  0.4702E-02  0.3616E+00
     11.893  0.4315E-02  0.3620E+00
     11.978  0.8083E-02  0.3627E+00
     12.062  0.9119E-02  0.3634E+00
     12.147  0.9509E-02  0.3642E+00
     12.231  0.1882E-02  0.3644E+00
     12.316  0.5902E-02  0.3649E+00
     12.401  0.1579E-01  0.3662E+00
     12.485  0.1713E-01  0.3677E+00
     12.570  0.1935E-01  0.3693E+00
     12.654  0.2060E-01  0.3711E+00
     12.739  0.1819E-01  0.3726E+00
     12.824  0.1086E-01  0.3735E+00
     12.908  0.8979E-02  0.3743E+00
     12.993  0.1135E-01  0.3752E+00
     13.077  0.7267E-02  0.3759E+00
     13.162  0.1053E-01  0.3767E+00
     13.247  0.2635E-01  0.3790E+00
     13.331  0.2463E-01  0.3811E+00
     13.416  0.2195E-01  0.3829E+00
     13.500  0.1018E-01  0.3838E+00
     13.585  0.1381E-01  0.3849E+00
     13.669  0.1102E-01  0.3859E+00
     13.754  0.1286E-01  0.3870E+00
     13.839  0.1592E-01  0.3883E+00
     13.923  0.2014E-01  0.3900E+00
     14.008  0.1252E-01  0.3911E+00
     14.092  0.1150E-01  0.3920E+00
     14.177  0.2616E-01  0.3943E+00
     14.262  0.4383E-01  0.3980E+00
     14.346  0.4026E-01  0.4014E+00
     14.431  0.2622E-01  0.4036E+00
     14.515  0.1800E-01  0.4051E+00
     14.600  0.1829E-01  0.4067E+00
     14.685  0.1594E-01  0.4080E+00
     14.769  0.1676E-01  0.4094E+00
     14.854  0.7989E-02  0.4101E+00
     14.938  0.1048E-01  0.4110E+00
     15.023  0.1639E-01  0.4124E+00
     15.108  0.1950E-01  0.4140E+00
     15.192  0.1728E-01  0.4155E+00
     15.277  0.2780E-01  0.4178E+00
     15.361  0.2710E-01  0.4201E+00
     15.446  0.1823E-01  0.4217E+00
     15.531  0.3051E-01  0.4243E+00
     15.615  0.4050E-01  0.4277E+00
     15.700  0.2425E-01  0.4297E+00
     15.784  0.3912E-01  0.4330E+00
     15.869  0.3382E-01  0.4359E+00
     15.953  0.3433E-01  0.4388E+00
     16.038  0.3906E-01  0.4421E+00
     16.123  0.5047E-01  0.4464E+00
     16.207  0.4776E-01  0.4504E+00
     16.292  0.5678E-01  0.4552E+00
     16.376  0.4396E-01  0.4589E+00
     16.461  0.4135E-01  0.4624E+00
     16.546  0.2354E-01  0.4644E+00
     16.630  0.1778E-01  0.4659E+00
     16.715  0.2356E-01  0.4679E+00
     16.799  0.2665E-01  0.4702E+00
     16.884  0.1650E-01  0.4716E+00
     16.969  0.1052E-01  0.4725E+00
     17.053  0.1793E-01  0.4740E+00
     17.138  0.2700E-01  0.4763E+00
     17.222  0.2016E-01  0.4780E+00
     17.307  0.1050E-01  0.4789E+00
     17.392  0.2932E-02  0.4791E+00
     17.476  0.5380E-02  0.4796E+00
     17.561  0.2695E-02  0.4798E+00
     17.645  0.4970E-03  0.4798E+00
     17.730  0.1832E-02  0.4800E+00
     17.814  0.1573E-03  0.4800E+00
     17.899  0.1112E-06  0.4800E+00
     17.984  0.3486E-12  0.4800E+00
     18.068  0.0000E+00  0.4800E+00
     18.153  0.0000E+00  0.4800E+00
     18.237  0.0000E+00  0.4800E+00
     18.322  0.0000E+00  0.4800E+00
     18.407  0.0000E+00  0.4800E+00
     18.491  0.0000E+00  0.4800E+00
     18.576  0.0000E+00  0.4800E+00
     18.660  0.0000E+00  0.4800E+00
     18.745  0.0000E+00  0.4800E+00
     18.830  0.0000E+00  0.4800E+00
