       N       E                     dE             d eps       ncg     rms          rms(c)
DAV:   1    -0.121955828311E+03   -0.12196E+03   -0.62323E-05  3564   0.802E-02    0.131E-02
DAV:   2    -0.121955835253E+03   -0.69420E-05   -0.10986E-06  1980   0.789E-03
   1 F= -.37716192E+02 E0= -.37716192E+02  d E =-.377162E+02
       N       E                     dE             d eps       ncg     rms          rms(c)
DAV:   1    -0.114959343139E+03    0.69965E+01   -0.14331E+01  4284   0.190E+01    0.409E+00
DAV:   2    -0.114574929927E+03    0.38441E+00   -0.99366E-01  4260   0.381E+00    0.183E+00
DAV:   3    -0.114540312622E+03    0.34617E-01   -0.19127E-01  4320   0.153E+00    0.515E-01
DAV:   4    -0.114536109043E+03    0.42036E-02   -0.13503E-02  4344   0.446E-01    0.184E-01
DAV:   5    -0.114535474129E+03    0.63491E-03   -0.12710E-03  4416   0.141E-01    0.123E-01
DAV:   6    -0.114535357730E+03    0.11640E-03   -0.29401E-04  4380   0.622E-02    0.239E-02
DAV:   7    -0.114535347210E+03    0.10521E-04   -0.28483E-05  3732   0.292E-02    0.944E-03
DAV:   8    -0.114535348902E+03   -0.16924E-05   -0.21303E-05  2568   0.187E-02
   2 F= -.37078999E+02 E0= -.37078999E+02  d E =0.637193E+00
       N       E                     dE             d eps       ncg     rms          rms(c)
DAV:   1    -0.120186637009E+03   -0.56513E+01   -0.66006E+00  4284   0.124E+01    0.282E+00
DAV:   2    -0.120000123280E+03    0.18651E+00   -0.47809E-01  4248   0.262E+00    0.124E+00
DAV:   3    -0.119984156290E+03    0.15967E-01   -0.92212E-02  4344   0.103E+00    0.360E-01
DAV:   4    -0.119981850217E+03    0.23061E-02   -0.77541E-03  4344   0.322E-01    0.127E-01
DAV:   5    -0.119981435958E+03    0.41426E-03   -0.91757E-04  4404   0.114E-01    0.807E-02
DAV:   6    -0.119981330142E+03    0.10582E-03   -0.14870E-04  4416   0.440E-02    0.133E-02
DAV:   7    -0.119981322713E+03    0.74291E-05   -0.12052E-05  2880   0.190E-02
   3 F= -.37874244E+02 E0= -.37874244E+02  d E =-.158052E+00
       N       E                     dE             d eps       ncg     rms          rms(c)
DAV:   1    -0.119940773770E+03    0.40556E-01   -0.47310E-04  4356   0.106E-01    0.232E-02
DAV:   2    -0.119940763834E+03    0.99356E-05   -0.32759E-05  3768   0.219E-02
   4 F= -.37874306E+02 E0= -.37874306E+02  d E =-.158114E+00
       N       E                     dE             d eps       ncg     rms          rms(c)
DAV:   1    -0.119935631817E+03    0.51420E-02   -0.46520E-06  1944   0.109E-02    0.661E-03
DAV:   2    -0.119935632515E+03   -0.69841E-06   -0.82660E-07  1956   0.360E-03
   5 F= -.37874308E+02 E0= -.37874308E+02  d E =-.158116E+00
       N       E                     dE             d eps       ncg     rms          rms(c)
DAV:   1    -0.119937904692E+03   -0.22729E-02   -0.19582E-06  1932   0.674E-03    0.122E-03
DAV:   2    -0.119937904692E+03    0.74579E-10   -0.16202E-07  1944   0.175E-03
   6 F= -.37874309E+02 E0= -.37874309E+02  d E =-.158117E+00
       N       E                     dE             d eps       ncg     rms          rms(c)
DAV:   1    -0.119939868805E+03   -0.19641E-02   -0.75611E-07  1932   0.467E-03    0.124E-03
DAV:   2    -0.119939868692E+03    0.11307E-06   -0.54046E-08  1908   0.119E-03
   7 F= -.37874309E+02 E0= -.37874309E+02  d E =-.158117E+00
       N       E                     dE             d eps       ncg     rms          rms(c)
DAV:   1    -0.119929665235E+03    0.10204E-01   -0.40640E-02  3852   0.954E-01    0.580E-02
DAV:   2    -0.119929561513E+03    0.10372E-03   -0.12723E-03  4764   0.168E-01    0.430E-02
DAV:   3    -0.119929529382E+03    0.32131E-04   -0.15125E-04  4512   0.542E-02    0.218E-02
DAV:   4    -0.119929522675E+03    0.67069E-05   -0.37563E-05  3564   0.240E-02
   8 F= -.37873826E+02 E0= -.37873826E+02  d E =0.483262E-03
       N       E                     dE             d eps       ncg     rms          rms(c)
DAV:   1    -0.119936499283E+03   -0.69699E-02   -0.15938E-02  3732   0.595E-01    0.363E-02
DAV:   2    -0.119936454167E+03    0.45116E-04   -0.47932E-04  4752   0.103E-01    0.265E-02
DAV:   3    -0.119936441591E+03    0.12577E-04   -0.60245E-05  4488   0.342E-02    0.130E-02
DAV:   4    -0.119936439666E+03    0.19249E-05   -0.14076E-05  3132   0.143E-02
   9 F= -.37874574E+02 E0= -.37874574E+02  d E =-.265392E-03
       N       E                     dE             d eps       ncg     rms          rms(c)
DAV:   1    -0.119935229110E+03    0.12125E-02   -0.37555E-03  3672   0.251E-01    0.189E-02
DAV:   2    -0.119935216274E+03    0.12836E-04   -0.15169E-04  4116   0.559E-02    0.102E-02
DAV:   3    -0.119935213277E+03    0.29969E-05   -0.15815E-05  2796   0.184E-02
  10 F= -.37874657E+02 E0= -.37874657E+02  d E =-.823370E-04
