Al4C3 R-3m - H(P) scan @ 70 GPa (ISIF=8)
           1
     3.099628    0.000000    0.000000
    -1.549814    2.684357    0.000000
     0.000000    0.000000   23.172834
   Al   C 
    12     9
Direct configuration=     1
   0.00000000  0.00000000  0.62943027
   0.00000000  0.00000000  0.37056973
   0.66666669  0.33333334  0.96276358
   0.66666669  0.33333334  0.70390305
   0.33333334  0.66666669  0.29609692
   0.33333334  0.66666669  0.03723640
   0.00000000  0.00000000  0.20603514
   0.00000000  0.00000000  0.79396486
   0.66666669  0.33333334  0.53936846
   0.66666669  0.33333334  0.12729819
   0.33333334  0.66666669  0.87270183
   0.33333334  0.66666669  0.46063151
   0.00000000  0.00000000  0.71667766
   0.00000000  0.00000000  0.28332234
   0.66666669  0.33333334  0.05001099
   0.66666669  0.33333334  0.61665566
   0.33333334  0.66666669  0.38334431
   0.33333334  0.66666669  0.94998903
   0.00000000  0.00000000  0.50000000
   0.66666669  0.33333334  0.83333331
   0.33333334  0.66666669  0.16666667
Al4C3 R-3m - H(P) scan @ 70 GPa (ISIF=8)
           1
     3.014092    0.000000    0.000000
    -1.507046    2.610280    0.000000
     0.000000    0.000000   22.533362
   Al   C 
    12     9
Direct configuration=     2
   0.00000000  0.00000000  0.62942955
  -0.00000000 -0.00000000  0.37057045
   0.66666669  0.33333334  0.96276287
   0.66666669  0.33333334  0.70390376
   0.33333334  0.66666669  0.29609621
   0.33333334  0.66666669  0.03723711
   0.00000000  0.00000000  0.20603657
   0.00000000 -0.00000000  0.79396343
   0.66666669  0.33333334  0.53936988
   0.66666669  0.33333334  0.12729676
   0.33333334  0.66666669  0.87270326
   0.33333334  0.66666669  0.46063009
  -0.00000000  0.00000000  0.71668106
  -0.00000000 -0.00000000  0.28331894
   0.66666669  0.33333334  0.05001439
   0.66666669  0.33333334  0.61665226
   0.33333334  0.66666669  0.38334771
   0.33333334  0.66666669  0.94998563
  -0.00000000  0.00000000  0.50000000
   0.66666669  0.33333334  0.83333331
   0.33333334  0.66666669  0.16666667
Al4C3 R-3m - H(P) scan @ 70 GPa (ISIF=8)
           1
     3.073248    0.000000    0.000000
    -1.536624    2.661511    0.000000
     0.000000    0.000000   22.975617
   Al   C 
    12     9
Direct configuration=     3
   0.00000000  0.00000000  0.62943006
  -0.00000000 -0.00000000  0.37056994
   0.66666669  0.33333334  0.96276337
   0.66666669  0.33333334  0.70390325
   0.33333334  0.66666669  0.29609672
   0.33333334  0.66666669  0.03723661
   0.00000000  0.00000000  0.20603555
   0.00000000 -0.00000000  0.79396445
   0.66666669  0.33333334  0.53936887
   0.66666669  0.33333334  0.12729777
   0.33333334  0.66666669  0.87270224
   0.33333334  0.66666669  0.46063110
  -0.00000000  0.00000000  0.71667864
  -0.00000000 -0.00000000  0.28332136
   0.66666669  0.33333334  0.05001197
   0.66666669  0.33333334  0.61665467
   0.33333334  0.66666669  0.38334530
   0.33333334  0.66666669  0.94998805
  -0.00000000  0.00000000  0.50000000
   0.66666669  0.33333334  0.83333331
   0.33333334  0.66666669  0.16666667
Al4C3 R-3m - H(P) scan @ 70 GPa (ISIF=8)
           1
     3.072741    0.000000    0.000000
    -1.536371    2.661072    0.000000
     0.000000    0.000000   22.971828
   Al   C 
    12     9
Direct configuration=     4
   0.00000000  0.00000000  0.62943006
  -0.00000000 -0.00000000  0.37056994
   0.66666669  0.33333334  0.96276337
   0.66666669  0.33333334  0.70390326
   0.33333334  0.66666669  0.29609671
   0.33333334  0.66666669  0.03723661
   0.00000000  0.00000000  0.20603556
   0.00000000 -0.00000000  0.79396444
   0.66666669  0.33333334  0.53936888
   0.66666669  0.33333334  0.12729776
   0.33333334  0.66666669  0.87270225
   0.33333334  0.66666669  0.46063109
  -0.00000000  0.00000000  0.71667866
  -0.00000000 -0.00000000  0.28332134
   0.66666669  0.33333334  0.05001199
   0.66666669  0.33333334  0.61665465
   0.33333334  0.66666669  0.38334532
   0.33333334  0.66666669  0.94998803
  -0.00000000  0.00000000  0.50000000
   0.66666669  0.33333334  0.83333331
   0.33333334  0.66666669  0.16666667
Al4C3 R-3m - H(P) scan @ 70 GPa (ISIF=8)
           1
     3.072677    0.000000    0.000000
    -1.536339    2.661017    0.000000
     0.000000    0.000000   22.971349
   Al   C 
    12     9
Direct configuration=     5
   0.00000000  0.00000000  0.62943006
  -0.00000000 -0.00000000  0.37056994
   0.66666669  0.33333334  0.96276337
   0.66666669  0.33333334  0.70390326
   0.33333334  0.66666669  0.29609671
   0.33333334  0.66666669  0.03723661
   0.00000000  0.00000000  0.20603556
   0.00000000 -0.00000000  0.79396444
   0.66666669  0.33333334  0.53936888
   0.66666669  0.33333334  0.12729776
   0.33333334  0.66666669  0.87270225
   0.33333334  0.66666669  0.46063109
  -0.00000000  0.00000000  0.71667866
  -0.00000000 -0.00000000  0.28332134
   0.66666669  0.33333334  0.05001199
   0.66666669  0.33333334  0.61665465
   0.33333334  0.66666669  0.38334532
   0.33333334  0.66666669  0.94998803
  -0.00000000  0.00000000  0.50000000
   0.66666669  0.33333334  0.83333331
   0.33333334  0.66666669  0.16666667
Al4C3 R-3m - H(P) scan @ 70 GPa (ISIF=8)
           1
     3.072706    0.000000    0.000000
    -1.536353    2.661041    0.000000
     0.000000    0.000000   22.971561
   Al   C 
    12     9
Direct configuration=     6
   0.00000000  0.00000000  0.62943006
  -0.00000000 -0.00000000  0.37056994
   0.66666669  0.33333334  0.96276337
   0.66666669  0.33333334  0.70390326
   0.33333334  0.66666669  0.29609671
   0.33333334  0.66666669  0.03723661
   0.00000000  0.00000000  0.20603556
   0.00000000 -0.00000000  0.79396444
   0.66666669  0.33333334  0.53936888
   0.66666669  0.33333334  0.12729776
   0.33333334  0.66666669  0.87270225
   0.33333334  0.66666669  0.46063109
  -0.00000000  0.00000000  0.71667866
  -0.00000000 -0.00000000  0.28332134
   0.66666669  0.33333334  0.05001199
   0.66666669  0.33333334  0.61665465
   0.33333334  0.66666669  0.38334532
   0.33333334  0.66666669  0.94998803
  -0.00000000  0.00000000  0.50000000
   0.66666669  0.33333334  0.83333331
   0.33333334  0.66666669  0.16666667
Al4C3 R-3m - H(P) scan @ 70 GPa (ISIF=8)
           1
     3.072730    0.000000    0.000000
    -1.536365    2.661062    0.000000
     0.000000    0.000000   22.971744
   Al   C 
    12     9
Direct configuration=     7
   0.00000000  0.00000000  0.62943006
  -0.00000000 -0.00000000  0.37056994
   0.66666669  0.33333334  0.96276337
   0.66666669  0.33333334  0.70390326
   0.33333334  0.66666669  0.29609671
   0.33333334  0.66666669  0.03723661
   0.00000000  0.00000000  0.20603556
   0.00000000 -0.00000000  0.79396444
   0.66666669  0.33333334  0.53936888
   0.66666669  0.33333334  0.12729776
   0.33333334  0.66666669  0.87270225
   0.33333334  0.66666669  0.46063109
  -0.00000000  0.00000000  0.71667866
  -0.00000000 -0.00000000  0.28332134
   0.66666669  0.33333334  0.05001199
   0.66666669  0.33333334  0.61665465
   0.33333334  0.66666669  0.38334532
   0.33333334  0.66666669  0.94998803
  -0.00000000  0.00000000  0.50000000
   0.66666669  0.33333334  0.83333331
   0.33333334  0.66666669  0.16666667
Al4C3 R-3m - H(P) scan @ 70 GPa (ISIF=8)
           1
     3.072607    0.000000    0.000000
    -1.536304    2.660956    0.000000
     0.000000    0.000000   22.970824
   Al   C 
    12     9
Direct configuration=     8
   0.00000000  0.00000000  0.62936803
  -0.00000000 -0.00000000  0.37063197
   0.66666669  0.33333334  0.96270134
   0.66666669  0.33333334  0.70396529
   0.33333334  0.66666669  0.29603468
   0.33333334  0.66666669  0.03729864
  -0.00000000  0.00000000  0.20593142
  -0.00000000  0.00000000  0.79406858
   0.66666669  0.33333334  0.53926474
   0.66666669  0.33333334  0.12740190
   0.33333334  0.66666669  0.87259811
   0.33333334  0.66666669  0.46073523
  -0.00000000  0.00000000  0.71661534
   0.00000000 -0.00000000  0.28338466
   0.66666669  0.33333334  0.04994867
   0.66666669  0.33333334  0.61671798
   0.33333334  0.66666669  0.38328199
   0.33333334  0.66666669  0.95005135
  -0.00000000 -0.00000000  0.50000000
   0.66666669  0.33333334  0.83333331
   0.33333334  0.66666669  0.16666667
Al4C3 R-3m - H(P) scan @ 70 GPa (ISIF=8)
           1
     3.072684    0.000000    0.000000
    -1.536342    2.661023    0.000000
     0.000000    0.000000   22.971399
   Al   C 
    12     9
Direct configuration=     9
   0.00000000  0.00000000  0.62940682
  -0.00000000 -0.00000000  0.37059318
   0.66666669  0.33333334  0.96274014
   0.66666669  0.33333334  0.70392649
   0.33333334  0.66666669  0.29607348
   0.33333334  0.66666669  0.03725985
   0.00000000  0.00000000  0.20599656
  -0.00000000 -0.00000000  0.79400344
   0.66666669  0.33333334  0.53932987
   0.66666669  0.33333334  0.12733677
   0.33333334  0.66666669  0.87266325
   0.33333334  0.66666669  0.46067010
  -0.00000000  0.00000000  0.71665494
   0.00000000 -0.00000000  0.28334506
   0.66666669  0.33333334  0.04998827
   0.66666669  0.33333334  0.61667837
   0.33333334  0.66666669  0.38332160
   0.33333334  0.66666669  0.95001175
  -0.00000000 -0.00000000  0.50000000
   0.66666669  0.33333334  0.83333331
   0.33333334  0.66666669  0.16666667
Al4C3 R-3m - H(P) scan @ 70 GPa (ISIF=8)
           1
     3.072668    0.000000    0.000000
    -1.536334    2.661008    0.000000
     0.000000    0.000000   22.971277
   Al   C 
    12     9
Direct configuration=    10
   0.00000000  0.00000000  0.62936111
  -0.00000000 -0.00000000  0.37063889
   0.66666669  0.33333334  0.96269443
   0.66666669  0.33333334  0.70397220
   0.33333334  0.66666669  0.29602777
   0.33333334  0.66666669  0.03730555
   0.00000000  0.00000000  0.20599439
  -0.00000000 -0.00000000  0.79400561
   0.66666669  0.33333334  0.53932770
   0.66666669  0.33333334  0.12733894
   0.33333334  0.66666669  0.87266108
   0.33333334  0.66666669  0.46067227
  -0.00000000  0.00000000  0.71666753
   0.00000000 -0.00000000  0.28333247
   0.66666669  0.33333334  0.05000086
   0.66666669  0.33333334  0.61666578
   0.33333334  0.66666669  0.38333419
   0.33333334  0.66666669  0.94999916
  -0.00000000 -0.00000000  0.50000000
   0.66666669  0.33333334  0.83333331
   0.33333334  0.66666669  0.16666667
