  14  14   0   0
  0.8175271E+01  0.8337257E-09  0.4814004E-09  0.2851678E-09  0.5000000E-15
  1.000000000000000E-004
  CAR 
 Al4C3 Pbam - r2SCAN H(P) scan @ 70 GPa (
     23.08066523     -6.80937637  301     12.15271385      1.00000000
     -6.809  0.0000E+00  0.0000E+00
     -6.710  0.0000E+00  0.0000E+00
     -6.610  0.0000E+00  0.0000E+00
     -6.510  0.0000E+00  0.0000E+00
     -6.411  0.0000E+00  0.0000E+00
     -6.311  0.0000E+00  0.0000E+00
     -6.212  0.0000E+00  0.0000E+00
     -6.112  0.0000E+00  0.0000E+00
     -6.012  0.0000E+00  0.0000E+00
     -5.913  0.0000E+00  0.0000E+00
     -5.813  0.0000E+00  0.0000E+00
     -5.713  0.1628E-16  0.1622E-17
     -5.614  0.5975E-09  0.5953E-10
     -5.514  0.1089E-04  0.1085E-05
     -5.415  0.2647E-03  0.2746E-04
     -5.315  0.1322E-02  0.1592E-03
     -5.215  0.2491E-02  0.4074E-03
     -5.116  0.2519E-02  0.6583E-03
     -5.016  0.1908E-02  0.8485E-03
     -4.916  0.2407E-02  0.1088E-02
     -4.817  0.6409E-02  0.1727E-02
     -4.717  0.6284E-02  0.2353E-02
     -4.617  0.6645E-03  0.2419E-02
     -4.518  0.2830E-02  0.2701E-02
     -4.418  0.6912E-02  0.3390E-02
     -4.319  0.7116E-02  0.4099E-02
     -4.219  0.6542E-02  0.4751E-02
     -4.119  0.4590E-02  0.5208E-02
     -4.020  0.4764E-02  0.5682E-02
     -3.920  0.9416E-02  0.6621E-02
     -3.820  0.9440E-02  0.7561E-02
     -3.721  0.3636E-02  0.7923E-02
     -3.621  0.6273E-02  0.8548E-02
     -3.521  0.7970E-02  0.9342E-02
     -3.422  0.7559E-02  0.1010E-01
     -3.322  0.8270E-02  0.1092E-01
     -3.223  0.4913E-02  0.1141E-01
     -3.123  0.7118E-02  0.1212E-01
     -3.023  0.6625E-02  0.1278E-01
     -2.924  0.6952E-02  0.1347E-01
     -2.824  0.7480E-02  0.1422E-01
     -2.724  0.4448E-02  0.1466E-01
     -2.625  0.1323E-01  0.1598E-01
     -2.525  0.1424E-01  0.1740E-01
     -2.426  0.8581E-02  0.1825E-01
     -2.326  0.6644E-02  0.1891E-01
     -2.226  0.1399E-01  0.2031E-01
     -2.127  0.1365E-01  0.2167E-01
     -2.027  0.6090E-02  0.2227E-01
     -1.927  0.7132E-02  0.2298E-01
     -1.828  0.1042E-01  0.2402E-01
     -1.728  0.1307E-01  0.2532E-01
     -1.628  0.1475E-01  0.2679E-01
     -1.529  0.1201E-01  0.2799E-01
     -1.429  0.1740E-01  0.2972E-01
     -1.330  0.1256E-01  0.3097E-01
     -1.230  0.1565E-01  0.3253E-01
     -1.130  0.1703E-01  0.3423E-01
     -1.031  0.2216E-01  0.3644E-01
     -0.931  0.1401E-01  0.3783E-01
     -0.831  0.1963E-01  0.3979E-01
     -0.732  0.3176E-01  0.4295E-01
     -0.632  0.2479E-01  0.4542E-01
     -0.532  0.7842E-02  0.4621E-01
     -0.433  0.1645E-01  0.4785E-01
     -0.333  0.1601E-01  0.4944E-01
     -0.234  0.6625E-02  0.5010E-01
     -0.134  0.6291E-02  0.5073E-01
     -0.034  0.1270E-01  0.5199E-01
      0.065  0.1145E-01  0.5313E-01
      0.165  0.7719E-02  0.5390E-01
      0.265  0.5754E-02  0.5448E-01
      0.364  0.7994E-02  0.5527E-01
      0.464  0.9752E-02  0.5624E-01
      0.564  0.6352E-02  0.5688E-01
      0.663  0.3377E-02  0.5721E-01
      0.763  0.3359E-02  0.5755E-01
      0.862  0.3293E-02  0.5788E-01
      0.962  0.4338E-02  0.5831E-01
      1.062  0.3250E-02  0.5863E-01
      1.161  0.3175E-02  0.5895E-01
      1.261  0.1489E-02  0.5910E-01
      1.361  0.1826E-02  0.5928E-01
      1.460  0.1581E-02  0.5944E-01
      1.560  0.1334E-02  0.5957E-01
      1.659  0.2155E-02  0.5978E-01
      1.759  0.6538E-03  0.5985E-01
      1.859  0.9986E-03  0.5995E-01
      1.958  0.2190E-03  0.5997E-01
      2.058  0.2244E-03  0.5999E-01
      2.158  0.6909E-04  0.6000E-01
      2.257  0.1248E-06  0.6000E-01
      2.357  0.2048E-03  0.6002E-01
      2.457  0.1821E-02  0.6020E-01
      2.556  0.3427E-02  0.6054E-01
      2.656  0.1840E-02  0.6073E-01
      2.755  0.3879E-02  0.6111E-01
      2.855  0.9032E-02  0.6201E-01
      2.955  0.7376E-02  0.6275E-01
      3.054  0.1396E-01  0.6414E-01
      3.154  0.1845E-01  0.6598E-01
      3.254  0.1576E-01  0.6755E-01
      3.353  0.1954E-01  0.6950E-01
      3.453  0.1444E-01  0.7093E-01
      3.553  0.1059E-01  0.7199E-01
      3.652  0.2052E-01  0.7403E-01
      3.752  0.2180E-01  0.7620E-01
      3.851  0.2415E-01  0.7861E-01
      3.951  0.2470E-01  0.8107E-01
      4.051  0.1655E-01  0.8272E-01
      4.150  0.1346E-01  0.8406E-01
      4.250  0.1266E-01  0.8532E-01
      4.350  0.1293E-01  0.8661E-01
      4.449  0.1288E-01  0.8789E-01
      4.549  0.1577E-01  0.8946E-01
      4.648  0.1454E-01  0.9091E-01
      4.748  0.2117E-01  0.9302E-01
      4.848  0.1761E-01  0.9478E-01
      4.947  0.1779E-01  0.9655E-01
      5.047  0.2101E-01  0.9864E-01
      5.147  0.1976E-01  0.1006E+00
      5.246  0.1438E-01  0.1020E+00
      5.346  0.1479E-01  0.1035E+00
      5.446  0.1682E-01  0.1052E+00
      5.545  0.1560E-01  0.1067E+00
      5.645  0.1871E-01  0.1086E+00
      5.744  0.1593E-01  0.1102E+00
      5.844  0.1479E-01  0.1117E+00
      5.944  0.1836E-01  0.1135E+00
      6.043  0.2137E-01  0.1156E+00
      6.143  0.1976E-01  0.1176E+00
      6.243  0.2431E-01  0.1200E+00
      6.342  0.1577E-01  0.1216E+00
      6.442  0.1478E-01  0.1231E+00
      6.542  0.2293E-01  0.1254E+00
      6.641  0.1446E-01  0.1268E+00
      6.741  0.1786E-01  0.1286E+00
      6.840  0.2216E-01  0.1308E+00
      6.940  0.2331E-01  0.1331E+00
      7.040  0.2126E-01  0.1352E+00
      7.139  0.1746E-01  0.1370E+00
      7.239  0.2421E-01  0.1394E+00
      7.339  0.1856E-01  0.1412E+00
      7.438  0.2226E-01  0.1434E+00
      7.538  0.2358E-01  0.1458E+00
      7.637  0.2106E-01  0.1479E+00
      7.737  0.2156E-01  0.1500E+00
      7.837  0.2375E-01  0.1524E+00
      7.936  0.1152E-01  0.1535E+00
      8.036  0.1398E-01  0.1549E+00
      8.136  0.2062E-01  0.1570E+00
      8.235  0.2853E-01  0.1598E+00
      8.335  0.2224E-01  0.1621E+00
      8.435  0.2371E-01  0.1644E+00
      8.534  0.1797E-01  0.1662E+00
      8.634  0.1696E-01  0.1679E+00
      8.733  0.2431E-01  0.1703E+00
      8.833  0.2647E-01  0.1730E+00
      8.933  0.1964E-01  0.1749E+00
      9.032  0.2097E-01  0.1770E+00
      9.132  0.2316E-01  0.1793E+00
      9.232  0.2693E-01  0.1820E+00
      9.331  0.1535E-01  0.1835E+00
      9.431  0.2211E-01  0.1857E+00
      9.531  0.2403E-01  0.1881E+00
      9.630  0.2538E-01  0.1906E+00
      9.730  0.3118E-01  0.1938E+00
      9.829  0.2121E-01  0.1959E+00
      9.929  0.2081E-01  0.1979E+00
     10.029  0.2418E-01  0.2003E+00
     10.128  0.2670E-01  0.2030E+00
     10.228  0.2921E-01  0.2059E+00
     10.328  0.2842E-01  0.2088E+00
     10.427  0.1930E-01  0.2107E+00
     10.527  0.2181E-01  0.2128E+00
     10.626  0.1963E-01  0.2148E+00
     10.726  0.2182E-01  0.2170E+00
     10.826  0.2852E-01  0.2198E+00
     10.925  0.3106E-01  0.2229E+00
     11.025  0.2749E-01  0.2257E+00
     11.125  0.2879E-01  0.2285E+00
     11.224  0.2501E-01  0.2310E+00
     11.324  0.2227E-01  0.2332E+00
     11.424  0.1746E-01  0.2350E+00
     11.523  0.1496E-01  0.2365E+00
     11.623  0.1059E-01  0.2375E+00
     11.722  0.6079E-02  0.2381E+00
     11.822  0.7206E-02  0.2388E+00
     11.922  0.4765E-02  0.2393E+00
     12.021  0.3416E-02  0.2397E+00
     12.121  0.2708E-02  0.2399E+00
     12.221  0.2184E-02  0.2401E+00
     12.320  0.6932E-03  0.2402E+00
     12.420  0.1761E-02  0.2404E+00
     12.520  0.1680E-02  0.2406E+00
     12.619  0.7158E-03  0.2406E+00
     12.719  0.1187E-03  0.2406E+00
     12.818  0.1979E-02  0.2408E+00
     12.918  0.7066E-03  0.2409E+00
     13.018  0.1886E-02  0.2411E+00
     13.117  0.6422E-03  0.2412E+00
     13.217  0.7822E-03  0.2412E+00
     13.317  0.1356E-02  0.2414E+00
     13.416  0.4435E-02  0.2418E+00
     13.516  0.2853E-02  0.2421E+00
     13.615  0.3040E-02  0.2424E+00
     13.715  0.2477E-02  0.2426E+00
     13.815  0.3819E-02  0.2430E+00
     13.914  0.2348E-02  0.2433E+00
     14.014  0.3057E-02  0.2436E+00
     14.114  0.4902E-02  0.2441E+00
     14.213  0.6651E-02  0.2447E+00
     14.313  0.1675E-02  0.2449E+00
     14.413  0.9875E-03  0.2450E+00
     14.512  0.3279E-02  0.2453E+00
     14.612  0.7331E-02  0.2460E+00
     14.711  0.6777E-02  0.2467E+00
     14.811  0.1096E-01  0.2478E+00
     14.911  0.7515E-02  0.2486E+00
     15.010  0.7950E-02  0.2493E+00
     15.110  0.8544E-02  0.2502E+00
     15.210  0.1440E-01  0.2516E+00
     15.309  0.1176E-01  0.2528E+00
     15.409  0.1633E-01  0.2544E+00
     15.509  0.1303E-01  0.2557E+00
     15.608  0.1398E-01  0.2571E+00
     15.708  0.2120E-01  0.2592E+00
     15.807  0.1272E-01  0.2605E+00
     15.907  0.1348E-01  0.2618E+00
     16.007  0.1245E-01  0.2631E+00
     16.106  0.1066E-01  0.2641E+00
     16.206  0.1506E-01  0.2656E+00
     16.306  0.1951E-01  0.2676E+00
     16.405  0.1336E-01  0.2689E+00
     16.505  0.2037E-01  0.2710E+00
     16.604  0.2318E-01  0.2733E+00
     16.704  0.1812E-01  0.2751E+00
     16.804  0.1565E-01  0.2766E+00
     16.903  0.1311E-01  0.2779E+00
     17.003  0.8201E-02  0.2787E+00
     17.103  0.1515E-01  0.2803E+00
     17.202  0.9327E-02  0.2812E+00
     17.302  0.7025E-02  0.2819E+00
     17.402  0.1222E-01  0.2831E+00
     17.501  0.1953E-01  0.2851E+00
     17.601  0.1622E-01  0.2867E+00
     17.700  0.9899E-02  0.2877E+00
     17.800  0.1453E-01  0.2891E+00
     17.900  0.1743E-01  0.2908E+00
     17.999  0.1182E-01  0.2920E+00
     18.099  0.1627E-01  0.2936E+00
     18.199  0.2042E-01  0.2957E+00
     18.298  0.2317E-01  0.2980E+00
     18.398  0.2259E-01  0.3002E+00
     18.498  0.2639E-01  0.3029E+00
     18.597  0.1924E-01  0.3048E+00
     18.697  0.2670E-01  0.3074E+00
     18.796  0.2142E-01  0.3096E+00
     18.896  0.1719E-01  0.3113E+00
     18.996  0.1983E-01  0.3133E+00
     19.095  0.1458E-01  0.3147E+00
     19.195  0.2528E-01  0.3172E+00
     19.295  0.2400E-01  0.3196E+00
     19.394  0.2393E-01  0.3220E+00
     19.494  0.1733E-01  0.3237E+00
     19.593  0.2697E-01  0.3264E+00
     19.693  0.2187E-01  0.3286E+00
     19.793  0.2212E-01  0.3308E+00
     19.892  0.1696E-01  0.3325E+00
     19.992  0.2353E-01  0.3348E+00
     20.092  0.2279E-01  0.3371E+00
     20.191  0.2280E-01  0.3394E+00
     20.291  0.2230E-01  0.3416E+00
     20.391  0.1926E-01  0.3435E+00
     20.490  0.1685E-01  0.3452E+00
     20.590  0.2430E-01  0.3476E+00
     20.689  0.1827E-01  0.3494E+00
     20.789  0.2035E-01  0.3515E+00
     20.889  0.1999E-01  0.3535E+00
     20.988  0.1845E-01  0.3553E+00
     21.088  0.1581E-01  0.3569E+00
     21.188  0.8258E-02  0.3577E+00
     21.287  0.7407E-02  0.3584E+00
     21.387  0.8038E-02  0.3592E+00
     21.487  0.3082E-02  0.3595E+00
     21.586  0.2003E-02  0.3597E+00
     21.686  0.1062E-02  0.3598E+00
     21.785  0.1493E-02  0.3600E+00
     21.885  0.6394E-04  0.3600E+00
     21.985  0.3422E-08  0.3600E+00
     22.084  0.9100E-16  0.3600E+00
     22.184  0.0000E+00  0.3600E+00
     22.284  0.0000E+00  0.3600E+00
     22.383  0.0000E+00  0.3600E+00
     22.483  0.0000E+00  0.3600E+00
     22.582  0.0000E+00  0.3600E+00
     22.682  0.0000E+00  0.3600E+00
     22.782  0.0000E+00  0.3600E+00
     22.881  0.0000E+00  0.3600E+00
     22.981  0.0000E+00  0.3600E+00
     23.081  0.0000E+00  0.3600E+00
