Al4C3 Pbam - r2SCAN H(P) scan @ 70 GPa (
           1
     8.337257    0.000000    0.000000
     0.000000    4.814004    0.000000
     0.000000    0.000000    2.851678
   Al   C 
     8     6
Direct configuration=     1
   0.78598486  0.16018134  0.00000000
   0.21401514  0.83981866  0.00000000
   0.71401514  0.66018134  0.00000000
   0.28598486  0.33981866  0.00000000
   0.03245872  0.25287264  0.50000000
   0.96754131  0.74712736  0.50000000
   0.46754128  0.75287264  0.50000000
   0.53245869  0.24712736  0.50000000
   0.00000000  0.00000000  0.00000000
   0.50000000  0.50000000  0.00000000
   0.82399830  0.44500483  0.50000000
   0.17600170  0.55499517  0.50000000
   0.67600170  0.94500483  0.50000000
   0.32399830  0.05499517  0.50000000
Al4C3 Pbam - r2SCAN H(P) scan @ 70 GPa (
           1
     8.260385    0.000000    0.000000
     0.000000    4.769617    0.000000
     0.000000    0.000000    2.825384
   Al   C 
     8     6
Direct configuration=     2
   0.78615200  0.16036231  0.00000000
   0.21384800  0.83963769 -0.00000000
   0.71384800  0.66036231  0.00000000
   0.28615200  0.33963769 -0.00000000
   0.03201805  0.25246907  0.50000000
   0.96798197  0.74753093  0.50000000
   0.46798194  0.75246907  0.50000000
   0.53201803  0.24753093  0.50000000
   0.00000000  0.00000000  0.00000000
   0.50000000  0.50000000  0.00000000
   0.82472135  0.44525288  0.50000000
   0.17527865  0.55474712  0.50000000
   0.67527865  0.94525288  0.50000000
   0.32472135  0.05474712  0.50000000
Al4C3 Pbam - r2SCAN H(P) scan @ 70 GPa (
           1
     8.312830    0.000000    0.000000
     0.000000    4.799900    0.000000
     0.000000    0.000000    2.843323
   Al   C 
     8     6
Direct configuration=     3
   0.78603691  0.16023770  0.00000000
   0.21396309  0.83976230 -0.00000000
   0.71396309  0.66023770  0.00000000
   0.28603691  0.33976230 -0.00000000
   0.03232149  0.25274696  0.50000000
   0.96767854  0.74725304  0.50000000
   0.46767851  0.75274696  0.50000000
   0.53232146  0.24725304  0.50000000
   0.00000000  0.00000000  0.00000000
   0.50000000  0.50000000  0.00000000
   0.82422347  0.44508208  0.50000000
   0.17577653  0.55491792  0.50000000
   0.67577653  0.94508208  0.50000000
   0.32422347  0.05491792  0.50000000
Al4C3 Pbam - r2SCAN H(P) scan @ 70 GPa (
           1
     8.312770    0.000000    0.000000
     0.000000    4.799865    0.000000
     0.000000    0.000000    2.843302
   Al   C 
     8     6
Direct configuration=     4
   0.78603704  0.16023784  0.00000000
   0.21396296  0.83976216 -0.00000000
   0.71396296  0.66023784  0.00000000
   0.28603704  0.33976216 -0.00000000
   0.03232114  0.25274664  0.50000000
   0.96767888  0.74725336  0.50000000
   0.46767885  0.75274664  0.50000000
   0.53232112  0.24725336  0.50000000
   0.00000000  0.00000000  0.00000000
   0.50000000  0.50000000  0.00000000
   0.82422404  0.44508227  0.50000000
   0.17577596  0.55491773  0.50000000
   0.67577596  0.94508227  0.50000000
   0.32422404  0.05491773  0.50000000
Al4C3 Pbam - r2SCAN H(P) scan @ 70 GPa (
           1
     8.313499    0.000000    0.000000
     0.000000    4.800286    0.000000
     0.000000    0.000000    2.843552
   Al   C 
     8     6
Direct configuration=     5
   0.78593924  0.16048473  0.00000000
   0.21406076  0.83951527 -0.00000000
   0.71406076  0.66048473  0.00000000
   0.28593924  0.33951527 -0.00000000
   0.03221061  0.25264204  0.50000000
   0.96778941  0.74735796  0.50000000
   0.46778938  0.75264204  0.50000000
   0.53221059  0.24735796  0.50000000
   0.00000000  0.00000000  0.00000000
   0.50000000  0.50000000  0.00000000
   0.82448037  0.44518510  0.50000000
   0.17551963  0.55481490  0.50000000
   0.67551963  0.94518510  0.50000000
   0.32448037  0.05481490  0.50000000
Al4C3 Pbam - r2SCAN H(P) scan @ 70 GPa (
           1
     8.313697    0.000000    0.000000
     0.000000    4.800401    0.000000
     0.000000    0.000000    2.843620
   Al   C 
     8     6
Direct configuration=     6
   0.78591269  0.16055175  0.00000000
   0.21408731  0.83944825 -0.00000000
   0.71408731  0.66055175  0.00000000
   0.28591269  0.33944825 -0.00000000
   0.03218061  0.25261364  0.50000000
   0.96781942  0.74738636  0.50000000
   0.46781939  0.75261364  0.50000000
   0.53218058  0.24738636  0.50000000
   0.00000000  0.00000000  0.00000000
   0.50000000  0.50000000  0.00000000
   0.82454996  0.44521302  0.50000000
   0.17545004  0.55478698  0.50000000
   0.67545004  0.94521302  0.50000000
   0.32454996  0.05478698  0.50000000
Al4C3 Pbam - r2SCAN H(P) scan @ 70 GPa (
           1
     8.313672    0.000000    0.000000
     0.000000    4.800386    0.000000
     0.000000    0.000000    2.843611
   Al   C 
     8     6
Direct configuration=     7
   0.78577944  0.16078811  0.00000000
   0.21422056  0.83921189 -0.00000000
   0.71422056  0.66078811  0.00000000
   0.28577944  0.33921189 -0.00000000
   0.03207492  0.25259988  0.50000000
   0.96792510  0.74740012  0.50000000
   0.46792507  0.75259988  0.50000000
   0.53207490  0.24740012  0.50000000
   0.00000000  0.00000000  0.00000000
   0.50000000  0.50000000  0.00000000
   0.82453307  0.44548649  0.50000000
   0.17546693  0.55451351  0.50000000
   0.67546693  0.94548649  0.50000000
   0.32453307  0.05451351  0.50000000
Al4C3 Pbam - r2SCAN H(P) scan @ 70 GPa (
           1
     8.313645    0.000000    0.000000
     0.000000    4.800371    0.000000
     0.000000    0.000000    2.843602
   Al   C 
     8     6
Direct configuration=     8
   0.78563304  0.16104779  0.00000000
   0.21436696  0.83895221 -0.00000000
   0.71436696  0.66104779  0.00000000
   0.28563304  0.33895221 -0.00000000
   0.03195881  0.25258476  0.50000000
   0.96804122  0.74741524  0.50000000
   0.46804119  0.75258476  0.50000000
   0.53195878  0.24741524  0.50000000
   0.00000000  0.00000000  0.00000000
   0.50000000  0.50000000  0.00000000
   0.82451451  0.44578693  0.50000000
   0.17548549  0.55421307  0.50000000
   0.67548549  0.94578693  0.50000000
   0.32451451  0.05421307  0.50000000
Al4C3 Pbam - r2SCAN H(P) scan @ 70 GPa (
           1
     8.313732    0.000000    0.000000
     0.000000    4.800421    0.000000
     0.000000    0.000000    2.843632
   Al   C 
     8     6
Direct configuration=     9
   0.78568624  0.16135717  0.00000000
   0.21431376  0.83864283 -0.00000000
   0.71431376  0.66135717  0.00000000
   0.28568624  0.33864283 -0.00000000
   0.03178135  0.25258597  0.50000000
   0.96821867  0.74741403  0.50000000
   0.46821864  0.75258597  0.50000000
   0.53178133  0.24741403  0.50000000
   0.00000000  0.00000000  0.00000000
   0.50000000  0.50000000  0.00000000
   0.82443396  0.44589332  0.50000000
   0.17556604  0.55410668  0.50000000
   0.67556604  0.94589332  0.50000000
   0.32443396  0.05410668  0.50000000
Al4C3 Pbam - r2SCAN H(P) scan @ 70 GPa (
           1
     8.313705    0.000000    0.000000
     0.000000    4.800405    0.000000
     0.000000    0.000000    2.843622
   Al   C 
     8     6
Direct configuration=    10
   0.78566952  0.16125989  0.00000000
   0.21433048  0.83874011 -0.00000000
   0.71433048  0.66125989  0.00000000
   0.28566952  0.33874011 -0.00000000
   0.03183715  0.25258559  0.50000000
   0.96816288  0.74741441  0.50000000
   0.46816285  0.75258559  0.50000000
   0.53183712  0.24741441  0.50000000
   0.00000000  0.00000000  0.00000000
   0.50000000  0.50000000  0.00000000
   0.82445929  0.44585987  0.50000000
   0.17554071  0.55414013  0.50000000
   0.67554071  0.94585987  0.50000000
   0.32445929  0.05414013  0.50000000
Al4C3 Pbam - r2SCAN H(P) scan @ 70 GPa (
           1
     8.313803    0.000000    0.000000
     0.000000    4.800462    0.000000
     0.000000    0.000000    2.843656
   Al   C 
     8     6
Direct configuration=    11
   0.78570600  0.16135782  0.00000000
   0.21429400  0.83864218 -0.00000000
   0.71429400  0.66135782 -0.00000000
   0.28570600  0.33864218  0.00000000
   0.03184347  0.25269252  0.50000000
   0.96815656  0.74730748  0.50000000
   0.46815653  0.75269252  0.50000000
   0.53184344  0.24730748  0.50000000
   0.00000000  0.00000000  0.00000000
   0.50000000  0.50000000  0.00000000
   0.82446588  0.44591831  0.50000000
   0.17553412  0.55408169  0.50000000
   0.67553412  0.94591831  0.50000000
   0.32446588  0.05408169  0.50000000
Al4C3 Pbam - r2SCAN H(P) scan @ 70 GPa (
           1
     8.313762    0.000000    0.000000
     0.000000    4.800438    0.000000
     0.000000    0.000000    2.843642
   Al   C 
     8     6
Direct configuration=    12
   0.78569075  0.16131690  0.00000000
   0.21430925  0.83868310 -0.00000000
   0.71430925  0.66131690  0.00000000
   0.28569075  0.33868310 -0.00000000
   0.03184083  0.25264783  0.50000000
   0.96815920  0.74735217  0.50000000
   0.46815917  0.75264783  0.50000000
   0.53184080  0.24735217  0.50000000
   0.00000000  0.00000000  0.00000000
   0.50000000  0.50000000  0.00000000
   0.82446313  0.44589389  0.50000000
   0.17553687  0.55410611  0.50000000
   0.67553687  0.94589389  0.50000000
   0.32446313  0.05410611  0.50000000
