       N       E                     dE             d eps       ncg     rms          rms(c)
DAV:   1    -0.962001593755E+02   -0.96200E+02   -0.45547E+01  6528   0.239E+01    0.182E+01
DAV:   2    -0.844659682110E+02    0.11734E+02   -0.36363E+01  6228   0.214E+01    0.542E+00
DAV:   3    -0.842878193590E+02    0.17815E+00   -0.25592E+00  6504   0.639E+00    0.336E+00
DAV:   4    -0.842474269220E+02    0.40392E-01   -0.30079E-01  6084   0.239E+00    0.805E-01
DAV:   5    -0.842277613806E+02    0.19666E-01   -0.71607E-02  6528   0.996E-01    0.257E-01
DAV:   6    -0.842280566120E+02   -0.29523E-03   -0.37598E-03  6528   0.284E-01    0.795E-02
DAV:   7    -0.842280797224E+02   -0.23110E-04   -0.91892E-05  6744   0.591E-02    0.483E-02
DAV:   8    -0.842280810792E+02   -0.13569E-05   -0.12559E-04  6576   0.435E-02    0.151E-02
DAV:   9    -0.842280796972E+02    0.13820E-05   -0.53316E-06  3828   0.124E-02
   1 F= -.84228080E+02 E0= -.84227780E+02  d E =-.842281E+02
       N       E                     dE             d eps       ncg     rms          rms(c)
DAV:   1    -0.846367692579E+02   -0.40869E+00   -0.10386E+01  6180   0.161E+01    0.344E+00
DAV:   2    -0.843426049290E+02    0.29416E+00   -0.85778E-01  6252   0.373E+00    0.133E+00
DAV:   3    -0.843298555944E+02    0.12749E-01   -0.73095E-02  6660   0.112E+00    0.475E-01
DAV:   4    -0.843258166022E+02    0.40390E-02   -0.64206E-03  6168   0.311E-01    0.180E-01
DAV:   5    -0.843250149240E+02    0.80168E-03   -0.13888E-03  6600   0.144E-01    0.846E-02
DAV:   6    -0.843249504976E+02    0.64426E-04   -0.13416E-04  6492   0.514E-02    0.502E-02
DAV:   7    -0.843249398055E+02    0.10692E-04   -0.37242E-05  5856   0.242E-02    0.786E-03
DAV:   8    -0.843249378082E+02    0.19973E-05   -0.20658E-06  3516   0.991E-03
   2 F= -.84324938E+02 E0= -.84324253E+02  d E =-.968581E-01
       N       E                     dE             d eps       ncg     rms          rms(c)
DAV:   1    -0.844996692143E+02   -0.17473E+00   -0.20119E+00  6204   0.731E+00    0.151E+00
DAV:   2    -0.844444829175E+02    0.55186E-01   -0.16142E-01  6240   0.162E+00    0.580E-01
DAV:   3    -0.844418710766E+02    0.26118E-02   -0.11216E-02  6660   0.479E-01    0.219E-01
DAV:   4    -0.844411329710E+02    0.73811E-03   -0.90391E-04  6156   0.136E-01    0.765E-02
DAV:   5    -0.844410046613E+02    0.12831E-03   -0.12022E-04  6804   0.473E-02    0.419E-02
DAV:   6    -0.844410002690E+02    0.43922E-05   -0.10641E-05  4620   0.227E-02
   3 F= -.84441000E+02 E0= -.84440494E+02  d E =-.212921E+00
       N       E                     dE             d eps       ncg     rms          rms(c)
DAV:   1    -0.844410028015E+02    0.18598E-05   -0.39731E-05  5916   0.330E-02    0.623E-03
DAV:   2    -0.844410023257E+02    0.47583E-06   -0.29486E-06  3108   0.853E-03
   4 F= -.84441002E+02 E0= -.84440499E+02  d E =-.212923E+00
       N       E                     dE             d eps       ncg     rms          rms(c)
DAV:   1    -0.844469467028E+02   -0.59439E-02   -0.40779E-01  5184   0.324E+00    0.110E-01
DAV:   2    -0.844468236713E+02    0.12303E-03   -0.60076E-03  6864   0.368E-01    0.650E-02
DAV:   3    -0.844466919724E+02    0.13170E-03   -0.37819E-04  6576   0.104E-01    0.270E-02
DAV:   4    -0.844466936115E+02   -0.16391E-05   -0.12400E-04  6696   0.455E-02    0.990E-03
DAV:   5    -0.844466939443E+02   -0.33284E-06   -0.35156E-06  3888   0.113E-02
   5 F= -.84446694E+02 E0= -.84446205E+02  d E =-.569162E-02
       N       E                     dE             d eps       ncg     rms          rms(c)
DAV:   1    -0.844485333928E+02   -0.18398E-02   -0.32181E-01  5184   0.287E+00    0.978E-02
DAV:   2    -0.844484347560E+02    0.98637E-04   -0.47225E-03  6864   0.326E-01    0.577E-02
DAV:   3    -0.844483311851E+02    0.10357E-03   -0.29894E-04  6624   0.922E-02    0.240E-02
DAV:   4    -0.844483327180E+02   -0.15329E-05   -0.97388E-05  6648   0.403E-02
   6 F= -.84448333E+02 E0= -.84447859E+02  d E =-.733039E-02
       N       E                     dE             d eps       ncg     rms          rms(c)
DAV:   1    -0.844499336275E+02   -0.16024E-02   -0.67952E-02  5184   0.131E+00    0.524E-02
DAV:   2    -0.844499496233E+02   -0.15996E-04   -0.11673E-03  6852   0.165E-01    0.319E-02
DAV:   3    -0.844499184472E+02    0.31176E-04   -0.85018E-05  6540   0.495E-02    0.130E-02
DAV:   4    -0.844499191536E+02   -0.70643E-06   -0.28348E-05  5124   0.237E-02
   7 F= -.84449919E+02 E0= -.84449455E+02  d E =-.158644E-02
       N       E                     dE             d eps       ncg     rms          rms(c)
DAV:   1    -0.844506885330E+02   -0.77009E-03   -0.11589E-01  5208   0.172E+00    0.688E-02
DAV:   2    -0.844507225056E+02   -0.33973E-04   -0.20404E-03  6864   0.218E-01    0.421E-02
DAV:   3    -0.844506694164E+02    0.53089E-04   -0.14966E-04  6696   0.658E-02    0.175E-02
DAV:   4    -0.844506701962E+02   -0.77974E-06   -0.48862E-05  5724   0.316E-02
   8 F= -.84450670E+02 E0= -.84450222E+02  d E =-.233748E-02
       N       E                     dE             d eps       ncg     rms          rms(c)
DAV:   1    -0.844511840234E+02   -0.51461E-03   -0.33926E-02  5196   0.952E-01    0.346E-02
DAV:   2    -0.844512163903E+02   -0.32367E-04   -0.64663E-04  6852   0.119E-01    0.253E-02
DAV:   3    -0.844512066127E+02    0.97775E-05   -0.24485E-05  5844   0.281E-02
   9 F= -.84451207E+02 E0= -.84450752E+02  d E =-.536417E-03
       N       E                     dE             d eps       ncg     rms          rms(c)
DAV:   1    -0.844512139980E+02    0.23923E-05   -0.60266E-04  5316   0.128E-01    0.771E-03
DAV:   2    -0.844512144889E+02   -0.49094E-06   -0.72070E-06  4956   0.137E-02
  10 F= -.84451214E+02 E0= -.84450757E+02  d E =-.544293E-03
       N       E                     dE             d eps       ncg     rms          rms(c)
DAV:   1    -0.844513226269E+02   -0.10863E-03   -0.27520E-02  5184   0.856E-01    0.369E-02
DAV:   2    -0.844513097513E+02    0.12876E-04   -0.49632E-04  6888   0.106E-01    0.214E-02
DAV:   3    -0.844512987720E+02    0.10979E-04   -0.40204E-05  6060   0.316E-02    0.809E-03
DAV:   4    -0.844512982768E+02    0.49526E-06   -0.84740E-06  3504   0.141E-02
  11 F= -.84451298E+02 E0= -.84450827E+02  d E =-.837878E-04
       N       E                     dE             d eps       ncg     rms          rms(c)
DAV:   1    -0.844513174662E+02   -0.18694E-04   -0.24979E-03  5208   0.257E-01    0.105E-02
DAV:   2    -0.844513171994E+02    0.26683E-06   -0.46624E-05  6828   0.321E-02
  12 F= -.84451317E+02 E0= -.84450849E+02  d E =-.102710E-03
