Al4C3 Pbam - H(P) scan @ 0 GPa (ISIF=8) 
           1
     8.898548    0.000000    0.000000
     0.000000    5.138098    0.000000
     0.000000    0.000000    3.043662
   Al   C 
     8     6
Direct configuration=     1
   0.78525774  0.15677274  0.00000000
   0.21474226  0.84322726  0.00000000
   0.71474226  0.65677274  0.00000000
   0.28525774  0.34322726  0.00000000
   0.02696045  0.25379693  0.50000000
   0.97303958  0.74620307  0.50000000
   0.47303955  0.75379693  0.50000000
   0.52696042  0.24620307  0.50000000
   0.00000000  0.00000000  0.00000000
   0.50000000  0.50000000  0.00000000
   0.82646418  0.45167056  0.50000000
   0.17353582  0.54832944  0.50000000
   0.67353582  0.95167056  0.50000000
   0.32646418  0.04832944  0.50000000
Al4C3 Pbam - H(P) scan @ 0 GPa (ISIF=8) 
           1
     9.163668    0.000000    0.000000
     0.000000    5.291181    0.000000
     0.000000    0.000000    3.134344
   Al   C 
     8     6
Direct configuration=     2
   0.78526823  0.15676093  0.00000000
   0.21473177  0.84323907 -0.00000000
   0.71473177  0.65676093  0.00000000
   0.28526823  0.34323907  0.00000000
   0.02696607  0.25375586  0.50000000
   0.97303395  0.74624414  0.50000000
   0.47303392  0.75375586  0.50000000
   0.52696605  0.24624414  0.50000000
   0.00000000  0.00000000  0.00000000
   0.50000000  0.50000000  0.00000000
   0.82644778  0.45168961  0.50000000
   0.17355222  0.54831039  0.50000000
   0.67355222  0.95168961  0.50000000
   0.32644778  0.04831039  0.50000000
Al4C3 Pbam - H(P) scan @ 0 GPa (ISIF=8) 
           1
     9.048736    0.000000    0.000000
     0.000000    5.224818    0.000000
     0.000000    0.000000    3.095033
   Al   C 
     8     6
Direct configuration=     3
   0.78526381  0.15676590  0.00000000
   0.21473619  0.84323410 -0.00000000
   0.71473619  0.65676590  0.00000000
   0.28526381  0.34323410  0.00000000
   0.02696371  0.25377315  0.50000000
   0.97303632  0.74622685  0.50000000
   0.47303629  0.75377315  0.50000000
   0.52696368  0.24622685  0.50000000
   0.00000000  0.00000000  0.00000000
   0.50000000  0.50000000  0.00000000
   0.82645469  0.45168159  0.50000000
   0.17354531  0.54831841  0.50000000
   0.67354531  0.95168159  0.50000000
   0.32645469  0.04831841  0.50000000
Al4C3 Pbam - H(P) scan @ 0 GPa (ISIF=8) 
           1
     9.048210    0.000000    0.000000
     0.000000    5.224515    0.000000
     0.000000    0.000000    3.094853
   Al   C 
     8     6
Direct configuration=     4
   0.78526379  0.15676592  0.00000000
   0.21473621  0.84323408 -0.00000000
   0.71473621  0.65676592  0.00000000
   0.28526379  0.34323408  0.00000000
   0.02696369  0.25377323  0.50000000
   0.97303633  0.74622677  0.50000000
   0.47303630  0.75377323  0.50000000
   0.52696367  0.24622677  0.50000000
   0.00000000  0.00000000  0.00000000
   0.50000000  0.50000000  0.00000000
   0.82645472  0.45168155  0.50000000
   0.17354528  0.54831845  0.50000000
   0.67354528  0.95168155  0.50000000
   0.32645472  0.04831845  0.50000000
Al4C3 Pbam - H(P) scan @ 0 GPa (ISIF=8) 
           1
     9.050910    0.000000    0.000000
     0.000000    5.226074    0.000000
     0.000000    0.000000    3.095776
   Al   C 
     8     6
Direct configuration=     5
   0.78552443  0.15598786  0.00000000
   0.21447557  0.84401214 -0.00000000
   0.71447557  0.65598786  0.00000000
   0.28552443  0.34401214 -0.00000000
   0.02647400  0.25395114  0.50000000
   0.97352602  0.74604886  0.50000000
   0.47352599  0.75395114  0.50000000
   0.52647398  0.24604886  0.50000000
   0.00000000 -0.00000000  0.00000000
   0.50000000  0.50000000  0.00000000
   0.82695607  0.45257739  0.50000000
   0.17304393  0.54742261  0.50000000
   0.67304393  0.95257739  0.50000000
   0.32695607  0.04742261  0.50000000
Al4C3 Pbam - H(P) scan @ 0 GPa (ISIF=8) 
           1
     9.053308    0.000000    0.000000
     0.000000    5.227458    0.000000
     0.000000    0.000000    3.096596
   Al   C 
     8     6
Direct configuration=     6
   0.78575586  0.15529702  0.00000000
   0.21424414  0.84470298 -0.00000000
   0.71424414  0.65529702  0.00000000
   0.28575586  0.34470298 -0.00000000
   0.02603921  0.25410912  0.50000000
   0.97396082  0.74589088  0.50000000
   0.47396079  0.75410912  0.50000000
   0.52603918  0.24589088  0.50000000
   0.00000000 -0.00000000  0.00000000
   0.50000000  0.50000000  0.00000000
   0.82740122  0.45337280  0.50000000
   0.17259878  0.54662720  0.50000000
   0.67259878  0.95337280  0.50000000
   0.32740122  0.04662720  0.50000000
Al4C3 Pbam - H(P) scan @ 0 GPa (ISIF=8) 
           1
     9.054606    0.000000    0.000000
     0.000000    5.228208    0.000000
     0.000000    0.000000    3.097040
   Al   C 
     8     6
Direct configuration=     7
   0.78544492  0.15463525  0.00000000
   0.21455508  0.84536475 -0.00000000
   0.71455508  0.65463525  0.00000000
   0.28544492  0.34536475 -0.00000000
   0.02577844  0.25424046  0.50000000
   0.97422158  0.74575954  0.50000000
   0.47422155  0.75424046  0.50000000
   0.52577842  0.24575954  0.50000000
   0.00000000 -0.00000000  0.00000000
   0.50000000  0.50000000  0.00000000
   0.82725715  0.45376265  0.50000000
   0.17274285  0.54623735  0.50000000
   0.67274285  0.95376265  0.50000000
   0.32725715  0.04623735  0.50000000
Al4C3 Pbam - H(P) scan @ 0 GPa (ISIF=8) 
           1
     9.056301    0.000000    0.000000
     0.000000    5.229187    0.000000
     0.000000    0.000000    3.097620
   Al   C 
     8     6
Direct configuration=     8
   0.78503870  0.15377069 -0.00000000
   0.21496130  0.84622931  0.00000000
   0.71496130  0.65377069  0.00000000
   0.28503870  0.34622931 -0.00000000
   0.02543776  0.25441205  0.50000000
   0.97456226  0.74558795  0.50000000
   0.47456223  0.75441205  0.50000000
   0.52543774  0.24558795  0.50000000
   0.00000000 -0.00000000  0.00000000
   0.50000000  0.50000000  0.00000000
   0.82706892  0.45427198  0.50000000
   0.17293108  0.54572802  0.50000000
   0.67293108  0.95427198  0.50000000
   0.32706892  0.04572802  0.50000000
Al4C3 Pbam - H(P) scan @ 0 GPa (ISIF=8) 
           1
     9.055335    0.000000    0.000000
     0.000000    5.228629    0.000000
     0.000000    0.000000    3.097290
   Al   C 
     8     6
Direct configuration=     9
   0.78479778  0.15331183 -0.00000000
   0.21520222  0.84668817  0.00000000
   0.71520222  0.65331183  0.00000000
   0.28479778  0.34668817 -0.00000000
   0.02511896  0.25415033  0.50000000
   0.97488106  0.74584967  0.50000000
   0.47488103  0.75415033  0.50000000
   0.52511894  0.24584967  0.50000000
   0.00000000 -0.00000000  0.00000000
   0.50000000  0.50000000  0.00000000
   0.82717943  0.45401074  0.50000000
   0.17282057  0.54598926  0.50000000
   0.67282057  0.95401074  0.50000000
   0.32717943  0.04598926  0.50000000
Al4C3 Pbam - H(P) scan @ 0 GPa (ISIF=8) 
           1
     9.055203    0.000000    0.000000
     0.000000    5.228552    0.000000
     0.000000    0.000000    3.097244
   Al   C 
     8     6
Direct configuration=    10
   0.78476480  0.15324903 -0.00000000
   0.21523520  0.84675097  0.00000000
   0.71523520  0.65324903  0.00000000
   0.28476480  0.34675097 -0.00000000
   0.02507533  0.25411451  0.50000000
   0.97492469  0.74588549  0.50000000
   0.47492466  0.75411451  0.50000000
   0.52507531  0.24588549  0.50000000
   0.00000000 -0.00000000  0.00000000
   0.50000000  0.50000000  0.00000000
   0.82719456  0.45397499  0.50000000
   0.17280544  0.54602501  0.50000000
   0.67280544  0.95397499  0.50000000
   0.32719456  0.04602501  0.50000000
Al4C3 Pbam - H(P) scan @ 0 GPa (ISIF=8) 
           1
     9.057257    0.000000    0.000000
     0.000000    5.229739    0.000000
     0.000000    0.000000    3.097947
   Al   C 
     8     6
Direct configuration=    11
   0.78463243  0.15305671 -0.00000000
   0.21536757  0.84694329  0.00000000
   0.71536757  0.65305671 -0.00000000
   0.28463243  0.34694329  0.00000000
   0.02504511  0.25431004  0.50000000
   0.97495491  0.74568996  0.50000000
   0.47495488  0.75431004  0.50000000
   0.52504509  0.24568996  0.50000000
   0.00000000 -0.00000000  0.00000000
   0.50000000  0.50000000  0.00000000
   0.82731693  0.45373166  0.50000000
   0.17268307  0.54626834  0.50000000
   0.67268307  0.95373166  0.50000000
   0.32731693  0.04626834  0.50000000
Al4C3 Pbam - H(P) scan @ 0 GPa (ISIF=8) 
           1
     9.056642    0.000000    0.000000
     0.000000    5.229384    0.000000
     0.000000    0.000000    3.097737
   Al   C 
     8     6
Direct configuration=    12
   0.78467204  0.15311426 -0.00000000
   0.21532796  0.84688574  0.00000000
   0.71532796  0.65311426 -0.00000000
   0.28467204  0.34688574  0.00000000
   0.02505416  0.25425153  0.50000000
   0.97494587  0.74574847  0.50000000
   0.47494584  0.75425153  0.50000000
   0.52505413  0.24574847  0.50000000
   0.00000000 -0.00000000  0.00000000
   0.50000000  0.50000000  0.00000000
   0.82728031  0.45380447  0.50000000
   0.17271969  0.54619553  0.50000000
   0.67271969  0.95380447  0.50000000
   0.32728031  0.04619553  0.50000000
