  56  56   0   0
  0.8974283E+01  0.7950527E-09  0.7950527E-09  0.7950527E-09  0.5000000E-15
  1.000000000000000E-004
  CAR 
 Al4C3 Fd-3m - H(P) scan @ 70 GPa (ISIF=8
     18.49396605     -6.34523662  301     10.96458274      1.00000000
     -6.345  0.0000E+00  0.0000E+00
     -6.262  0.0000E+00  0.0000E+00
     -6.180  0.0000E+00  0.0000E+00
     -6.097  0.0000E+00  0.0000E+00
     -6.014  0.0000E+00  0.0000E+00
     -5.931  0.0000E+00  0.0000E+00
     -5.848  0.0000E+00  0.0000E+00
     -5.766  0.0000E+00  0.0000E+00
     -5.683  0.0000E+00  0.0000E+00
     -5.600  0.0000E+00  0.0000E+00
     -5.517  0.0000E+00  0.0000E+00
     -5.434  0.6283E-12  0.5202E-13
     -5.352  0.1199E-06  0.9925E-08
     -5.269  0.1284E-03  0.1064E-04
     -5.186  0.1465E-02  0.1319E-03
     -5.103  0.5424E-02  0.5810E-03
     -5.020  0.9475E-02  0.1366E-02
     -4.938  0.1769E-01  0.2830E-02
     -4.855  0.1204E-01  0.3827E-02
     -4.772  0.8117E-02  0.4500E-02
     -4.689  0.1264E-01  0.5546E-02
     -4.606  0.3670E-01  0.8585E-02
     -4.524  0.3725E-01  0.1167E-01
     -4.441  0.1191E-01  0.1265E-01
     -4.358  0.6775E-02  0.1322E-01
     -4.275  0.3681E-01  0.1626E-01
     -4.193  0.3465E-01  0.1913E-01
     -4.110  0.3445E-01  0.2198E-01
     -4.027  0.5560E-01  0.2659E-01
     -3.944  0.4613E-01  0.3041E-01
     -3.861  0.4020E-01  0.3374E-01
     -3.779  0.1329E-01  0.3484E-01
     -3.696  0.5417E-03  0.3488E-01
     -3.613  0.1343E-01  0.3599E-01
     -3.530  0.9878E-02  0.3681E-01
     -3.447  0.2935E-01  0.3924E-01
     -3.365  0.4375E-01  0.4286E-01
     -3.282  0.8980E-02  0.4361E-01
     -3.199  0.2306E-01  0.4552E-01
     -3.116  0.2593E-01  0.4766E-01
     -3.033  0.2605E-01  0.4982E-01
     -2.951  0.7342E-01  0.5590E-01
     -2.868  0.5687E-01  0.6061E-01
     -2.785  0.7739E-02  0.6125E-01
     -2.702  0.3653E-01  0.6427E-01
     -2.619  0.1463E-01  0.6549E-01
     -2.537  0.2871E-01  0.6786E-01
     -2.454  0.3716E-01  0.7094E-01
     -2.371  0.1874E-02  0.7109E-01
     -2.288  0.4450E-04  0.7110E-01
     -2.205  0.1159E-01  0.7206E-01
     -2.123  0.6608E-01  0.7753E-01
     -2.040  0.3835E-01  0.8070E-01
     -1.957  0.4561E-01  0.8448E-01
     -1.874  0.5362E-01  0.8892E-01
     -1.791  0.7742E-01  0.9533E-01
     -1.709  0.6631E-01  0.1008E+00
     -1.626  0.9020E-02  0.1016E+00
     -1.543  0.3690E-01  0.1046E+00
     -1.460  0.6902E-01  0.1103E+00
     -1.377  0.8627E-01  0.1175E+00
     -1.295  0.3413E-01  0.1203E+00
     -1.212  0.6361E-01  0.1256E+00
     -1.129  0.8661E-01  0.1327E+00
     -1.046  0.6530E-01  0.1381E+00
     -0.963  0.7804E-01  0.1446E+00
     -0.881  0.1356E+00  0.1558E+00
     -0.798  0.1104E+00  0.1650E+00
     -0.715  0.7009E-01  0.1708E+00
     -0.632  0.2540E-01  0.1729E+00
     -0.549  0.1118E+00  0.1821E+00
     -0.467  0.2306E+00  0.2012E+00
     -0.384  0.9001E-01  0.2087E+00
     -0.301  0.8123E-01  0.2154E+00
     -0.218  0.7865E-01  0.2219E+00
     -0.135  0.1361E+00  0.2332E+00
     -0.053  0.7849E-01  0.2397E+00
      0.030  0.3729E-02  0.2400E+00
      0.113  0.3106E-05  0.2400E+00
      0.196  0.2190E-10  0.2400E+00
      0.279  0.0000E+00  0.2400E+00
      0.361  0.0000E+00  0.2400E+00
      0.444  0.0000E+00  0.2400E+00
      0.527  0.0000E+00  0.2400E+00
      0.610  0.0000E+00  0.2400E+00
      0.693  0.0000E+00  0.2400E+00
      0.775  0.0000E+00  0.2400E+00
      0.858  0.0000E+00  0.2400E+00
      0.941  0.0000E+00  0.2400E+00
      1.024  0.0000E+00  0.2400E+00
      1.107  0.0000E+00  0.2400E+00
      1.189  0.0000E+00  0.2400E+00
      1.272  0.0000E+00  0.2400E+00
      1.355  0.1362E-17  0.2400E+00
      1.438  0.1583E-10  0.2400E+00
      1.521  0.9106E-06  0.2400E+00
      1.603  0.3178E-03  0.2400E+00
      1.686  0.1411E-02  0.2401E+00
      1.769  0.1570E-03  0.2402E+00
      1.852  0.2816E-06  0.2402E+00
      1.934  0.2852E-03  0.2402E+00
      2.017  0.7421E-02  0.2408E+00
      2.100  0.1652E-01  0.2422E+00
      2.183  0.9699E-02  0.2430E+00
      2.266  0.6552E-02  0.2435E+00
      2.348  0.8360E-02  0.2442E+00
      2.431  0.2471E-03  0.2442E+00
      2.514  0.7314E-02  0.2448E+00
      2.597  0.3459E-01  0.2477E+00
      2.680  0.3638E-01  0.2507E+00
      2.762  0.3793E-01  0.2538E+00
      2.845  0.5175E-01  0.2581E+00
      2.928  0.8475E-01  0.2651E+00
      3.011  0.6089E-01  0.2702E+00
      3.094  0.1211E+00  0.2802E+00
      3.176  0.9652E-01  0.2882E+00
      3.259  0.7853E-01  0.2947E+00
      3.342  0.5792E-01  0.2995E+00
      3.425  0.5201E-01  0.3038E+00
      3.508  0.5389E-01  0.3083E+00
      3.590  0.1767E+00  0.3229E+00
      3.673  0.8804E-01  0.3302E+00
      3.756  0.6593E-01  0.3356E+00
      3.839  0.9786E-01  0.3437E+00
      3.922  0.1433E+00  0.3556E+00
      4.004  0.7572E-01  0.3619E+00
      4.087  0.4013E-01  0.3652E+00
      4.170  0.1405E+00  0.3768E+00
      4.253  0.6666E-01  0.3824E+00
      4.336  0.4470E-01  0.3861E+00
      4.418  0.5176E-01  0.3903E+00
      4.501  0.6159E-01  0.3954E+00
      4.584  0.5422E-01  0.3999E+00
      4.667  0.1102E+00  0.4091E+00
      4.750  0.7124E-01  0.4150E+00
      4.832  0.4220E-01  0.4184E+00
      4.915  0.9986E-01  0.4267E+00
      4.998  0.6822E-01  0.4324E+00
      5.081  0.7431E-01  0.4385E+00
      5.164  0.4468E-01  0.4422E+00
      5.246  0.8414E-01  0.4492E+00
      5.329  0.6569E-01  0.4546E+00
      5.412  0.7356E-01  0.4607E+00
      5.495  0.1897E-01  0.4623E+00
      5.578  0.5620E-01  0.4669E+00
      5.660  0.5558E-01  0.4715E+00
      5.743  0.1256E+00  0.4819E+00
      5.826  0.1131E+00  0.4913E+00
      5.909  0.6557E-01  0.4967E+00
      5.992  0.9709E-01  0.5048E+00
      6.074  0.6969E-01  0.5105E+00
      6.157  0.7278E-01  0.5166E+00
      6.240  0.6701E-01  0.5221E+00
      6.323  0.2231E-01  0.5240E+00
      6.406  0.2971E-01  0.5264E+00
      6.488  0.5781E-01  0.5312E+00
      6.571  0.6317E-01  0.5364E+00
      6.654  0.5602E-01  0.5411E+00
      6.737  0.1001E+00  0.5494E+00
      6.820  0.1460E+00  0.5615E+00
      6.902  0.1404E+00  0.5731E+00
      6.985  0.1613E+00  0.5864E+00
      7.068  0.1094E+00  0.5955E+00
      7.151  0.1831E-01  0.5970E+00
      7.234  0.3211E-01  0.5997E+00
      7.316  0.1036E+00  0.6082E+00
      7.399  0.1056E+00  0.6170E+00
      7.482  0.9281E-01  0.6247E+00
      7.565  0.1234E+00  0.6349E+00
      7.648  0.1263E+00  0.6453E+00
      7.730  0.1128E+00  0.6547E+00
      7.813  0.1374E+00  0.6661E+00
      7.896  0.1317E+00  0.6770E+00
      7.979  0.1359E+00  0.6882E+00
      8.062  0.1656E+00  0.7019E+00
      8.144  0.2056E+00  0.7190E+00
      8.227  0.1251E+00  0.7293E+00
      8.310  0.1040E+00  0.7379E+00
      8.393  0.1332E+00  0.7489E+00
      8.475  0.2367E+00  0.7685E+00
      8.558  0.1976E+00  0.7849E+00
      8.641  0.1153E+00  0.7944E+00
      8.724  0.1180E+00  0.8042E+00
      8.807  0.2300E+00  0.8233E+00
      8.889  0.1859E+00  0.8387E+00
      8.972  0.1830E+00  0.8538E+00
      9.055  0.6729E-01  0.8594E+00
      9.138  0.1225E+00  0.8695E+00
      9.221  0.1225E+00  0.8797E+00
      9.303  0.2001E-01  0.8813E+00
      9.386  0.3015E-01  0.8838E+00
      9.469  0.5975E-01  0.8888E+00
      9.552  0.4968E-01  0.8929E+00
      9.635  0.4850E-01  0.8969E+00
      9.717  0.8779E-01  0.9042E+00
      9.800  0.1060E+00  0.9129E+00
      9.883  0.7019E-01  0.9187E+00
      9.966  0.6382E-01  0.9240E+00
     10.049  0.6773E-01  0.9296E+00
     10.131  0.1317E+00  0.9405E+00
     10.214  0.8213E-01  0.9473E+00
     10.297  0.4098E-01  0.9507E+00
     10.380  0.1127E-01  0.9517E+00
     10.463  0.3894E-01  0.9549E+00
     10.545  0.3179E-01  0.9575E+00
     10.628  0.2215E-01  0.9594E+00
     10.711  0.5344E-02  0.9598E+00
     10.794  0.2378E-02  0.9600E+00
     10.877  0.3226E-04  0.9600E+00
     10.959  0.3125E-08  0.9600E+00
     11.042  0.1538E-14  0.9600E+00
     11.125  0.0000E+00  0.9600E+00
     11.208  0.0000E+00  0.9600E+00
     11.291  0.0000E+00  0.9600E+00
     11.373  0.0000E+00  0.9600E+00
     11.456  0.0000E+00  0.9600E+00
     11.539  0.0000E+00  0.9600E+00
     11.622  0.0000E+00  0.9600E+00
     11.705  0.5322E-14  0.9600E+00
     11.787  0.5144E-08  0.9600E+00
     11.870  0.2592E-04  0.9600E+00
     11.953  0.1021E-02  0.9601E+00
     12.036  0.8282E-03  0.9602E+00
     12.119  0.1243E-04  0.9602E+00
     12.201  0.1349E-08  0.9602E+00
     12.284  0.7696E-12  0.9602E+00
     12.367  0.2564E-06  0.9602E+00
     12.450  0.4664E-03  0.9602E+00
     12.533  0.7770E-02  0.9608E+00
     12.615  0.3068E-02  0.9611E+00
     12.698  0.1817E-04  0.9611E+00
     12.781  0.1233E-07  0.9611E+00
     12.864  0.1307E-03  0.9611E+00
     12.947  0.1156E-01  0.9621E+00
     13.029  0.2117E-01  0.9638E+00
     13.112  0.4423E-02  0.9642E+00
     13.195  0.7747E-02  0.9648E+00
     13.278  0.4165E-01  0.9683E+00
     13.361  0.5311E-01  0.9727E+00
     13.443  0.8105E-01  0.9794E+00
     13.526  0.1004E+00  0.9877E+00
     13.609  0.5830E-01  0.9925E+00
     13.692  0.4148E-01  0.9960E+00
     13.775  0.4845E-01  0.1000E+01
     13.857  0.5029E-01  0.1004E+01
     13.940  0.2773E-01  0.1006E+01
     14.023  0.6165E-01  0.1012E+01
     14.106  0.1469E+00  0.1024E+01
     14.189  0.6629E-01  0.1029E+01
     14.271  0.2981E-01  0.1032E+01
     14.354  0.1522E+00  0.1044E+01
     14.437  0.1284E+00  0.1055E+01
     14.520  0.3660E-01  0.1058E+01
     14.602  0.7907E-01  0.1064E+01
     14.685  0.2018E+00  0.1081E+01
     14.768  0.1613E+00  0.1095E+01
     14.851  0.1022E+00  0.1103E+01
     14.934  0.2076E-01  0.1105E+01
     15.016  0.2075E-01  0.1106E+01
     15.099  0.5714E-01  0.1111E+01
     15.182  0.5920E-01  0.1116E+01
     15.265  0.1661E-01  0.1117E+01
     15.348  0.7435E-01  0.1124E+01
     15.430  0.4470E-01  0.1127E+01
     15.513  0.9516E-01  0.1135E+01
     15.596  0.7804E-01  0.1142E+01
     15.679  0.5598E-01  0.1146E+01
     15.762  0.9565E-01  0.1154E+01
     15.844  0.1053E+00  0.1163E+01
     15.927  0.7752E-01  0.1169E+01
     16.010  0.1431E+00  0.1181E+01
     16.093  0.1604E+00  0.1194E+01
     16.176  0.1870E+00  0.1210E+01
     16.258  0.8752E-01  0.1217E+01
     16.341  0.7124E-01  0.1223E+01
     16.424  0.5922E-01  0.1228E+01
     16.507  0.1211E+00  0.1238E+01
     16.590  0.1008E+00  0.1246E+01
     16.672  0.7127E-01  0.1252E+01
     16.755  0.1917E-01  0.1254E+01
     16.838  0.3378E-02  0.1254E+01
     16.921  0.2524E-01  0.1256E+01
     17.004  0.2681E-01  0.1258E+01
     17.086  0.1460E-01  0.1260E+01
     17.169  0.6073E-03  0.1260E+01
     17.252  0.2873E-05  0.1260E+01
     17.335  0.7417E-03  0.1260E+01
     17.418  0.2773E-02  0.1260E+01
     17.500  0.2567E-03  0.1260E+01
     17.583  0.2397E-06  0.1260E+01
     17.666  0.1257E-11  0.1260E+01
     17.749  0.0000E+00  0.1260E+01
     17.832  0.0000E+00  0.1260E+01
     17.914  0.0000E+00  0.1260E+01
     17.997  0.0000E+00  0.1260E+01
     18.080  0.0000E+00  0.1260E+01
     18.163  0.0000E+00  0.1260E+01
     18.246  0.0000E+00  0.1260E+01
     18.328  0.0000E+00  0.1260E+01
     18.411  0.0000E+00  0.1260E+01
     18.494  0.0000E+00  0.1260E+01
