Al4C3 Fd-3m polymorph (findsym-output) -
   1.00000000000000     
     7.7074701865942297    0.0000000000000000    0.0000000000000000
     0.0000000000000000    7.7074701865942297    0.0000000000000000
     0.0000000000000000    0.0000000000000000    7.7074701865942297
   Al   C 
    32    24
Direct
  0.7594944161473708  0.7594944161473708  0.7594944161473708
  0.2405055838526291  0.2405055838526291  0.2405055838526291
  0.9905055838526292  0.4905055838526292  0.2594944161473708
  0.0094944161473709  0.5094944161473708  0.7405055838526292
  0.4905055838526292  0.2594944161473708  0.9905055838526292
  0.5094944161473708  0.7405055838526292  0.0094944161473709
  0.2594944161473708  0.9905055838526292  0.4905055838526292
  0.7405055838526292  0.0094944161473709  0.5094944161473708
  0.5094944161473708  0.0094944161473709  0.7405055838526292
  0.4905055838526292  0.9905055838526292  0.2594944161473708
  0.0094944161473709  0.7405055838526292  0.5094944161473708
  0.9905055838526292  0.2594944161473708  0.4905055838526292
  0.7405055838526292  0.5094944161473708  0.0094944161473709
  0.2594944161473708  0.4905055838526292  0.9905055838526292
  0.7594944161473708  0.2594944161473708  0.2594944161473708
  0.2405055838526291  0.7405055838526292  0.7405055838526292
  0.9905055838526292  0.9905055838526292  0.7594944161473708
  0.0094944161473709  0.0094944161473709  0.2405055838526291
  0.4905055838526292  0.7594944161473708  0.4905055838526292
  0.5094944161473708  0.2405055838526291  0.5094944161473708
  0.5094944161473708  0.5094944161473708  0.2405055838526291
  0.4905055838526292  0.4905055838526292  0.7594944161473708
  0.0094944161473709  0.2405055838526291  0.0094944161473709
  0.9905055838526292  0.7594944161473708  0.9905055838526292
  0.2594944161473708  0.7594944161473708  0.2594944161473708
  0.7405055838526292  0.2405055838526291  0.7405055838526292
  0.7594944161473708  0.9905055838526292  0.9905055838526292
  0.2405055838526291  0.0094944161473709  0.0094944161473709
  0.2405055838526291  0.5094944161473708  0.5094944161473708
  0.7594944161473708  0.4905055838526292  0.4905055838526292
  0.2594944161473708  0.2594944161473708  0.7594944161473708
  0.7405055838526292  0.7405055838526292  0.2405055838526291
 -0.0000000000000000  0.0000000000000000 -0.0000000000000000
  0.7500000000000000  0.2500000000000000  0.5000000000000000
  0.2500000000000000  0.7500000000000000  0.5000000000000000
  0.2500000000000000  0.5000000000000000  0.7500000000000000
  0.7500000000000000  0.5000000000000000  0.2500000000000000
  0.5000000000000000  0.7500000000000000  0.2500000000000000
  0.5000000000000000  0.2500000000000000  0.7500000000000000
 -0.0000000000000000  0.5000000000000000  0.5000000000000000
  0.7500000000000000  0.7500000000000000 -0.0000000000000000
  0.2500000000000000  0.2500000000000000 -0.0000000000000000
  0.2500000000000000  0.0000000000000000  0.2500000000000000
  0.7500000000000000  0.0000000000000000  0.7500000000000000
  0.5000000000000000  0.0000000000000000  0.5000000000000000
 -0.0000000000000000  0.7500000000000000  0.7500000000000000
 -0.0000000000000000  0.2500000000000000  0.2500000000000000
  0.5000000000000000  0.5000000000000000 -0.0000000000000000
  0.3750000000000000  0.3750000000000000  0.3750000000000000
  0.6250000000000000  0.6250000000000000  0.6250000000000000
  0.3750000000000000  0.8750000000000000  0.8750000000000000
  0.6250000000000000  0.1250000000000000  0.1250000000000000
  0.8750000000000000  0.8750000000000000  0.3750000000000000
  0.1250000000000000  0.1250000000000000  0.6250000000000000
  0.8750000000000000  0.3750000000000000  0.8750000000000000
  0.1250000000000000  0.6250000000000000  0.1250000000000000
 
  0.00000000E+00  0.00000000E+00  0.00000000E+00
  0.00000000E+00  0.00000000E+00  0.00000000E+00
  0.00000000E+00  0.00000000E+00  0.00000000E+00
  0.00000000E+00  0.00000000E+00  0.00000000E+00
  0.00000000E+00  0.00000000E+00  0.00000000E+00
  0.00000000E+00  0.00000000E+00  0.00000000E+00
  0.00000000E+00  0.00000000E+00  0.00000000E+00
  0.00000000E+00  0.00000000E+00  0.00000000E+00
  0.00000000E+00  0.00000000E+00  0.00000000E+00
  0.00000000E+00  0.00000000E+00  0.00000000E+00
  0.00000000E+00  0.00000000E+00  0.00000000E+00
  0.00000000E+00  0.00000000E+00  0.00000000E+00
  0.00000000E+00  0.00000000E+00  0.00000000E+00
  0.00000000E+00  0.00000000E+00  0.00000000E+00
  0.00000000E+00  0.00000000E+00  0.00000000E+00
  0.00000000E+00  0.00000000E+00  0.00000000E+00
  0.00000000E+00  0.00000000E+00  0.00000000E+00
  0.00000000E+00  0.00000000E+00  0.00000000E+00
  0.00000000E+00  0.00000000E+00  0.00000000E+00
  0.00000000E+00  0.00000000E+00  0.00000000E+00
  0.00000000E+00  0.00000000E+00  0.00000000E+00
  0.00000000E+00  0.00000000E+00  0.00000000E+00
  0.00000000E+00  0.00000000E+00  0.00000000E+00
  0.00000000E+00  0.00000000E+00  0.00000000E+00
  0.00000000E+00  0.00000000E+00  0.00000000E+00
  0.00000000E+00  0.00000000E+00  0.00000000E+00
  0.00000000E+00  0.00000000E+00  0.00000000E+00
  0.00000000E+00  0.00000000E+00  0.00000000E+00
  0.00000000E+00  0.00000000E+00  0.00000000E+00
  0.00000000E+00  0.00000000E+00  0.00000000E+00
  0.00000000E+00  0.00000000E+00  0.00000000E+00
  0.00000000E+00  0.00000000E+00  0.00000000E+00
  0.00000000E+00  0.00000000E+00  0.00000000E+00
  0.00000000E+00  0.00000000E+00  0.00000000E+00
  0.00000000E+00  0.00000000E+00  0.00000000E+00
  0.00000000E+00  0.00000000E+00  0.00000000E+00
  0.00000000E+00  0.00000000E+00  0.00000000E+00
  0.00000000E+00  0.00000000E+00  0.00000000E+00
  0.00000000E+00  0.00000000E+00  0.00000000E+00
  0.00000000E+00  0.00000000E+00  0.00000000E+00
  0.00000000E+00  0.00000000E+00  0.00000000E+00
  0.00000000E+00  0.00000000E+00  0.00000000E+00
  0.00000000E+00  0.00000000E+00  0.00000000E+00
  0.00000000E+00  0.00000000E+00  0.00000000E+00
  0.00000000E+00  0.00000000E+00  0.00000000E+00
  0.00000000E+00  0.00000000E+00  0.00000000E+00
  0.00000000E+00  0.00000000E+00  0.00000000E+00
  0.00000000E+00  0.00000000E+00  0.00000000E+00
  0.00000000E+00  0.00000000E+00  0.00000000E+00
  0.00000000E+00  0.00000000E+00  0.00000000E+00
  0.00000000E+00  0.00000000E+00  0.00000000E+00
  0.00000000E+00  0.00000000E+00  0.00000000E+00
  0.00000000E+00  0.00000000E+00  0.00000000E+00
  0.00000000E+00  0.00000000E+00  0.00000000E+00
  0.00000000E+00  0.00000000E+00  0.00000000E+00
  0.00000000E+00  0.00000000E+00  0.00000000E+00
