Al4C3 Fd-3m - H(P) scan @ 100 GPa (ISIF=
           1
     7.761409    0.000000    0.000000
     0.000000    7.761409    0.000000
     0.000000    0.000000    7.761409
   Al   C 
    32    24
Direct configuration=     1
   0.75960618  0.75960618  0.75960618
   0.24039382  0.24039382  0.24039382
   0.99039382  0.49039382  0.25960618
   0.00960618  0.50960618  0.74039382
   0.49039382  0.25960618  0.99039382
   0.50960618  0.74039382  0.00960618
   0.25960618  0.99039382  0.49039382
   0.74039382  0.00960618  0.50960618
   0.50960618  0.00960618  0.74039382
   0.49039382  0.99039382  0.25960618
   0.00960618  0.74039382  0.50960618
   0.99039382  0.25960618  0.49039382
   0.74039382  0.50960618  0.00960618
   0.25960618  0.49039382  0.99039382
   0.75960618  0.25960618  0.25960618
   0.24039382  0.74039382  0.74039382
   0.99039382  0.99039382  0.75960618
   0.00960618  0.00960618  0.24039382
   0.49039382  0.75960618  0.49039382
   0.50960618  0.24039382  0.50960618
   0.50960618  0.50960618  0.24039382
   0.49039382  0.49039382  0.75960618
   0.00960618  0.24039382  0.00960618
   0.99039382  0.75960618  0.99039382
   0.25960618  0.75960618  0.25960618
   0.74039382  0.24039382  0.74039382
   0.75960618  0.99039382  0.99039382
   0.24039382  0.00960618  0.00960618
   0.24039382  0.50960618  0.50960618
   0.75960618  0.49039382  0.49039382
   0.25960618  0.25960618  0.75960618
   0.74039382  0.74039382  0.24039382
   0.00000000  0.00000000  0.00000000
   0.75000000  0.25000000  0.50000000
   0.25000000  0.75000000  0.50000000
   0.25000000  0.50000000  0.75000000
   0.75000000  0.50000000  0.25000000
   0.50000000  0.75000000  0.25000000
   0.50000000  0.25000000  0.75000000
   0.00000000  0.50000000  0.50000000
   0.75000000  0.75000000  0.00000000
   0.25000000  0.25000000  0.00000000
   0.25000000  0.00000000  0.25000000
   0.75000000  0.00000000  0.75000000
   0.50000000  0.00000000  0.50000000
   0.00000000  0.75000000  0.75000000
   0.00000000  0.25000000  0.25000000
   0.50000000  0.50000000  0.00000000
   0.37500000  0.37500000  0.37500000
   0.62500000  0.62500000  0.62500000
   0.37500000  0.87500000  0.87500000
   0.62500000  0.12500000  0.12500000
   0.87500000  0.87500000  0.37500000
   0.12500000  0.12500000  0.62500000
   0.87500000  0.37500000  0.87500000
   0.12500000  0.62500000  0.12500000
Al4C3 Fd-3m - H(P) scan @ 100 GPa (ISIF=
           1
     7.566351    0.000000    0.000000
     0.000000    7.566351    0.000000
     0.000000    0.000000    7.566351
   Al   C 
    32    24
Direct configuration=     2
   0.75960603  0.75960603  0.75960603
   0.24039397  0.24039397  0.24039397
   0.99039397  0.49039397  0.25960603
   0.00960603  0.50960603  0.74039397
   0.49039397  0.25960603  0.99039397
   0.50960603  0.74039397  0.00960603
   0.25960603  0.99039397  0.49039397
   0.74039397  0.00960603  0.50960603
   0.50960603  0.00960603  0.74039397
   0.49039397  0.99039397  0.25960603
   0.00960603  0.74039397  0.50960603
   0.99039397  0.25960603  0.49039397
   0.74039397  0.50960603  0.00960603
   0.25960603  0.49039397  0.99039397
   0.75960603  0.25960603  0.25960603
   0.24039397  0.74039397  0.74039397
   0.99039397  0.99039397  0.75960603
   0.00960603  0.00960603  0.24039397
   0.49039397  0.75960603  0.49039397
   0.50960603  0.24039397  0.50960603
   0.50960603  0.50960603  0.24039397
   0.49039397  0.49039397  0.75960603
   0.00960603  0.24039397  0.00960603
   0.99039397  0.75960603  0.99039397
   0.25960603  0.75960603  0.25960603
   0.74039397  0.24039397  0.74039397
   0.75960603  0.99039397  0.99039397
   0.24039397  0.00960603  0.00960603
   0.24039397  0.50960603  0.50960603
   0.75960603  0.49039397  0.49039397
   0.25960603  0.25960603  0.75960603
   0.74039397  0.74039397  0.24039397
  -0.00000000 -0.00000000 -0.00000000
   0.75000000  0.25000000  0.50000000
   0.25000000  0.75000000  0.50000000
   0.25000000  0.50000000  0.75000000
   0.75000000  0.50000000  0.25000000
   0.50000000  0.75000000  0.25000000
   0.50000000  0.25000000  0.75000000
  -0.00000000  0.50000000  0.50000000
   0.75000000  0.75000000 -0.00000000
   0.25000000  0.25000000 -0.00000000
   0.25000000  0.00000000  0.25000000
   0.75000000  0.00000000  0.75000000
   0.50000000  0.00000000  0.50000000
  -0.00000000  0.75000000  0.75000000
  -0.00000000  0.25000000  0.25000000
   0.50000000  0.50000000 -0.00000000
   0.37500000  0.37500000  0.37500000
   0.62500000  0.62500000  0.62500000
   0.37500000  0.87500000  0.87500000
   0.62500000  0.12500000  0.12500000
   0.87500000  0.87500000  0.37500000
   0.12500000  0.12500000  0.62500000
   0.87500000  0.37500000  0.87500000
   0.12500000  0.62500000  0.12500000
Al4C3 Fd-3m - H(P) scan @ 100 GPa (ISIF=
           1
     7.708919    0.000000    0.000000
     0.000000    7.708919    0.000000
     0.000000    0.000000    7.708919
   Al   C 
    32    24
Direct configuration=     3
   0.75960614  0.75960614  0.75960614
   0.24039386  0.24039386  0.24039386
   0.99039386  0.49039386  0.25960614
   0.00960614  0.50960614  0.74039386
   0.49039386  0.25960614  0.99039386
   0.50960614  0.74039386  0.00960614
   0.25960614  0.99039386  0.49039386
   0.74039386  0.00960614  0.50960614
   0.50960614  0.00960614  0.74039386
   0.49039386  0.99039386  0.25960614
   0.00960614  0.74039386  0.50960614
   0.99039386  0.25960614  0.49039386
   0.74039386  0.50960614  0.00960614
   0.25960614  0.49039386  0.99039386
   0.75960614  0.25960614  0.25960614
   0.24039386  0.74039386  0.74039386
   0.99039386  0.99039386  0.75960614
   0.00960614  0.00960614  0.24039386
   0.49039386  0.75960614  0.49039386
   0.50960614  0.24039386  0.50960614
   0.50960614  0.50960614  0.24039386
   0.49039386  0.49039386  0.75960614
   0.00960614  0.24039386  0.00960614
   0.99039386  0.75960614  0.99039386
   0.25960614  0.75960614  0.25960614
   0.74039386  0.24039386  0.74039386
   0.75960614  0.99039386  0.99039386
   0.24039386  0.00960614  0.00960614
   0.24039386  0.50960614  0.50960614
   0.75960614  0.49039386  0.49039386
   0.25960614  0.25960614  0.75960614
   0.74039386  0.74039386  0.24039386
  -0.00000000 -0.00000000 -0.00000000
   0.75000000  0.25000000  0.50000000
   0.25000000  0.75000000  0.50000000
   0.25000000  0.50000000  0.75000000
   0.75000000  0.50000000  0.25000000
   0.50000000  0.75000000  0.25000000
   0.50000000  0.25000000  0.75000000
  -0.00000000  0.50000000  0.50000000
   0.75000000  0.75000000 -0.00000000
   0.25000000  0.25000000 -0.00000000
   0.25000000  0.00000000  0.25000000
   0.75000000  0.00000000  0.75000000
   0.50000000  0.00000000  0.50000000
  -0.00000000  0.75000000  0.75000000
  -0.00000000  0.25000000  0.25000000
   0.50000000  0.50000000 -0.00000000
   0.37500000  0.37500000  0.37500000
   0.62500000  0.62500000  0.62500000
   0.37500000  0.87500000  0.87500000
   0.62500000  0.12500000  0.12500000
   0.87500000  0.87500000  0.37500000
   0.12500000  0.12500000  0.62500000
   0.87500000  0.37500000  0.87500000
   0.12500000  0.62500000  0.12500000
Al4C3 Fd-3m - H(P) scan @ 100 GPa (ISIF=
           1
     7.707868    0.000000    0.000000
     0.000000    7.707868    0.000000
     0.000000    0.000000    7.707868
   Al   C 
    32    24
Direct configuration=     4
   0.75960614  0.75960614  0.75960614
   0.24039386  0.24039386  0.24039386
   0.99039386  0.49039386  0.25960614
   0.00960614  0.50960614  0.74039386
   0.49039386  0.25960614  0.99039386
   0.50960614  0.74039386  0.00960614
   0.25960614  0.99039386  0.49039386
   0.74039386  0.00960614  0.50960614
   0.50960614  0.00960614  0.74039386
   0.49039386  0.99039386  0.25960614
   0.00960614  0.74039386  0.50960614
   0.99039386  0.25960614  0.49039386
   0.74039386  0.50960614  0.00960614
   0.25960614  0.49039386  0.99039386
   0.75960614  0.25960614  0.25960614
   0.24039386  0.74039386  0.74039386
   0.99039386  0.99039386  0.75960614
   0.00960614  0.00960614  0.24039386
   0.49039386  0.75960614  0.49039386
   0.50960614  0.24039386  0.50960614
   0.50960614  0.50960614  0.24039386
   0.49039386  0.49039386  0.75960614
   0.00960614  0.24039386  0.00960614
   0.99039386  0.75960614  0.99039386
   0.25960614  0.75960614  0.25960614
   0.74039386  0.24039386  0.74039386
   0.75960614  0.99039386  0.99039386
   0.24039386  0.00960614  0.00960614
   0.24039386  0.50960614  0.50960614
   0.75960614  0.49039386  0.49039386
   0.25960614  0.25960614  0.75960614
   0.74039386  0.74039386  0.24039386
  -0.00000000 -0.00000000 -0.00000000
   0.75000000  0.25000000  0.50000000
   0.25000000  0.75000000  0.50000000
   0.25000000  0.50000000  0.75000000
   0.75000000  0.50000000  0.25000000
   0.50000000  0.75000000  0.25000000
   0.50000000  0.25000000  0.75000000
  -0.00000000  0.50000000  0.50000000
   0.75000000  0.75000000 -0.00000000
   0.25000000  0.25000000 -0.00000000
   0.25000000  0.00000000  0.25000000
   0.75000000  0.00000000  0.75000000
   0.50000000  0.00000000  0.50000000
  -0.00000000  0.75000000  0.75000000
  -0.00000000  0.25000000  0.25000000
   0.50000000  0.50000000 -0.00000000
   0.37500000  0.37500000  0.37500000
   0.62500000  0.62500000  0.62500000
   0.37500000  0.87500000  0.87500000
   0.62500000  0.12500000  0.12500000
   0.87500000  0.87500000  0.37500000
   0.12500000  0.12500000  0.62500000
   0.87500000  0.37500000  0.87500000
   0.12500000  0.62500000  0.12500000
Al4C3 Fd-3m - H(P) scan @ 100 GPa (ISIF=
           1
     7.706829    0.000000    0.000000
     0.000000    7.706829    0.000000
     0.000000    0.000000    7.706829
   Al   C 
    32    24
Direct configuration=     5
   0.75931407  0.75931407  0.75931407
   0.24068593  0.24068593  0.24068593
   0.99068593  0.49068593  0.25931407
   0.00931407  0.50931407  0.74068593
   0.49068593  0.25931407  0.99068593
   0.50931407  0.74068593  0.00931407
   0.25931407  0.99068593  0.49068593
   0.74068593  0.00931407  0.50931407
   0.50931407  0.00931407  0.74068593
   0.49068593  0.99068593  0.25931407
   0.00931407  0.74068593  0.50931407
   0.99068593  0.25931407  0.49068593
   0.74068593  0.50931407  0.00931407
   0.25931407  0.49068593  0.99068593
   0.75931407  0.25931407  0.25931407
   0.24068593  0.74068593  0.74068593
   0.99068593  0.99068593  0.75931407
   0.00931407  0.00931407  0.24068593
   0.49068593  0.75931407  0.49068593
   0.50931407  0.24068593  0.50931407
   0.50931407  0.50931407  0.24068593
   0.49068593  0.49068593  0.75931407
   0.00931407  0.24068593  0.00931407
   0.99068593  0.75931407  0.99068593
   0.25931407  0.75931407  0.25931407
   0.74068593  0.24068593  0.74068593
   0.75931407  0.99068593  0.99068593
   0.24068593  0.00931407  0.00931407
   0.24068593  0.50931407  0.50931407
   0.75931407  0.49068593  0.49068593
   0.25931407  0.25931407  0.75931407
   0.74068593  0.74068593  0.24068593
  -0.00000000  0.00000000 -0.00000000
   0.75000000  0.25000000  0.50000000
   0.25000000  0.75000000  0.50000000
   0.25000000  0.50000000  0.75000000
   0.75000000  0.50000000  0.25000000
   0.50000000  0.75000000  0.25000000
   0.50000000  0.25000000  0.75000000
  -0.00000000  0.50000000  0.50000000
   0.75000000  0.75000000 -0.00000000
   0.25000000  0.25000000 -0.00000000
   0.25000000  0.00000000  0.25000000
   0.75000000  0.00000000  0.75000000
   0.50000000  0.00000000  0.50000000
  -0.00000000  0.75000000  0.75000000
  -0.00000000  0.25000000  0.25000000
   0.50000000  0.50000000 -0.00000000
   0.37500000  0.37500000  0.37500000
   0.62500000  0.62500000  0.62500000
   0.37500000  0.87500000  0.87500000
   0.62500000  0.12500000  0.12500000
   0.87500000  0.87500000  0.37500000
   0.12500000  0.12500000  0.62500000
   0.87500000  0.37500000  0.87500000
   0.12500000  0.62500000  0.12500000
Al4C3 Fd-3m - H(P) scan @ 100 GPa (ISIF=
           1
     7.707470    0.000000    0.000000
     0.000000    7.707470    0.000000
     0.000000    0.000000    7.707470
   Al   C 
    32    24
Direct configuration=     6
   0.75949442  0.75949442  0.75949442
   0.24050558  0.24050558  0.24050558
   0.99050558  0.49050558  0.25949442
   0.00949442  0.50949442  0.74050558
   0.49050558  0.25949442  0.99050558
   0.50949442  0.74050558  0.00949442
   0.25949442  0.99050558  0.49050558
   0.74050558  0.00949442  0.50949442
   0.50949442  0.00949442  0.74050558
   0.49050558  0.99050558  0.25949442
   0.00949442  0.74050558  0.50949442
   0.99050558  0.25949442  0.49050558
   0.74050558  0.50949442  0.00949442
   0.25949442  0.49050558  0.99050558
   0.75949442  0.25949442  0.25949442
   0.24050558  0.74050558  0.74050558
   0.99050558  0.99050558  0.75949442
   0.00949442  0.00949442  0.24050558
   0.49050558  0.75949442  0.49050558
   0.50949442  0.24050558  0.50949442
   0.50949442  0.50949442  0.24050558
   0.49050558  0.49050558  0.75949442
   0.00949442  0.24050558  0.00949442
   0.99050558  0.75949442  0.99050558
   0.25949442  0.75949442  0.25949442
   0.74050558  0.24050558  0.74050558
   0.75949442  0.99050558  0.99050558
   0.24050558  0.00949442  0.00949442
   0.24050558  0.50949442  0.50949442
   0.75949442  0.49050558  0.49050558
   0.25949442  0.25949442  0.75949442
   0.74050558  0.74050558  0.24050558
  -0.00000000  0.00000000 -0.00000000
   0.75000000  0.25000000  0.50000000
   0.25000000  0.75000000  0.50000000
   0.25000000  0.50000000  0.75000000
   0.75000000  0.50000000  0.25000000
   0.50000000  0.75000000  0.25000000
   0.50000000  0.25000000  0.75000000
  -0.00000000  0.50000000  0.50000000
   0.75000000  0.75000000 -0.00000000
   0.25000000  0.25000000 -0.00000000
   0.25000000  0.00000000  0.25000000
   0.75000000  0.00000000  0.75000000
   0.50000000  0.00000000  0.50000000
  -0.00000000  0.75000000  0.75000000
  -0.00000000  0.25000000  0.25000000
   0.50000000  0.50000000 -0.00000000
   0.37500000  0.37500000  0.37500000
   0.62500000  0.62500000  0.62500000
   0.37500000  0.87500000  0.87500000
   0.62500000  0.12500000  0.12500000
   0.87500000  0.87500000  0.37500000
   0.12500000  0.12500000  0.62500000
   0.87500000  0.37500000  0.87500000
   0.12500000  0.62500000  0.12500000
