Al4C3 Pnma (CIF findsym, P21/n21/m21/a) 
   1.00000000000000     
     8.8111288599849296    0.0000000000000000    0.0000000000000000
     0.0000000000000000    3.0273882051595251    0.0000000000000000
     0.0000000000000000    0.0000000000000000    9.2885479514046239
   Al   C 
    16    12
Direct
  0.2687238966369860  0.2500000000000000  0.2662820152355089
  0.7687238966369860  0.2500000000000000  0.2337179847644911
  0.7312761033630140  0.7500000000000000  0.7337179847644911
  0.2312761033630140  0.7500000000000000  0.7662820152355089
  0.4656538656324075  0.2500000000000000  0.8917682753565376
  0.9656538656324073  0.2500000000000000  0.6082317246434624
  0.5343461343675927  0.7500000000000000  0.1082317246434623
  0.0343461343675926  0.7500000000000000  0.3917682753565377
  0.5055406462551892  0.2500000000000000  0.6048542772971577
  0.0055406462551891  0.2500000000000000  0.8951457227028423
  0.4944593537448109  0.7500000000000000  0.3951457227028424
  0.9944593537448108  0.7500000000000000  0.1048542772971576
  0.2365008464036190  0.2500000000000000  0.5577616977501921
  0.7365008464036188  0.2500000000000000  0.9422383022498079
  0.7634991535963812  0.7500000000000000  0.4422383022498079
  0.2634991535963810  0.7500000000000000  0.0577616977501922
  0.3847877151200640  0.2500000000000000  0.4253785371822667
  0.8847877151200639  0.2500000000000000  0.0746214628177333
  0.6152122848799361  0.7500000000000000  0.5746214628177333
  0.1152122848799360  0.7500000000000000  0.9253785371822667
  0.3946227154209465  0.2500000000000000  0.0880402717083655
  0.8946227154209466  0.2500000000000000  0.4119597282916345
  0.6053772845790534  0.7500000000000000  0.9119597282916343
  0.1053772845790534  0.7500000000000000  0.5880402717083657
  0.3468270201001828  0.2500000000000000  0.7344234138640134
  0.8468270201001828  0.2500000000000000  0.7655765861359866
  0.6531729798998172  0.7500000000000000  0.2655765861359866
  0.1531729798998172  0.7500000000000000  0.2344234138640135
 
  0.00000000E+00  0.00000000E+00  0.00000000E+00
  0.00000000E+00  0.00000000E+00  0.00000000E+00
  0.00000000E+00  0.00000000E+00  0.00000000E+00
  0.00000000E+00  0.00000000E+00  0.00000000E+00
  0.00000000E+00  0.00000000E+00  0.00000000E+00
  0.00000000E+00  0.00000000E+00  0.00000000E+00
  0.00000000E+00  0.00000000E+00  0.00000000E+00
  0.00000000E+00  0.00000000E+00  0.00000000E+00
  0.00000000E+00  0.00000000E+00  0.00000000E+00
  0.00000000E+00  0.00000000E+00  0.00000000E+00
  0.00000000E+00  0.00000000E+00  0.00000000E+00
  0.00000000E+00  0.00000000E+00  0.00000000E+00
  0.00000000E+00  0.00000000E+00  0.00000000E+00
  0.00000000E+00  0.00000000E+00  0.00000000E+00
  0.00000000E+00  0.00000000E+00  0.00000000E+00
  0.00000000E+00  0.00000000E+00  0.00000000E+00
  0.00000000E+00  0.00000000E+00  0.00000000E+00
  0.00000000E+00  0.00000000E+00  0.00000000E+00
  0.00000000E+00  0.00000000E+00  0.00000000E+00
  0.00000000E+00  0.00000000E+00  0.00000000E+00
  0.00000000E+00  0.00000000E+00  0.00000000E+00
  0.00000000E+00  0.00000000E+00  0.00000000E+00
  0.00000000E+00  0.00000000E+00  0.00000000E+00
  0.00000000E+00  0.00000000E+00  0.00000000E+00
  0.00000000E+00  0.00000000E+00  0.00000000E+00
  0.00000000E+00  0.00000000E+00  0.00000000E+00
  0.00000000E+00  0.00000000E+00  0.00000000E+00
  0.00000000E+00  0.00000000E+00  0.00000000E+00
