       N       E                     dE             d eps       ncg     rms          rms(c)
DAV:   1    -0.236934478364E+03   -0.23693E+03   -0.46654E+00  7134   0.103E+01    0.917E+00
DAV:   2    -0.221228353802E+03    0.15706E+02   -0.15895E+00  7182   0.659E+00    0.667E+00
DAV:   3    -0.221657016039E+03   -0.42866E+00   -0.22960E-01  8568   0.224E+00    0.525E+00
DAV:   4    -0.221693825191E+03   -0.36809E-01   -0.13996E-01  8484   0.125E+00    0.938E-01
DAV:   5    -0.221694760054E+03   -0.93486E-03   -0.98492E-03  8322   0.371E-01    0.446E-01
DAV:   6    -0.221695377932E+03   -0.61788E-03   -0.27525E-03  8088   0.187E-01    0.161E-01
DAV:   7    -0.221695394034E+03   -0.16102E-04   -0.17656E-04  8250   0.498E-02    0.109E-01
DAV:   8    -0.221695379523E+03    0.14511E-04   -0.17212E-04  8436   0.509E-02    0.552E-02
DAV:   9    -0.221695390060E+03   -0.10537E-04   -0.43772E-05  7488   0.274E-02    0.755E-03
DAV:  10    -0.221695392182E+03   -0.21226E-05   -0.18597E-06  4332   0.587E-03
   1 F= -.11277503E+03 E0= -.11277503E+03  d E =-.112775E+03
       N       E                     dE             d eps       ncg     rms          rms(c)
DAV:   1    -0.219187816923E+03    0.25076E+01   -0.16777E+00  7794   0.557E+00    0.126E+00
DAV:   2    -0.219170177497E+03    0.17639E-01   -0.91076E-02  8610   0.105E+00    0.659E-01
DAV:   3    -0.219169710108E+03    0.46739E-03   -0.17070E-02  8286   0.401E-01    0.202E-01
DAV:   4    -0.219170134198E+03   -0.42409E-03   -0.60250E-04  8478   0.104E-01    0.130E-01
DAV:   5    -0.219170219187E+03   -0.84989E-04   -0.12677E-04  8346   0.455E-02    0.108E-01
DAV:   6    -0.219170337970E+03   -0.11878E-03   -0.67080E-05  7830   0.361E-02    0.166E-02
DAV:   7    -0.219170329325E+03    0.86451E-05   -0.10360E-05  4482   0.116E-02
   2 F= -.11271056E+03 E0= -.11271056E+03  d E =0.644748E-01
       N       E                     dE             d eps       ncg     rms          rms(c)
DAV:   1    -0.220907463620E+03   -0.17371E+01   -0.74312E-01  7794   0.367E+00    0.843E-01
DAV:   2    -0.220899163381E+03    0.83002E-02   -0.40672E-02  8592   0.697E-01    0.443E-01
DAV:   3    -0.220898226230E+03    0.93715E-03   -0.76925E-03  8286   0.268E-01    0.136E-01
DAV:   4    -0.220898221124E+03    0.51055E-05   -0.27077E-04  8472   0.702E-02    0.860E-02
DAV:   5    -0.220898196643E+03    0.24481E-04   -0.60796E-05  8022   0.312E-02    0.719E-02
DAV:   6    -0.220898129616E+03    0.67027E-04   -0.29366E-05  5976   0.239E-02    0.889E-03
DAV:   7    -0.220898127997E+03    0.16194E-05   -0.50958E-06  4344   0.900E-03
   3 F= -.11279510E+03 E0= -.11279510E+03  d E =-.200633E-01
       N       E                     dE             d eps       ncg     rms          rms(c)
DAV:   1    -0.220908733794E+03   -0.10604E-01   -0.38064E-05  6714   0.261E-02    0.482E-03
DAV:   2    -0.220908730879E+03    0.29155E-05   -0.21388E-06  4164   0.552E-03
   4 F= -.11279510E+03 E0= -.11279510E+03  d E =-.200673E-01
       N       E                     dE             d eps       ncg     rms          rms(c)
DAV:   1    -0.221001700909E+03   -0.92967E-01   -0.19206E-01  7158   0.184E+00    0.874E-02
DAV:   2    -0.221001705606E+03   -0.46970E-05   -0.24197E-03  8748   0.190E-01    0.541E-02
DAV:   3    -0.221001650552E+03    0.55054E-04   -0.12046E-04  8526   0.436E-02    0.309E-02
DAV:   4    -0.221001632536E+03    0.18016E-04   -0.52426E-05  8100   0.265E-02    0.116E-02
DAV:   5    -0.221001632030E+03    0.50693E-06   -0.89804E-06  5004   0.109E-02
   5 F= -.11279830E+03 E0= -.11279830E+03  d E =-.320444E-02
       N       E                     dE             d eps       ncg     rms          rms(c)
DAV:   1    -0.221018477378E+03   -0.16845E-01   -0.66759E-03  7278   0.343E-01    0.166E-02
DAV:   2    -0.221018475527E+03    0.18506E-05   -0.83136E-05  8784   0.352E-02
   6 F= -.11279839E+03 E0= -.11279839E+03  d E =-.328765E-02
       N       E                     dE             d eps       ncg     rms          rms(c)
DAV:   1    -0.221038099933E+03   -0.19623E-01   -0.83241E-02  7140   0.118E+00    0.562E-02
DAV:   2    -0.221038075338E+03    0.24595E-04   -0.94723E-04  8628   0.123E-01    0.370E-02
DAV:   3    -0.221038043055E+03    0.32283E-04   -0.77922E-05  8604   0.377E-02    0.201E-02
DAV:   4    -0.221038040415E+03    0.26398E-05   -0.47719E-05  7800   0.260E-02
   7 F= -.11279940E+03 E0= -.11279940E+03  d E =-.101012E-02
       N       E                     dE             d eps       ncg     rms          rms(c)
DAV:   1    -0.221056409354E+03   -0.18366E-01   -0.78407E-02  7140   0.115E+00    0.533E-02
DAV:   2    -0.221056402869E+03    0.64846E-05   -0.90871E-04  8628   0.120E-01    0.353E-02
DAV:   3    -0.221056376046E+03    0.26823E-04   -0.67407E-05  8628   0.355E-02    0.197E-02
DAV:   4    -0.221056375180E+03    0.86583E-06   -0.44109E-05  7680   0.253E-02
   8 F= -.11279979E+03 E0= -.11279979E+03  d E =-.139974E-02
       N       E                     dE             d eps       ncg     rms          rms(c)
DAV:   1    -0.220961009000E+03    0.95367E-01   -0.73681E-02  7140   0.110E+00    0.723E-02
DAV:   2    -0.220961028893E+03   -0.19893E-04   -0.11039E-03  8628   0.131E-01    0.458E-02
DAV:   3    -0.220961023843E+03    0.50497E-05   -0.68998E-05  8526   0.334E-02
   9 F= -.11279989E+03 E0= -.11279989E+03  d E =-.101027E-03
       N       E                     dE             d eps       ncg     rms          rms(c)
DAV:   1    -0.221002841343E+03   -0.41812E-01   -0.14817E-02  7140   0.490E-01    0.303E-02
DAV:   2    -0.221002820223E+03    0.21120E-04   -0.28670E-04  8556   0.644E-02    0.196E-02
DAV:   3    -0.221002806797E+03    0.13426E-04   -0.11486E-05  4860   0.145E-02    0.123E-02
DAV:   4    -0.221002794504E+03    0.12293E-04   -0.11404E-05  3858   0.133E-02    0.279E-03
DAV:   5    -0.221002793476E+03    0.10279E-05   -0.29916E-06  3804   0.618E-03
  10 F= -.11280012E+03 E0= -.11280012E+03  d E =-.336837E-03
       N       E                     dE             d eps       ncg     rms          rms(c)
DAV:   1    -0.221008347991E+03   -0.55535E-02   -0.24755E-04  7212   0.641E-02    0.432E-03
DAV:   2    -0.221008344287E+03    0.37039E-05   -0.34327E-06  3786   0.761E-03
  11 F= -.11280012E+03 E0= -.11280012E+03  d E =-.336400E-03
       N       E                     dE             d eps       ncg     rms          rms(c)
DAV:   1    -0.221051918530E+03   -0.43571E-01   -0.11842E-02  7146   0.441E-01    0.307E-02
DAV:   2    -0.221051913111E+03    0.54193E-05   -0.23702E-04  8670   0.596E-02    0.203E-02
DAV:   3    -0.221051904293E+03    0.88183E-05   -0.12071E-05  4932   0.159E-02
  12 F= -.11280015E+03 E0= -.11280015E+03  d E =-.247537E-04
