Al4C3 Pbam polymorph (findsym-output) - 
   1.00000000000000     
     9.0564349018479078    0.0000000000000000    0.0000000000000000
     0.0000000000000000    5.2292637815624579    0.0000000000000000
     0.0000000000000000    0.0000000000000000    3.0976658229244531
   Al   C 
     8     6
Direct
     0.7847160444460490    0.1530916915646217    0.0000000000000000
     0.2152839555539509    0.8469083084353782    1.0000000000000000
     0.7152839555539510    0.6530916915646218    0.0000000000000000
     0.2847160444460491    0.3469083084353783    1.0000000000000000
     0.0251201518463908    0.2542718877654431    0.5000000000000000
     0.9748798721536110    0.7457281122345567    0.5000000000000000
     0.4748798421536086    0.7542718877654433    0.5000000000000000
     0.5251201278463890    0.2457281122345570    0.5000000000000000
     1.0000000000000000    1.0000000000000000    1.0000000000000000
     0.5000000000000000    0.5000000000000000    1.0000000000000000
     0.8272994070180005    0.4537313099689184    0.5000000000000000
     0.1727005929819995    0.5462686900310817    0.5000000000000000
     0.6727005929819995    0.9537313099689183    0.5000000000000000
     0.3272994070180005    0.0462686900310816    0.5000000000000000
 
  0.00000000E+00  0.00000000E+00  0.00000000E+00
  0.00000000E+00  0.00000000E+00  0.00000000E+00
  0.00000000E+00  0.00000000E+00  0.00000000E+00
  0.00000000E+00  0.00000000E+00  0.00000000E+00
  0.00000000E+00  0.00000000E+00  0.00000000E+00
  0.00000000E+00  0.00000000E+00  0.00000000E+00
  0.00000000E+00  0.00000000E+00  0.00000000E+00
  0.00000000E+00  0.00000000E+00  0.00000000E+00
  0.00000000E+00  0.00000000E+00  0.00000000E+00
  0.00000000E+00  0.00000000E+00  0.00000000E+00
  0.00000000E+00  0.00000000E+00  0.00000000E+00
  0.00000000E+00  0.00000000E+00  0.00000000E+00
  0.00000000E+00  0.00000000E+00  0.00000000E+00
  0.00000000E+00  0.00000000E+00  0.00000000E+00
