  14  14   0   0
  0.8609561E+01  0.8482350E-09  0.4897782E-09  0.2901305E-09  0.5000000E-15
  1.000000000000000E-004
  CAR 
 Al4C3 Pbam - relax @ 0 GPa (ISIF=8)     
     16.20452278     -6.66974447  301      9.08266875      1.00000000
     -6.670  0.0000E+00  0.0000E+00
     -6.593  0.0000E+00  0.0000E+00
     -6.517  0.0000E+00  0.0000E+00
     -6.441  0.0000E+00  0.0000E+00
     -6.365  0.0000E+00  0.0000E+00
     -6.289  0.0000E+00  0.0000E+00
     -6.212  0.0000E+00  0.0000E+00
     -6.136  0.0000E+00  0.0000E+00
     -6.060  0.0000E+00  0.0000E+00
     -5.984  0.0000E+00  0.0000E+00
     -5.907  0.4787E-19  0.3650E-20
     -5.831  0.2300E-12  0.1754E-13
     -5.755  0.1341E-07  0.1022E-08
     -5.679  0.1318E-04  0.1006E-05
     -5.602  0.4342E-03  0.3412E-04
     -5.526  0.1642E-02  0.1593E-03
     -5.450  0.2558E-02  0.3544E-03
     -5.374  0.3216E-02  0.5996E-03
     -5.297  0.3770E-02  0.8871E-03
     -5.221  0.4268E-02  0.1212E-02
     -5.145  0.4729E-02  0.1573E-02
     -5.069  0.5167E-02  0.1967E-02
     -4.992  0.5590E-02  0.2393E-02
     -4.916  0.6008E-02  0.2851E-02
     -4.840  0.6428E-02  0.3341E-02
     -4.764  0.6861E-02  0.3865E-02
     -4.687  0.7324E-02  0.4423E-02
     -4.611  0.7847E-02  0.5021E-02
     -4.535  0.8523E-02  0.5671E-02
     -4.459  0.9578E-02  0.6401E-02
     -4.382  0.1031E-01  0.7188E-02
     -4.306  0.1013E-01  0.7960E-02
     -4.230  0.9611E-02  0.8693E-02
     -4.154  0.8616E-02  0.9350E-02
     -4.077  0.7683E-02  0.9936E-02
     -4.001  0.7122E-02  0.1048E-01
     -3.925  0.6827E-02  0.1100E-01
     -3.849  0.7014E-02  0.1153E-01
     -3.772  0.7816E-02  0.1213E-01
     -3.696  0.8954E-02  0.1281E-01
     -3.620  0.9960E-02  0.1357E-01
     -3.544  0.1104E-01  0.1441E-01
     -3.467  0.1205E-01  0.1533E-01
     -3.391  0.1245E-01  0.1628E-01
     -3.315  0.1282E-01  0.1726E-01
     -3.239  0.1338E-01  0.1828E-01
     -3.162  0.1345E-01  0.1931E-01
     -3.086  0.1341E-01  0.2033E-01
     -3.010  0.1339E-01  0.2135E-01
     -2.934  0.1342E-01  0.2237E-01
     -2.857  0.1393E-01  0.2343E-01
     -2.781  0.1494E-01  0.2457E-01
     -2.705  0.1567E-01  0.2577E-01
     -2.629  0.1639E-01  0.2702E-01
     -2.552  0.1759E-01  0.2836E-01
     -2.476  0.1916E-01  0.2982E-01
     -2.400  0.2113E-01  0.3143E-01
     -2.324  0.2350E-01  0.3322E-01
     -2.247  0.2337E-01  0.3500E-01
     -2.171  0.2338E-01  0.3679E-01
     -2.095  0.2662E-01  0.3882E-01
     -2.019  0.3240E-01  0.4129E-01
     -1.942  0.3154E-01  0.4369E-01
     -1.866  0.2472E-01  0.4558E-01
     -1.790  0.1981E-01  0.4709E-01
     -1.714  0.1614E-01  0.4832E-01
     -1.637  0.1276E-01  0.4929E-01
     -1.561  0.1095E-01  0.5013E-01
     -1.485  0.1106E-01  0.5097E-01
     -1.409  0.1169E-01  0.5186E-01
     -1.332  0.1220E-01  0.5279E-01
     -1.256  0.1300E-01  0.5378E-01
     -1.180  0.1326E-01  0.5479E-01
     -1.104  0.1046E-01  0.5559E-01
     -1.027  0.8390E-02  0.5623E-01
     -0.951  0.7176E-02  0.5678E-01
     -0.875  0.6281E-02  0.5725E-01
     -0.799  0.5561E-02  0.5768E-01
     -0.722  0.4951E-02  0.5806E-01
     -0.646  0.4418E-02  0.5839E-01
     -0.570  0.3938E-02  0.5869E-01
     -0.494  0.3497E-02  0.5896E-01
     -0.417  0.3085E-02  0.5920E-01
     -0.341  0.2693E-02  0.5940E-01
     -0.265  0.2315E-02  0.5958E-01
     -0.189  0.1943E-02  0.5973E-01
     -0.112  0.1570E-02  0.5985E-01
     -0.036  0.1177E-02  0.5993E-01
      0.040  0.6939E-03  0.5999E-01
      0.116  0.1553E-03  0.6000E-01
      0.193  0.3580E-05  0.6000E-01
      0.269  0.2555E-08  0.6000E-01
      0.345  0.2972E-13  0.6000E-01
      0.421  0.3340E-20  0.6000E-01
      0.498  0.0000E+00  0.6000E-01
      0.574  0.2304E-18  0.6000E-01
      0.650  0.5573E-12  0.6000E-01
      0.726  0.1798E-07  0.6000E-01
      0.803  0.1060E-04  0.6000E-01
      0.879  0.2418E-03  0.6002E-01
      0.955  0.7725E-03  0.6008E-01
      1.031  0.1415E-02  0.6019E-01
      1.108  0.3066E-02  0.6042E-01
      1.184  0.4917E-02  0.6079E-01
      1.260  0.6600E-02  0.6130E-01
      1.336  0.8821E-02  0.6197E-01
      1.412  0.1156E-01  0.6285E-01
      1.489  0.1436E-01  0.6395E-01
      1.565  0.1734E-01  0.6527E-01
      1.641  0.2009E-01  0.6680E-01
      1.717  0.2062E-01  0.6837E-01
      1.794  0.2038E-01  0.6993E-01
      1.870  0.2108E-01  0.7153E-01
      1.946  0.2182E-01  0.7320E-01
      2.022  0.2309E-01  0.7496E-01
      2.099  0.2521E-01  0.7688E-01
      2.175  0.2620E-01  0.7888E-01
      2.251  0.2392E-01  0.8070E-01
      2.327  0.2138E-01  0.8233E-01
      2.404  0.1951E-01  0.8382E-01
      2.480  0.1876E-01  0.8525E-01
      2.556  0.1900E-01  0.8670E-01
      2.632  0.1928E-01  0.8817E-01
      2.709  0.2024E-01  0.8971E-01
      2.785  0.1984E-01  0.9123E-01
      2.861  0.2026E-01  0.9277E-01
      2.937  0.1971E-01  0.9427E-01
      3.014  0.1986E-01  0.9579E-01
      3.090  0.1983E-01  0.9730E-01
      3.166  0.2031E-01  0.9885E-01
      3.242  0.2243E-01  0.1006E+00
      3.319  0.2158E-01  0.1022E+00
      3.395  0.1929E-01  0.1037E+00
      3.471  0.1794E-01  0.1050E+00
      3.547  0.1796E-01  0.1064E+00
      3.624  0.1799E-01  0.1078E+00
      3.700  0.1859E-01  0.1092E+00
      3.776  0.1977E-01  0.1107E+00
      3.852  0.2174E-01  0.1124E+00
      3.929  0.2210E-01  0.1141E+00
      4.005  0.2285E-01  0.1158E+00
      4.081  0.2345E-01  0.1176E+00
      4.157  0.2283E-01  0.1193E+00
      4.234  0.2147E-01  0.1210E+00
      4.310  0.2132E-01  0.1226E+00
      4.386  0.1987E-01  0.1241E+00
      4.462  0.2042E-01  0.1257E+00
      4.539  0.2260E-01  0.1274E+00
      4.615  0.2326E-01  0.1292E+00
      4.691  0.2477E-01  0.1310E+00
      4.767  0.2532E-01  0.1330E+00
      4.844  0.2572E-01  0.1349E+00
      4.920  0.2592E-01  0.1369E+00
      4.996  0.2518E-01  0.1388E+00
      5.072  0.2459E-01  0.1407E+00
      5.149  0.2565E-01  0.1427E+00
      5.225  0.2549E-01  0.1446E+00
      5.301  0.2491E-01  0.1465E+00
      5.377  0.2509E-01  0.1484E+00
      5.454  0.2426E-01  0.1503E+00
      5.530  0.2404E-01  0.1521E+00
      5.606  0.2456E-01  0.1540E+00
      5.682  0.2484E-01  0.1559E+00
      5.759  0.2424E-01  0.1577E+00
      5.835  0.2463E-01  0.1596E+00
      5.911  0.2529E-01  0.1615E+00
      5.987  0.2620E-01  0.1635E+00
      6.064  0.2653E-01  0.1655E+00
      6.140  0.2608E-01  0.1675E+00
      6.216  0.2696E-01  0.1696E+00
      6.292  0.2721E-01  0.1717E+00
      6.369  0.2842E-01  0.1738E+00
      6.445  0.2967E-01  0.1761E+00
      6.521  0.3115E-01  0.1785E+00
      6.597  0.3175E-01  0.1809E+00
      6.674  0.3028E-01  0.1832E+00
      6.750  0.2750E-01  0.1853E+00
      6.826  0.2677E-01  0.1873E+00
      6.902  0.2796E-01  0.1895E+00
      6.979  0.2951E-01  0.1917E+00
      7.055  0.3069E-01  0.1941E+00
      7.131  0.2945E-01  0.1963E+00
      7.207  0.2911E-01  0.1985E+00
      7.284  0.2996E-01  0.2008E+00
      7.360  0.3205E-01  0.2032E+00
      7.436  0.3394E-01  0.2058E+00
      7.512  0.3145E-01  0.2082E+00
      7.589  0.2839E-01  0.2104E+00
      7.665  0.2539E-01  0.2123E+00
      7.741  0.2688E-01  0.2144E+00
      7.817  0.2825E-01  0.2165E+00
      7.894  0.3098E-01  0.2189E+00
      7.970  0.3245E-01  0.2214E+00
      8.046  0.3309E-01  0.2239E+00
      8.122  0.3403E-01  0.2265E+00
      8.199  0.3159E-01  0.2289E+00
      8.275  0.2821E-01  0.2311E+00
      8.351  0.2378E-01  0.2329E+00
      8.427  0.1934E-01  0.2343E+00
      8.504  0.1649E-01  0.2356E+00
      8.580  0.1380E-01  0.2366E+00
      8.656  0.1066E-01  0.2375E+00
      8.732  0.7763E-02  0.2381E+00
      8.809  0.6853E-02  0.2386E+00
      8.885  0.6243E-02  0.2391E+00
      8.961  0.5438E-02  0.2395E+00
      9.037  0.4634E-02  0.2398E+00
      9.113  0.3855E-02  0.2401E+00
      9.190  0.3309E-02  0.2404E+00
      9.266  0.2685E-02  0.2406E+00
      9.342  0.1873E-02  0.2407E+00
      9.418  0.1579E-02  0.2408E+00
      9.495  0.1689E-02  0.2410E+00
      9.571  0.1834E-02  0.2411E+00
      9.647  0.1957E-02  0.2413E+00
      9.723  0.2132E-02  0.2414E+00
      9.800  0.2289E-02  0.2416E+00
      9.876  0.2639E-02  0.2418E+00
      9.952  0.2974E-02  0.2420E+00
     10.028  0.3285E-02  0.2423E+00
     10.105  0.3649E-02  0.2425E+00
     10.181  0.4054E-02  0.2429E+00
     10.257  0.4549E-02  0.2432E+00
     10.333  0.4667E-02  0.2436E+00
     10.410  0.4610E-02  0.2439E+00
     10.486  0.4793E-02  0.2443E+00
     10.562  0.5096E-02  0.2447E+00
     10.638  0.5894E-02  0.2451E+00
     10.715  0.6253E-02  0.2456E+00
     10.791  0.6477E-02  0.2461E+00
     10.867  0.6801E-02  0.2466E+00
     10.943  0.7621E-02  0.2472E+00
     11.020  0.8461E-02  0.2478E+00
     11.096  0.9178E-02  0.2485E+00
     11.172  0.9841E-02  0.2493E+00
     11.248  0.1073E-01  0.2501E+00
     11.325  0.1207E-01  0.2510E+00
     11.401  0.1348E-01  0.2520E+00
     11.477  0.1503E-01  0.2532E+00
     11.553  0.1650E-01  0.2544E+00
     11.630  0.1852E-01  0.2559E+00
     11.706  0.2008E-01  0.2574E+00
     11.782  0.1918E-01  0.2589E+00
     11.858  0.1897E-01  0.2603E+00
     11.935  0.1890E-01  0.2617E+00
     12.011  0.1779E-01  0.2631E+00
     12.087  0.1663E-01  0.2644E+00
     12.163  0.1641E-01  0.2656E+00
     12.240  0.1655E-01  0.2669E+00
     12.316  0.1709E-01  0.2682E+00
     12.392  0.1931E-01  0.2697E+00
     12.468  0.2148E-01  0.2713E+00
     12.545  0.2391E-01  0.2731E+00
     12.621  0.2528E-01  0.2750E+00
     12.697  0.2681E-01  0.2771E+00
     12.773  0.2733E-01  0.2792E+00
     12.850  0.2641E-01  0.2812E+00
     12.926  0.2551E-01  0.2831E+00
     13.002  0.2667E-01  0.2852E+00
     13.078  0.2716E-01  0.2872E+00
     13.155  0.2473E-01  0.2891E+00
     13.231  0.2279E-01  0.2909E+00
     13.307  0.2270E-01  0.2926E+00
     13.383  0.2165E-01  0.2942E+00
     13.460  0.2138E-01  0.2959E+00
     13.536  0.2133E-01  0.2975E+00
     13.612  0.2255E-01  0.2992E+00
     13.688  0.2499E-01  0.3011E+00
     13.765  0.2526E-01  0.3030E+00
     13.841  0.2553E-01  0.3050E+00
     13.917  0.2677E-01  0.3070E+00
     13.993  0.2550E-01  0.3090E+00
     14.070  0.2182E-01  0.3106E+00
     14.146  0.1941E-01  0.3121E+00
     14.222  0.1945E-01  0.3136E+00
     14.298  0.1857E-01  0.3150E+00
     14.375  0.1639E-01  0.3163E+00
     14.451  0.1413E-01  0.3173E+00
     14.527  0.1150E-01  0.3182E+00
     14.603  0.8656E-02  0.3189E+00
     14.680  0.6112E-02  0.3193E+00
     14.756  0.3541E-02  0.3196E+00
     14.832  0.1899E-02  0.3198E+00
     14.908  0.1065E-02  0.3198E+00
     14.985  0.8867E-03  0.3199E+00
     15.061  0.5738E-03  0.3200E+00
     15.137  0.4020E-03  0.3200E+00
     15.213  0.1674E-03  0.3200E+00
     15.290  0.6293E-05  0.3200E+00
     15.366  0.6943E-08  0.3200E+00
     15.442  0.1399E-12  0.3200E+00
     15.518  0.3637E-19  0.3200E+00
     15.595  0.0000E+00  0.3200E+00
     15.671  0.0000E+00  0.3200E+00
     15.747  0.0000E+00  0.3200E+00
     15.823  0.0000E+00  0.3200E+00
     15.900  0.0000E+00  0.3200E+00
     15.976  0.0000E+00  0.3200E+00
     16.052  0.0000E+00  0.3200E+00
     16.128  0.0000E+00  0.3200E+00
     16.205  0.0000E+00  0.3200E+00
