Al4C3 Pbam - relax @ 0 GPa (ISIF=8)     
           1
     8.482349    0.000000    0.000000
     0.000000    4.897782    0.000000
     0.000000    0.000000    2.901305
   Al   C 
     8     6
Direct configuration=     1
   0.78588003  0.16011000  0.00000000
   0.21411997  0.83989000  0.00000000
   0.71411997  0.66011000  0.00000000
   0.28588003  0.33989000  0.00000000
   0.03110000  0.25303000  0.50000000
   0.96890003  0.74697000  0.50000000
   0.46890000  0.75303000  0.50000000
   0.53109997  0.24697000  0.50000000
   0.00000000  0.00000000  0.00000000
   0.50000000  0.50000000  0.00000000
   0.82459003  0.44672000  0.50000000
   0.17540997  0.55328000  0.50000000
   0.67540997  0.94672000  0.50000000
   0.32459003  0.05328000  0.50000000
Al4C3 Pbam - relax @ 0 GPa (ISIF=8)     
           1
     9.581701    0.000000    0.000000
     0.000000    5.532557    0.000000
     0.000000    0.000000    3.277328
   Al   C 
     8     6
Direct configuration=     2
   0.78587748  0.16011586  0.00000000
   0.21412252  0.83988414  0.00000000
   0.71412252  0.66011586  1.00000000
   0.28587748  0.33988414  0.00000000
   0.03109968  0.25302473  0.50000000
   0.96890035  0.74697527  0.50000000
   0.46890032  0.75302473  0.50000000
   0.53109965  0.24697527  0.50000000
   1.00000000  0.00000000  0.00000000
   0.50000000  0.50000000  0.00000000
   0.82459250  0.44672826  0.50000000
   0.17540750  0.55327174  0.50000000
   0.67540750  0.94672826  0.50000000
   0.32459250  0.05327174  0.50000000
Al4C3 Pbam - relax @ 0 GPa (ISIF=8)     
           1
     9.049405    0.000000    0.000000
     0.000000    5.225205    0.000000
     0.000000    0.000000    3.095261
   Al   C 
     8     6
Direct configuration=     3
   0.78587857  0.16011335  0.00000000
   0.21412143  0.83988665  0.00000000
   0.71412143  0.66011335  0.00000000
   0.28587857  0.33988665  0.00000000
   0.03109982  0.25302699  0.50000000
   0.96890021  0.74697301  0.50000000
   0.46890018  0.75302699  0.50000000
   0.53109979  0.24697301  0.50000000
   0.00000000  0.00000000  0.00000000
   0.50000000  0.50000000  0.00000000
   0.82459144  0.44672472  0.50000000
   0.17540856  0.55327528  0.50000000
   0.67540856  0.94672472  0.50000000
   0.32459144  0.05327528  0.50000000
Al4C3 Pbam - relax @ 0 GPa (ISIF=8)     
           1
     9.040447    0.000000    0.000000
     0.000000    5.220032    0.000000
     0.000000    0.000000    3.092197
   Al   C 
     8     6
Direct configuration=     4
   0.78587859  0.16011330  0.00000000
   0.21412141  0.83988670  0.00000000
   0.71412141  0.66011330  0.00000000
   0.28587859  0.33988670  0.00000000
   0.03109982  0.25302703  0.50000000
   0.96890021  0.74697297  0.50000000
   0.46890018  0.75302703  0.50000000
   0.53109979  0.24697297  0.50000000
   0.00000000  0.00000000  0.00000000
   0.50000000  0.50000000  0.00000000
   0.82459142  0.44672466  0.50000000
   0.17540858  0.55327534  0.50000000
   0.67540858  0.94672466  0.50000000
   0.32459142  0.05327534  0.50000000
Al4C3 Pbam - relax @ 0 GPa (ISIF=8)     
           1
     9.037948    0.000000    0.000000
     0.000000    5.218589    0.000000
     0.000000    0.000000    3.091342
   Al   C 
     8     6
Direct configuration=     5
   0.78587860  0.16011329  0.00000000
   0.21412140  0.83988671  0.00000000
   0.71412140  0.66011329  0.00000000
   0.28587860  0.33988671  0.00000000
   0.03109982  0.25302704  0.50000000
   0.96890021  0.74697296  0.50000000
   0.46890018  0.75302704  0.50000000
   0.53109979  0.24697296  0.50000000
   0.00000000  0.00000000  0.00000000
   0.50000000  0.50000000  0.00000000
   0.82459142  0.44672464  0.50000000
   0.17540858  0.55327536  0.50000000
   0.67540858  0.94672464  0.50000000
   0.32459142  0.05327536  0.50000000
Al4C3 Pbam - relax @ 0 GPa (ISIF=8)     
           1
     9.044461    0.000000    0.000000
     0.000000    5.222350    0.000000
     0.000000    0.000000    3.093570
   Al   C 
     8     6
Direct configuration=     6
   0.78707137  0.15826191  0.00000000
   0.21292863  0.84173809  1.00000000
   0.71292863  0.65826191  0.00000000
   0.28707137  0.34173809  1.00000000
   0.02935618  0.25314927  0.50000000
   0.97064384  0.74685073  0.50000000
   0.47064381  0.75314927  0.50000000
   0.52935616  0.24685073  0.50000000
   1.00000000  0.00000000  0.00000000
   0.50000000  0.50000000  0.00000000
   0.82623751  0.44946446  0.50000000
   0.17376249  0.55053554  0.50000000
   0.67376249  0.94946446  0.50000000
   0.32623751  0.05053554  0.50000000
Al4C3 Pbam - relax @ 0 GPa (ISIF=8)     
           1
     9.048857    0.000000    0.000000
     0.000000    5.224888    0.000000
     0.000000    0.000000    3.095074
   Al   C 
     8     6
Direct configuration=     7
   0.78787574  0.15701337  0.00000000
   0.21212426  0.84298663  0.00000000
   0.71212426  0.65701337  0.00000000
   0.28787574  0.34298663  0.00000000
   0.02818031  0.25323171  0.50000000
   0.97181971  0.74676829  0.50000000
   0.47181968  0.75323171  0.50000000
   0.52818029  0.24676829  0.50000000
   0.00000000  0.00000000  0.00000000
   0.50000000  0.50000000  0.00000000
   0.82734760  0.45131215  0.50000000
   0.17265240  0.54868785  0.50000000
   0.67265240  0.95131215  0.50000000
   0.32734760  0.04868785  0.50000000
Al4C3 Pbam - relax @ 0 GPa (ISIF=8)     
           1
     9.053737    0.000000    0.000000
     0.000000    5.227706    0.000000
     0.000000    0.000000    3.096743
   Al   C 
     8     6
Direct configuration=     8
   0.78702481  0.15586919  0.00000000
   0.21297519  0.84413081  1.00000000
   0.71297519  0.65586919  0.00000000
   0.28702481  0.34413081  1.00000000
   0.02747457  0.25440900  0.50000000
   0.97252545  0.74559100  0.50000000
   0.47252542  0.75440900  0.50000000
   0.52747455  0.24559100  0.50000000
   1.00000000  0.00000000  0.00000000
   0.50000000  0.50000000  0.00000000
   0.82727608  0.45263637  0.50000000
   0.17272392  0.54736363  0.50000000
   0.67272392  0.95263637  0.50000000
   0.32727608  0.04736363  0.50000000
Al4C3 Pbam - relax @ 0 GPa (ISIF=8)     
           1
     9.057256    0.000000    0.000000
     0.000000    5.229738    0.000000
     0.000000    0.000000    3.097947
   Al   C 
     8     6
Direct configuration=     9
   0.78641152  0.15504454  0.00000000
   0.21358848  0.84495546  0.00000000
   0.71358848  0.65504454  0.00000000
   0.28641152  0.34495546  0.00000000
   0.02696592  0.25525750  0.50000000
   0.97303410  0.74474250  0.50000000
   0.47303407  0.75525750  0.50000000
   0.52696590  0.24474250  0.50000000
   0.00000000  0.00000000  0.00000000
   0.50000000  0.50000000  0.00000000
   0.82722454  0.45359078  0.50000000
   0.17277546  0.54640922  0.50000000
   0.67277546  0.95359078  0.50000000
   0.32722454  0.04640922  0.50000000
Al4C3 Pbam - relax @ 0 GPa (ISIF=8)     
           1
     9.055465    0.000000    0.000000
     0.000000    5.228704    0.000000
     0.000000    0.000000    3.097334
   Al   C 
     8     6
Direct configuration=    10
   0.78542703  0.15383641  1.00000000
   0.21457297  0.84616359  0.00000000
   0.71457297  0.65383641  0.00000000
   0.28542703  0.34616359  1.00000000
   0.02575055  0.25433505  0.50000000
   0.97424948  0.74566495  0.50000000
   0.47424945  0.75433505  0.50000000
   0.52575052  0.24566495  0.50000000
   1.00000000  1.00000000  0.00000000
   0.50000000  0.50000000  0.00000000
   0.82693229  0.45401699  0.50000000
   0.17306771  0.54598301  0.50000000
   0.67306771  0.95401699  0.50000000
   0.32693229  0.04598301  0.50000000
Al4C3 Pbam - relax @ 0 GPa (ISIF=8)     
           1
     9.055045    0.000000    0.000000
     0.000000    5.228461    0.000000
     0.000000    0.000000    3.097190
   Al   C 
     8     6
Direct configuration=    11
   0.78519641  0.15355340  0.00000000
   0.21480359  0.84644660  0.00000000
   0.71480359  0.65355340  0.00000000
   0.28519641  0.34644660  0.00000000
   0.02546584  0.25411897  0.50000000
   0.97453418  0.74588103  0.50000000
   0.47453415  0.75411897  0.50000000
   0.52546582  0.24588103  0.50000000
   0.00000000  0.00000000  0.00000000
   0.50000000  0.50000000  0.00000000
   0.82686383  0.45411683  0.50000000
   0.17313617  0.54588317  0.50000000
   0.67313617  0.95411683  0.50000000
   0.32686383  0.04588317  0.50000000
Al4C3 Pbam - relax @ 0 GPa (ISIF=8)     
           1
     9.057984    0.000000    0.000000
     0.000000    5.230159    0.000000
     0.000000    0.000000    3.098196
   Al   C 
     8     6
Direct configuration=    12
   0.78479465  0.15327877  1.00000000
   0.21520535  0.84672123  0.00000000
   0.71520535  0.65327877  0.00000000
   0.28479465  0.34672123  1.00000000
   0.02517741  0.25421631  0.50000000
   0.97482261  0.74578369  0.50000000
   0.47482258  0.75421631  0.50000000
   0.52517739  0.24578369  0.50000000
   1.00000000  1.00000000  0.00000000
   0.50000000  0.50000000  0.00000000
   0.82720454  0.45381527  0.50000000
   0.17279546  0.54618473  0.50000000
   0.67279546  0.95381527  0.50000000
   0.32720454  0.04618473  0.50000000
Al4C3 Pbam - relax @ 0 GPa (ISIF=8)     
           1
     9.058512    0.000000    0.000000
     0.000000    5.230463    0.000000
     0.000000    0.000000    3.098376
   Al   C 
     8     6
Direct configuration=    13
   0.78472254  0.15322948  0.00000000
   0.21527746  0.84677052  0.00000000
   0.71527746  0.65322948  0.00000000
   0.28472254  0.34677052  0.00000000
   0.02512565  0.25423378  0.50000000
   0.97487437  0.74576622  0.50000000
   0.47487434  0.75423378  0.50000000
   0.52512563  0.24576622  0.50000000
   0.00000000  0.00000000  0.00000000
   0.50000000  0.50000000  0.00000000
   0.82726569  0.45376116  0.50000000
   0.17273431  0.54623884  0.50000000
   0.67273431  0.95376116  0.50000000
   0.32726569  0.04623884  0.50000000
Al4C3 Pbam - relax @ 0 GPa (ISIF=8)     
           1
     9.056435    0.000000    0.000000
     0.000000    5.229264    0.000000
     0.000000    0.000000    3.097666
   Al   C 
     8     6
Direct configuration=    14
   0.78471604  0.15309169  0.00000000
   0.21528396  0.84690831  1.00000000
   0.71528396  0.65309169  0.00000000
   0.28471604  0.34690831  1.00000000
   0.02512015  0.25427189  0.50000000
   0.97487987  0.74572811  0.50000000
   0.47487984  0.75427189  0.50000000
   0.52512013  0.24572811  0.50000000
   1.00000000  1.00000000  1.00000000
   0.50000000  0.50000000  1.00000000
   0.82729941  0.45373131  0.50000000
   0.17270059  0.54626869  0.50000000
   0.67270059  0.95373131  0.50000000
   0.32729941  0.04626869  0.50000000
