Al4C3 R-3m polymorph (findsym-output, fr
   1.00000000000000     
     3.3334035511392921    0.0000000000000000    0.0000000000000000
    -1.6667017755696460    2.8868121563889573    0.0000000000000000
     0.0000000000000000    0.0000000000000000   24.9205382328516869
   Al   C 
    12     9
Direct
 -0.0000000000000000  0.0000000000000000  0.6301661979799209
  0.0000000000000000 -0.0000000000000000  0.3698338020200791
  0.6666666870000029  0.3333333429999996  0.9634995109799180
  0.6666666870000029  0.3333333429999996  0.7031671160200799
  0.3333333429999996  0.6666666870000029  0.2968328539799176
  0.3333333429999996  0.6666666870000029  0.0365004700200839
 -0.0000000000000000 -0.0000000000000000  0.2064740629075202
  0.0000000000000000  0.0000000000000000  0.7935259370924798
  0.6666666870000029  0.3333333429999996  0.5398073769075210
  0.6666666870000029  0.3333333429999996  0.1268592650924817
  0.3333333429999996  0.6666666870000029  0.8731407499075231
  0.3333333429999996  0.6666666870000029  0.4601925930924765
 -0.0000000000000000 -0.0000000000000000  0.7167501824083894
  0.0000000000000000  0.0000000000000000  0.2832498175916107
  0.6666666870000029  0.3333333429999996  0.0500835144083916
  0.6666666870000029  0.3333333429999996  0.6165831305916077
  0.3333333429999996  0.6666666870000029  0.3834168394083897
  0.3333333429999996  0.6666666870000029  0.9499165045916064
 -0.0000000000000000 -0.0000000000000000  0.5000000000000000
  0.6666666870000029  0.3333333429999996  0.8333333129999971
  0.3333333429999996  0.6666666870000029  0.1666666719999981
 
  0.00000000E+00  0.00000000E+00  0.00000000E+00
  0.00000000E+00  0.00000000E+00  0.00000000E+00
  0.00000000E+00  0.00000000E+00  0.00000000E+00
  0.00000000E+00  0.00000000E+00  0.00000000E+00
  0.00000000E+00  0.00000000E+00  0.00000000E+00
  0.00000000E+00  0.00000000E+00  0.00000000E+00
  0.00000000E+00  0.00000000E+00  0.00000000E+00
  0.00000000E+00  0.00000000E+00  0.00000000E+00
  0.00000000E+00  0.00000000E+00  0.00000000E+00
  0.00000000E+00  0.00000000E+00  0.00000000E+00
  0.00000000E+00  0.00000000E+00  0.00000000E+00
  0.00000000E+00  0.00000000E+00  0.00000000E+00
  0.00000000E+00  0.00000000E+00  0.00000000E+00
  0.00000000E+00  0.00000000E+00  0.00000000E+00
  0.00000000E+00  0.00000000E+00  0.00000000E+00
  0.00000000E+00  0.00000000E+00  0.00000000E+00
  0.00000000E+00  0.00000000E+00  0.00000000E+00
  0.00000000E+00  0.00000000E+00  0.00000000E+00
  0.00000000E+00  0.00000000E+00  0.00000000E+00
  0.00000000E+00  0.00000000E+00  0.00000000E+00
  0.00000000E+00  0.00000000E+00  0.00000000E+00
