Al4C3 Pnma (POSCAR.IV, symmetrized via s
   1.00000000000000     
     8.1213243786028730    0.0000000000000000    0.0000000000000000
     0.0000000000000000    2.8017093228779264    0.0000000000000000
     0.0000000000000000    0.0000000000000000    9.6539677464767770
   Al   C 
    16    12
Direct
  0.2629527082498420  0.2500000000000000  0.2974427311180550
  0.2370472917501581  0.7500000000000000  0.7974427311180552
  0.7370472917501579  0.7500000000000000  0.7025572688819448
  0.7629527082498421  0.2500000000000000  0.2025572688819449
  0.3454187354324219  0.2500000000000000  0.0110570728309831
  0.1545812645675781  0.7500000000000000  0.5110570728309829
  0.6545812645675781  0.7500000000000000  0.9889429271690171
  0.8454187354324219  0.2500000000000000  0.4889429271690169
  0.5220598290851013  0.2500000000000000  0.7936753280976241
  0.9779401709148987  0.7500000000000000  0.2936753280976241
  0.4779401709148989  0.7500000000000000  0.2063246719023758
  0.0220598290851010  0.2500000000000000  0.7063246719023759
  0.0678463799092536  0.2500000000000000  0.0904436950463284
  0.4321536200907535  0.7500000000000000  0.5904436950463283
  0.9321536200907464  0.7500000000000000  0.9095563049536717
  0.5678463799092536  0.2500000000000000  0.4095563049536715
  0.2600531069578222  0.2500000000000000  0.6424530946519909
  0.2399468930421777  0.7500000000000000  0.1424530946519907
  0.7399468930421776  0.7500000000000000  0.3575469053480093
  0.7600531069578224  0.2500000000000000  0.8575469053480091
  0.6056761648507621  0.2500000000000000  0.6072801610001090
  0.8943238351492379  0.7500000000000000  0.1072801610001091
  0.3943238351492374  0.7500000000000000  0.3927198389998910
  0.1056761648507625  0.2500000000000000  0.8927198389998910
  0.0638166733859124  0.2500000000000000  0.3892613079488303
  0.4361833266140875  0.7500000000000000  0.8892613079488300
  0.9361833266140875  0.7500000000000000  0.6107386920511700
  0.5638166733859125  0.2500000000000000  0.1107386920511699
 
  0.00000000E+00  0.00000000E+00  0.00000000E+00
  0.00000000E+00  0.00000000E+00  0.00000000E+00
  0.00000000E+00  0.00000000E+00  0.00000000E+00
  0.00000000E+00  0.00000000E+00  0.00000000E+00
  0.00000000E+00  0.00000000E+00  0.00000000E+00
  0.00000000E+00  0.00000000E+00  0.00000000E+00
  0.00000000E+00  0.00000000E+00  0.00000000E+00
  0.00000000E+00  0.00000000E+00  0.00000000E+00
  0.00000000E+00  0.00000000E+00  0.00000000E+00
  0.00000000E+00  0.00000000E+00  0.00000000E+00
  0.00000000E+00  0.00000000E+00  0.00000000E+00
  0.00000000E+00  0.00000000E+00  0.00000000E+00
  0.00000000E+00  0.00000000E+00  0.00000000E+00
  0.00000000E+00  0.00000000E+00  0.00000000E+00
  0.00000000E+00  0.00000000E+00  0.00000000E+00
  0.00000000E+00  0.00000000E+00  0.00000000E+00
  0.00000000E+00  0.00000000E+00  0.00000000E+00
  0.00000000E+00  0.00000000E+00  0.00000000E+00
  0.00000000E+00  0.00000000E+00  0.00000000E+00
  0.00000000E+00  0.00000000E+00  0.00000000E+00
  0.00000000E+00  0.00000000E+00  0.00000000E+00
  0.00000000E+00  0.00000000E+00  0.00000000E+00
  0.00000000E+00  0.00000000E+00  0.00000000E+00
  0.00000000E+00  0.00000000E+00  0.00000000E+00
  0.00000000E+00  0.00000000E+00  0.00000000E+00
  0.00000000E+00  0.00000000E+00  0.00000000E+00
  0.00000000E+00  0.00000000E+00  0.00000000E+00
  0.00000000E+00  0.00000000E+00  0.00000000E+00
