  28  28   0   0
  0.7917468E+01  0.8146225E-09  0.2810299E-09  0.9683567E-09  0.5000000E-15
  1.000000000000000E-004
  CAR 
 Al4C3 Pnma - r2SCAN H(P) scan @ 70 GPa (
     22.46900669     -6.55434051  301     12.99409313      1.00000000
     -6.554  0.0000E+00  0.0000E+00
     -6.458  0.0000E+00  0.0000E+00
     -6.361  0.0000E+00  0.0000E+00
     -6.264  0.0000E+00  0.0000E+00
     -6.167  0.0000E+00  0.0000E+00
     -6.071  0.0000E+00  0.0000E+00
     -5.974  0.0000E+00  0.0000E+00
     -5.877  0.0000E+00  0.0000E+00
     -5.780  0.0000E+00  0.0000E+00
     -5.684  0.0000E+00  0.0000E+00
     -5.587  0.0000E+00  0.0000E+00
     -5.490  0.1463E-15  0.1415E-16
     -5.393  0.2031E-08  0.1965E-09
     -5.297  0.2198E-04  0.2127E-05
     -5.200  0.5134E-03  0.5179E-04
     -5.103  0.2314E-02  0.2756E-03
     -5.006  0.4584E-02  0.7191E-03
     -4.910  0.4776E-02  0.1181E-02
     -4.813  0.3730E-02  0.1542E-02
     -4.716  0.5660E-02  0.2090E-02
     -4.619  0.1004E-01  0.3061E-02
     -4.523  0.9493E-02  0.3979E-02
     -4.426  0.4975E-02  0.4460E-02
     -4.329  0.6635E-02  0.5102E-02
     -4.232  0.1086E-01  0.6153E-02
     -4.136  0.1021E-01  0.7141E-02
     -4.039  0.6394E-02  0.7760E-02
     -3.942  0.1214E-01  0.8934E-02
     -3.845  0.1286E-01  0.1018E-01
     -3.749  0.1191E-01  0.1133E-01
     -3.652  0.1330E-01  0.1262E-01
     -3.555  0.9305E-02  0.1352E-01
     -3.459  0.8998E-02  0.1439E-01
     -3.362  0.1230E-01  0.1558E-01
     -3.265  0.1937E-01  0.1745E-01
     -3.168  0.1219E-01  0.1863E-01
     -3.072  0.9308E-02  0.1953E-01
     -2.975  0.1336E-01  0.2082E-01
     -2.878  0.2429E-01  0.2317E-01
     -2.781  0.1676E-01  0.2480E-01
     -2.685  0.1193E-01  0.2595E-01
     -2.588  0.1388E-01  0.2729E-01
     -2.491  0.1795E-01  0.2903E-01
     -2.394  0.1253E-01  0.3024E-01
     -2.298  0.1321E-01  0.3152E-01
     -2.201  0.2029E-01  0.3348E-01
     -2.104  0.2142E-01  0.3556E-01
     -2.007  0.2674E-01  0.3814E-01
     -1.911  0.2035E-01  0.4011E-01
     -1.814  0.1396E-01  0.4146E-01
     -1.717  0.2892E-01  0.4426E-01
     -1.620  0.2361E-01  0.4654E-01
     -1.524  0.1058E-01  0.4757E-01
     -1.427  0.1476E-01  0.4900E-01
     -1.330  0.2159E-01  0.5108E-01
     -1.233  0.2997E-01  0.5398E-01
     -1.137  0.3587E-01  0.5745E-01
     -1.040  0.2806E-01  0.6017E-01
     -0.943  0.1958E-01  0.6206E-01
     -0.846  0.2934E-01  0.6490E-01
     -0.750  0.2959E-01  0.6776E-01
     -0.653  0.3291E-01  0.7095E-01
     -0.556  0.3687E-01  0.7452E-01
     -0.459  0.4095E-01  0.7848E-01
     -0.363  0.3977E-01  0.8232E-01
     -0.266  0.4156E-01  0.8635E-01
     -0.169  0.3913E-01  0.9013E-01
     -0.072  0.3726E-01  0.9374E-01
      0.024  0.3710E-01  0.9732E-01
      0.121  0.2354E-01  0.9960E-01
      0.218  0.2061E-01  0.1016E+00
      0.315  0.1953E-01  0.1035E+00
      0.411  0.9609E-02  0.1044E+00
      0.508  0.2565E-01  0.1069E+00
      0.605  0.1380E-01  0.1082E+00
      0.701  0.1287E-01  0.1095E+00
      0.798  0.1176E-01  0.1106E+00
      0.895  0.1879E-01  0.1124E+00
      0.992  0.1159E-01  0.1136E+00
      1.088  0.6365E-02  0.1142E+00
      1.185  0.1185E-01  0.1153E+00
      1.282  0.1275E-01  0.1165E+00
      1.379  0.7290E-02  0.1173E+00
      1.475  0.7447E-02  0.1180E+00
      1.572  0.9154E-02  0.1189E+00
      1.669  0.7774E-02  0.1196E+00
      1.766  0.3119E-02  0.1199E+00
      1.862  0.8804E-03  0.1200E+00
      1.959  0.3537E-05  0.1200E+00
      2.056  0.2381E-10  0.1200E+00
      2.153  0.1195E-18  0.1200E+00
      2.249  0.4782E-18  0.1200E+00
      2.346  0.4771E-10  0.1200E+00
      2.443  0.3508E-05  0.1200E+00
      2.540  0.4516E-03  0.1200E+00
      2.636  0.2438E-02  0.1203E+00
      2.733  0.4034E-02  0.1207E+00
      2.830  0.2942E-02  0.1210E+00
      2.927  0.4662E-02  0.1214E+00
      3.023  0.7647E-02  0.1221E+00
      3.120  0.1574E-01  0.1237E+00
      3.217  0.1699E-01  0.1253E+00
      3.314  0.2367E-01  0.1276E+00
      3.410  0.3506E-01  0.1310E+00
      3.507  0.2454E-01  0.1334E+00
      3.604  0.3267E-01  0.1365E+00
      3.701  0.2507E-01  0.1390E+00
      3.797  0.2363E-01  0.1412E+00
      3.894  0.3173E-01  0.1443E+00
      3.991  0.4000E-01  0.1482E+00
      4.088  0.4072E-01  0.1521E+00
      4.184  0.2729E-01  0.1548E+00
      4.281  0.4075E-01  0.1587E+00
      4.378  0.4282E-01  0.1628E+00
      4.475  0.3628E-01  0.1664E+00
      4.571  0.3458E-01  0.1697E+00
      4.668  0.2835E-01  0.1724E+00
      4.765  0.3395E-01  0.1757E+00
      4.862  0.3407E-01  0.1790E+00
      4.958  0.2922E-01  0.1819E+00
      5.055  0.3486E-01  0.1852E+00
      5.152  0.2982E-01  0.1881E+00
      5.248  0.2802E-01  0.1908E+00
      5.345  0.2706E-01  0.1934E+00
      5.442  0.2945E-01  0.1963E+00
      5.539  0.3985E-01  0.2001E+00
      5.635  0.3332E-01  0.2034E+00
      5.732  0.2886E-01  0.2062E+00
      5.829  0.3385E-01  0.2094E+00
      5.926  0.3228E-01  0.2126E+00
      6.022  0.3870E-01  0.2163E+00
      6.119  0.4272E-01  0.2204E+00
      6.216  0.3210E-01  0.2235E+00
      6.313  0.3730E-01  0.2271E+00
      6.409  0.2952E-01  0.2300E+00
      6.506  0.3275E-01  0.2332E+00
      6.603  0.2541E-01  0.2356E+00
      6.700  0.2736E-01  0.2383E+00
      6.796  0.3177E-01  0.2413E+00
      6.893  0.4310E-01  0.2455E+00
      6.990  0.5060E-01  0.2504E+00
      7.087  0.3856E-01  0.2541E+00
      7.183  0.3146E-01  0.2572E+00
      7.280  0.5434E-01  0.2624E+00
      7.377  0.3905E-01  0.2662E+00
      7.474  0.3327E-01  0.2694E+00
      7.570  0.4678E-01  0.2740E+00
      7.667  0.3880E-01  0.2777E+00
      7.764  0.3455E-01  0.2811E+00
      7.861  0.5406E-01  0.2863E+00
      7.957  0.3387E-01  0.2896E+00
      8.054  0.3421E-01  0.2929E+00
      8.151  0.2712E-01  0.2955E+00
      8.248  0.3776E-01  0.2992E+00
      8.344  0.3273E-01  0.3023E+00
      8.441  0.4186E-01  0.3064E+00
      8.538  0.3638E-01  0.3099E+00
      8.635  0.2995E-01  0.3128E+00
      8.731  0.5329E-01  0.3179E+00
      8.828  0.3788E-01  0.3216E+00
      8.925  0.4376E-01  0.3258E+00
      9.022  0.4741E-01  0.3304E+00
      9.118  0.3596E-01  0.3339E+00
      9.215  0.4712E-01  0.3385E+00
      9.312  0.4226E-01  0.3426E+00
      9.409  0.4081E-01  0.3465E+00
      9.505  0.4592E-01  0.3509E+00
      9.602  0.4723E-01  0.3555E+00
      9.699  0.4332E-01  0.3597E+00
      9.795  0.2823E-01  0.3624E+00
      9.892  0.3386E-01  0.3657E+00
      9.989  0.3884E-01  0.3695E+00
     10.086  0.4010E-01  0.3733E+00
     10.182  0.5515E-01  0.3787E+00
     10.279  0.5760E-01  0.3843E+00
     10.376  0.5510E-01  0.3896E+00
     10.473  0.6372E-01  0.3958E+00
     10.569  0.5886E-01  0.4014E+00
     10.666  0.5510E-01  0.4068E+00
     10.763  0.4766E-01  0.4114E+00
     10.860  0.5252E-01  0.4165E+00
     10.956  0.6171E-01  0.4224E+00
     11.053  0.6657E-01  0.4289E+00
     11.150  0.7026E-01  0.4357E+00
     11.247  0.6707E-01  0.4422E+00
     11.343  0.4117E-01  0.4461E+00
     11.440  0.5448E-01  0.4514E+00
     11.537  0.4141E-01  0.4554E+00
     11.634  0.3785E-01  0.4591E+00
     11.730  0.3184E-01  0.4622E+00
     11.827  0.4305E-01  0.4663E+00
     11.924  0.2994E-01  0.4692E+00
     12.021  0.2318E-01  0.4715E+00
     12.117  0.2230E-01  0.4736E+00
     12.214  0.1823E-01  0.4754E+00
     12.311  0.1060E-01  0.4764E+00
     12.408  0.1389E-01  0.4778E+00
     12.504  0.9206E-02  0.4787E+00
     12.601  0.6994E-02  0.4793E+00
     12.698  0.4446E-02  0.4798E+00
     12.795  0.2424E-02  0.4800E+00
     12.891  0.8228E-04  0.4800E+00
     12.988  0.2234E-07  0.4800E+00
     13.085  0.6609E-14  0.4800E+00
     13.182  0.0000E+00  0.4800E+00
     13.278  0.0000E+00  0.4800E+00
     13.375  0.0000E+00  0.4800E+00
     13.472  0.0000E+00  0.4800E+00
     13.569  0.0000E+00  0.4800E+00
     13.665  0.0000E+00  0.4800E+00
     13.762  0.0000E+00  0.4800E+00
     13.859  0.1432E-15  0.4800E+00
     13.955  0.4238E-08  0.4800E+00
     14.052  0.9861E-04  0.4800E+00
     14.149  0.4210E-02  0.4804E+00
     14.246  0.7808E-02  0.4812E+00
     14.342  0.1519E-01  0.4826E+00
     14.439  0.6852E-02  0.4833E+00
     14.536  0.1766E-01  0.4850E+00
     14.633  0.1652E-01  0.4866E+00
     14.729  0.2061E-01  0.4886E+00
     14.826  0.1699E-01  0.4902E+00
     14.923  0.2164E-01  0.4923E+00
     15.020  0.1142E-01  0.4934E+00
     15.116  0.8740E-02  0.4943E+00
     15.213  0.1600E-01  0.4958E+00
     15.310  0.1998E-01  0.4978E+00
     15.407  0.2592E-01  0.5003E+00
     15.503  0.2623E-01  0.5028E+00
     15.600  0.3790E-01  0.5065E+00
     15.697  0.2840E-01  0.5092E+00
     15.794  0.2411E-01  0.5116E+00
     15.890  0.2782E-01  0.5143E+00
     15.987  0.1872E-01  0.5161E+00
     16.084  0.2528E-01  0.5185E+00
     16.181  0.2933E-01  0.5214E+00
     16.277  0.1663E-01  0.5230E+00
     16.374  0.1539E-01  0.5244E+00
     16.471  0.1506E-01  0.5259E+00
     16.568  0.1016E-01  0.5269E+00
     16.664  0.2008E-01  0.5288E+00
     16.761  0.2153E-01  0.5309E+00
     16.858  0.2934E-01  0.5338E+00
     16.955  0.2206E-01  0.5359E+00
     17.051  0.2486E-01  0.5383E+00
     17.148  0.2457E-01  0.5407E+00
     17.245  0.1916E-01  0.5425E+00
     17.342  0.2596E-01  0.5450E+00
     17.438  0.3464E-01  0.5484E+00
     17.535  0.5306E-01  0.5535E+00
     17.632  0.4951E-01  0.5583E+00
     17.729  0.3038E-01  0.5612E+00
     17.825  0.2712E-01  0.5639E+00
     17.922  0.2777E-01  0.5666E+00
     18.019  0.4587E-01  0.5710E+00
     18.116  0.4540E-01  0.5754E+00
     18.212  0.3440E-01  0.5787E+00
     18.309  0.2996E-01  0.5816E+00
     18.406  0.3570E-01  0.5851E+00
     18.502  0.2548E-01  0.5875E+00
     18.599  0.3743E-01  0.5912E+00
     18.696  0.3889E-01  0.5949E+00
     18.793  0.3230E-01  0.5980E+00
     18.889  0.2443E-01  0.6004E+00
     18.986  0.2917E-01  0.6032E+00
     19.083  0.3890E-01  0.6070E+00
     19.180  0.3533E-01  0.6104E+00
     19.276  0.3283E-01  0.6136E+00
     19.373  0.2712E-01  0.6162E+00
     19.470  0.2681E-01  0.6188E+00
     19.567  0.2601E-01  0.6213E+00
     19.663  0.2575E-01  0.6238E+00
     19.760  0.3732E-01  0.6274E+00
     19.857  0.3075E-01  0.6304E+00
     19.954  0.3262E-01  0.6336E+00
     20.050  0.3516E-01  0.6370E+00
     20.147  0.3392E-01  0.6402E+00
     20.244  0.3377E-01  0.6435E+00
     20.341  0.2521E-01  0.6459E+00
     20.437  0.2029E-01  0.6479E+00
     20.534  0.2190E-01  0.6500E+00
     20.631  0.1553E-01  0.6515E+00
     20.728  0.3166E-01  0.6546E+00
     20.824  0.2764E-01  0.6573E+00
     20.921  0.1599E-01  0.6588E+00
     21.018  0.8962E-02  0.6597E+00
     21.115  0.2384E-02  0.6599E+00
     21.211  0.9133E-03  0.6600E+00
     21.308  0.4394E-04  0.6600E+00
     21.405  0.4063E-08  0.6600E+00
     21.502  0.2925E-15  0.6600E+00
     21.598  0.0000E+00  0.6600E+00
     21.695  0.0000E+00  0.6600E+00
     21.792  0.0000E+00  0.6600E+00
     21.889  0.0000E+00  0.6600E+00
     21.985  0.0000E+00  0.6600E+00
     22.082  0.0000E+00  0.6600E+00
     22.179  0.0000E+00  0.6600E+00
     22.276  0.0000E+00  0.6600E+00
     22.372  0.0000E+00  0.6600E+00
     22.469  0.0000E+00  0.6600E+00
