Al4C3 Pnma (POSCAR.IV, symmetrized via s
   1.00000000000000     
     8.1462244857049466    0.0000000000000000    0.0000000000000000
     0.0000000000000000    2.8102994073218306    0.0000000000000000
     0.0000000000000000    0.0000000000000000    9.6835669620284399
   Al   C 
    16    12
Direct
  0.2618427340166958  0.2500000000000000  0.2974175868138314
  0.2381572659833040  0.7500000000000000  0.7974175868138311
  0.7381572659833037  0.7500000000000000  0.7025824131861689
  0.7618427340166963  0.2500000000000000  0.2025824131861687
  0.3447878295492002  0.2500000000000000  0.0108766421959646
  0.1552121704507997  0.7500000000000000  0.5108766421959644
  0.6552121704507997  0.7500000000000000  0.9891233578040356
  0.8447878295492003  0.2500000000000000  0.4891233578040353
  0.5227289818320431  0.2500000000000000  0.7938150171297141
  0.9772710181679569  0.7500000000000000  0.2938150171297141
  0.4772710181679569  0.7500000000000000  0.2061849828702859
  0.0227289818320431  0.2500000000000000  0.7061849828702859
  0.0670976169898395  0.2500000000000000  0.0904358270531316
  0.4329023830101676  0.7500000000000000  0.5904358270531316
  0.9329023830101605  0.7500000000000000  0.9095641729468684
  0.5670976169898395  0.2500000000000000  0.4095641729468684
  0.2611810913337617  0.2500000000000000  0.6423824493025583
  0.2388189086662384  0.7500000000000000  0.1423824493025583
  0.7388189086662384  0.7500000000000000  0.3576175506974416
  0.7611810913337616  0.2500000000000000  0.8576175506974417
  0.6067336063988025  0.2500000000000000  0.6071580649956279
  0.8932663936011975  0.7500000000000000  0.1071580649956279
  0.3932663936011974  0.7500000000000000  0.3928419350043721
  0.1067336063988026  0.2500000000000000  0.8928419350043721
  0.0630673589785858  0.2500000000000000  0.3898705479237143
  0.4369326410214142  0.7500000000000000  0.8898705479237145
  0.9369326410214144  0.7500000000000000  0.6101294520762855
  0.5630673589785856  0.2500000000000000  0.1101294520762856
 
  0.00000000E+00  0.00000000E+00  0.00000000E+00
  0.00000000E+00  0.00000000E+00  0.00000000E+00
  0.00000000E+00  0.00000000E+00  0.00000000E+00
  0.00000000E+00  0.00000000E+00  0.00000000E+00
  0.00000000E+00  0.00000000E+00  0.00000000E+00
  0.00000000E+00  0.00000000E+00  0.00000000E+00
  0.00000000E+00  0.00000000E+00  0.00000000E+00
  0.00000000E+00  0.00000000E+00  0.00000000E+00
  0.00000000E+00  0.00000000E+00  0.00000000E+00
  0.00000000E+00  0.00000000E+00  0.00000000E+00
  0.00000000E+00  0.00000000E+00  0.00000000E+00
  0.00000000E+00  0.00000000E+00  0.00000000E+00
  0.00000000E+00  0.00000000E+00  0.00000000E+00
  0.00000000E+00  0.00000000E+00  0.00000000E+00
  0.00000000E+00  0.00000000E+00  0.00000000E+00
  0.00000000E+00  0.00000000E+00  0.00000000E+00
  0.00000000E+00  0.00000000E+00  0.00000000E+00
  0.00000000E+00  0.00000000E+00  0.00000000E+00
  0.00000000E+00  0.00000000E+00  0.00000000E+00
  0.00000000E+00  0.00000000E+00  0.00000000E+00
  0.00000000E+00  0.00000000E+00  0.00000000E+00
  0.00000000E+00  0.00000000E+00  0.00000000E+00
  0.00000000E+00  0.00000000E+00  0.00000000E+00
  0.00000000E+00  0.00000000E+00  0.00000000E+00
  0.00000000E+00  0.00000000E+00  0.00000000E+00
  0.00000000E+00  0.00000000E+00  0.00000000E+00
  0.00000000E+00  0.00000000E+00  0.00000000E+00
  0.00000000E+00  0.00000000E+00  0.00000000E+00
