Al4C3 Pnma - r2SCAN H(P) scan @ 70 GPa (
           1
     8.146224    0.000000    0.000000
     0.000000    2.810299    0.000000
     0.000000    0.000000    9.683567
   Al   C 
    16    12
Direct configuration=     1
   0.26184273  0.25000000  0.29741759
   0.23815727  0.75000000  0.79741759
   0.73815727  0.75000000  0.70258241
   0.76184273  0.25000000  0.20258241
   0.34478783  0.25000000  0.01087664
   0.15521217  0.75000000  0.51087664
   0.65521217  0.75000000  0.98912336
   0.84478783  0.25000000  0.48912336
   0.52272898  0.25000000  0.79381502
   0.97727102  0.75000000  0.29381502
   0.47727102  0.75000000  0.20618498
   0.02272898  0.25000000  0.70618498
   0.06709762  0.25000000  0.09043583
   0.43290238  0.75000000  0.59043583
   0.93290238  0.75000000  0.90956417
   0.56709762  0.25000000  0.40956417
   0.26118109  0.25000000  0.64238245
   0.23881891  0.75000000  0.14238245
   0.73881891  0.75000000  0.35761755
   0.76118109  0.25000000  0.85761755
   0.60673361  0.25000000  0.60715806
   0.89326639  0.75000000  0.10715806
   0.39326639  0.75000000  0.39284194
   0.10673361  0.25000000  0.89284194
   0.06306736  0.25000000  0.38987055
   0.43693264  0.75000000  0.88987055
   0.93693264  0.75000000  0.61012945
   0.56306736  0.25000000  0.11012945
Al4C3 Pnma - r2SCAN H(P) scan @ 70 GPa (
           1
     8.064718    0.000000    0.000000
     0.000000    2.782181    0.000000
     0.000000    0.000000    9.586679
   Al   C 
    16    12
Direct configuration=     2
   0.26194322  0.25000000  0.29734515
   0.23805678  0.75000000  0.79734515
   0.73805678  0.75000000  0.70265485
   0.76194322  0.25000000  0.20265485
   0.34502003  0.25000000  0.01094309
   0.15497997  0.75000000  0.51094309
   0.65497997  0.75000000  0.98905691
   0.84502003  0.25000000  0.48905691
   0.52284112  0.25000000  0.79402949
   0.97715888  0.75000000  0.29402949
   0.47715888  0.75000000  0.20597051
   0.02284112  0.25000000  0.70597051
   0.06715362  0.25000000  0.09051443
   0.43284638  0.75000000  0.59051443
   0.93284638  0.75000000  0.90948557
   0.56715362  0.25000000  0.40948557
   0.26070038  0.25000000  0.64262454
   0.23929962  0.75000000  0.14262454
   0.73929962  0.75000000  0.35737546
   0.76070038  0.25000000  0.85737546
   0.60618211  0.25000000  0.60739639
   0.89381789  0.75000000  0.10739639
   0.39381789  0.75000000  0.39260361
   0.10618211  0.25000000  0.89260361
   0.06317803  0.25000000  0.38902247
   0.43682197  0.75000000  0.88902247
   0.93682197  0.75000000  0.61097753
   0.56317803  0.25000000  0.11097753
Al4C3 Pnma - r2SCAN H(P) scan @ 70 GPa (
           1
     8.120304    0.000000    0.000000
     0.000000    2.801357    0.000000
     0.000000    0.000000    9.652755
   Al   C 
    16    12
Direct configuration=     3
   0.26187400  0.25000000  0.29739505
   0.23812600  0.75000000  0.79739505
   0.73812600  0.75000000  0.70260495
   0.76187400  0.25000000  0.20260495
   0.34486007  0.25000000  0.01089732
   0.15513993  0.75000000  0.51089732
   0.65513993  0.75000000  0.98910268
   0.84486007  0.25000000  0.48910268
   0.52276387  0.25000000  0.79388175
   0.97723613  0.75000000  0.29388175
   0.47723613  0.75000000  0.20611825
   0.02276387  0.25000000  0.70611825
   0.06711504  0.25000000  0.09046028
   0.43288496  0.75000000  0.59046028
   0.93288496  0.75000000  0.90953972
   0.56711504  0.25000000  0.40953972
   0.26103153  0.25000000  0.64245777
   0.23896847  0.75000000  0.14245777
   0.73896847  0.75000000  0.35754223
   0.76103153  0.25000000  0.85754223
   0.60656202  0.25000000  0.60723221
   0.89343798  0.75000000  0.10723221
   0.39343798  0.75000000  0.39276779
   0.10656202  0.25000000  0.89276779
   0.06310179  0.25000000  0.38960669
   0.43689821  0.75000000  0.88960669
   0.93689821  0.75000000  0.61039331
   0.56310179  0.25000000  0.11039331
Al4C3 Pnma - r2SCAN H(P) scan @ 70 GPa (
           1
     8.120056    0.000000    0.000000
     0.000000    2.801272    0.000000
     0.000000    0.000000    9.652460
   Al   C 
    16    12
Direct configuration=     4
   0.26187430  0.25000000  0.29739483
   0.23812570  0.75000000  0.79739483
   0.73812570  0.75000000  0.70260517
   0.76187430  0.25000000  0.20260517
   0.34486078  0.25000000  0.01089752
   0.15513922  0.75000000  0.51089752
   0.65513922  0.75000000  0.98910248
   0.84486078  0.25000000  0.48910248
   0.52276421  0.25000000  0.79388240
   0.97723579  0.75000000  0.29388240
   0.47723579  0.75000000  0.20611760
   0.02276421  0.25000000  0.70611760
   0.06711521  0.25000000  0.09046052
   0.43288479  0.75000000  0.59046052
   0.93288479  0.75000000  0.90953948
   0.56711521  0.25000000  0.40953948
   0.26103006  0.25000000  0.64245851
   0.23896994  0.75000000  0.14245851
   0.73896994  0.75000000  0.35754149
   0.76103006  0.25000000  0.85754149
   0.60656034  0.25000000  0.60723294
   0.89343966  0.75000000  0.10723294
   0.39343966  0.75000000  0.39276706
   0.10656034  0.25000000  0.89276706
   0.06310213  0.25000000  0.38960410
   0.43689787  0.75000000  0.88960410
   0.93689787  0.75000000  0.61039590
   0.56310213  0.25000000  0.11039590
Al4C3 Pnma - r2SCAN H(P) scan @ 70 GPa (
           1
     8.120521    0.000000    0.000000
     0.000000    2.801432    0.000000
     0.000000    0.000000    9.653013
   Al   C 
    16    12
Direct configuration=     5
   0.26218411  0.25000000  0.29727159
   0.23781589  0.75000000  0.79727159
   0.73781589  0.75000000  0.70272841
   0.76218411  0.25000000  0.20272841
   0.34488730  0.25000000  0.01091963
   0.15511270  0.75000000  0.51091963
   0.65511270  0.75000000  0.98908037
   0.84488730  0.25000000  0.48908037
   0.52288394  0.25000000  0.79378793
   0.97711606  0.75000000  0.29378793
   0.47711606  0.75000000  0.20621207
   0.02288394  0.25000000  0.70621207
   0.06718799  0.25000000  0.09061863
   0.43281201  0.75000000  0.59061863
   0.93281201  0.75000000  0.90938137
   0.56718799  0.25000000  0.40938137
   0.26077270  0.25000000  0.64252056
   0.23922730  0.75000000  0.14252056
   0.73922730  0.75000000  0.35747944
   0.76077270  0.25000000  0.85747944
   0.60633558  0.25000000  0.60725205
   0.89366442  0.75000000  0.10725205
   0.39366442  0.75000000  0.39274795
   0.10633558  0.25000000  0.89274795
   0.06318564  0.25000000  0.38935471
   0.43681436  0.75000000  0.88935471
   0.93681436  0.75000000  0.61064529
   0.56318564  0.25000000  0.11064529
Al4C3 Pnma - r2SCAN H(P) scan @ 70 GPa (
           1
     8.120578    0.000000    0.000000
     0.000000    2.801452    0.000000
     0.000000    0.000000    9.653080
   Al   C 
    16    12
Direct configuration=     6
   0.26222169  0.25000000  0.29725664
   0.23777831  0.75000000  0.79725664
   0.73777831  0.75000000  0.70274336
   0.76222169  0.25000000  0.20274336
   0.34489051  0.25000000  0.01092231
   0.15510949  0.75000000  0.51092231
   0.65510949  0.75000000  0.98907769
   0.84489051  0.25000000  0.48907769
   0.52289847  0.25000000  0.79377647
   0.97710153  0.75000000  0.29377647
   0.47710153  0.75000000  0.20622353
   0.02289847  0.25000000  0.70622353
   0.06719682  0.25000000  0.09063781
   0.43280318  0.75000000  0.59063781
   0.93280318  0.75000000  0.90936219
   0.56719682  0.25000000  0.40936219
   0.26074148  0.25000000  0.64252808
   0.23925852  0.75000000  0.14252808
   0.73925852  0.75000000  0.35747192
   0.76074148  0.25000000  0.85747192
   0.60630831  0.25000000  0.60725437
   0.89369169  0.75000000  0.10725437
   0.39369169  0.75000000  0.39274563
   0.10630831  0.25000000  0.89274563
   0.06319577  0.25000000  0.38932446
   0.43680423  0.75000000  0.88932446
   0.93680423  0.75000000  0.61067554
   0.56319577  0.25000000  0.11067554
Al4C3 Pnma - r2SCAN H(P) scan @ 70 GPa (
           1
     8.121329    0.000000    0.000000
     0.000000    2.801711    0.000000
     0.000000    0.000000    9.653973
   Al   C 
    16    12
Direct configuration=     7
   0.26235152  0.25000000  0.29729587
   0.23764848  0.75000000  0.79729587
   0.73764848  0.75000000  0.70270413
   0.76235152  0.25000000  0.20270413
   0.34504335  0.25000000  0.01081577
   0.15495665  0.75000000  0.51081577
   0.65495665  0.75000000  0.98918423
   0.84504335  0.25000000  0.48918423
   0.52277807  0.25000000  0.79385774
   0.97722193  0.75000000  0.29385774
   0.47722193  0.75000000  0.20614226
   0.02277807  0.25000000  0.70614226
   0.06734957  0.25000000  0.09066410
   0.43265043  0.75000000  0.59066410
   0.93265043  0.75000000  0.90933590
   0.56734957  0.25000000  0.40933590
   0.26048937  0.25000000  0.64247120
   0.23951063  0.75000000  0.14247120
   0.73951063  0.75000000  0.35752880
   0.76048937  0.25000000  0.85752880
   0.60611839  0.25000000  0.60713252
   0.89388161  0.75000000  0.10713252
   0.39388161  0.75000000  0.39286748
   0.10611839  0.25000000  0.89286748
   0.06339486  0.25000000  0.38911590
   0.43660514  0.75000000  0.88911590
   0.93660514  0.75000000  0.61088410
   0.56339486  0.25000000  0.11088410
Al4C3 Pnma - r2SCAN H(P) scan @ 70 GPa (
           1
     8.121236    0.000000    0.000000
     0.000000    2.801679    0.000000
     0.000000    0.000000    9.653863
   Al   C 
    16    12
Direct configuration=     8
   0.26233558  0.25000000  0.29729105
   0.23766442  0.75000000  0.79729105
   0.73766442  0.75000000  0.70270895
   0.76233558  0.25000000  0.20270895
   0.34502459  0.25000000  0.01082885
   0.15497541  0.75000000  0.51082885
   0.65497541  0.75000000  0.98917115
   0.84502459  0.25000000  0.48917115
   0.52279285  0.25000000  0.79384776
   0.97720715  0.75000000  0.29384776
   0.47720715  0.75000000  0.20615224
   0.02279285  0.25000000  0.70615224
   0.06733082  0.25000000  0.09066087
   0.43266918  0.75000000  0.59066087
   0.93266918  0.75000000  0.90933913
   0.56733082  0.25000000  0.40933913
   0.26052031  0.25000000  0.64247818
   0.23947969  0.75000000  0.14247818
   0.73947969  0.75000000  0.35752182
   0.76052031  0.25000000  0.85752182
   0.60614170  0.25000000  0.60714748
   0.89385830  0.75000000  0.10714748
   0.39385830  0.75000000  0.39285252
   0.10614170  0.25000000  0.89285252
   0.06337042  0.25000000  0.38914150
   0.43662958  0.75000000  0.88914150
   0.93662958  0.75000000  0.61085850
   0.56337042  0.25000000  0.11085850
Al4C3 Pnma - r2SCAN H(P) scan @ 70 GPa (
           1
     8.121134    0.000000    0.000000
     0.000000    2.801644    0.000000
     0.000000    0.000000    9.653742
   Al   C 
    16    12
Direct configuration=     9
   0.26259560  0.25000000  0.29736798
   0.23740440  0.75000000  0.79736798
   0.73740440  0.75000000  0.70263202
   0.76259560  0.25000000  0.20263202
   0.34515456  0.25000000  0.01075052
   0.15484544  0.75000000  0.51075052
   0.65484544  0.75000000  0.98924948
   0.84515456  0.25000000  0.48924948
   0.52271454  0.25000000  0.79380706
   0.97728546  0.75000000  0.29380706
   0.47728546  0.75000000  0.20619294
   0.02271454  0.25000000  0.70619294
   0.06751655  0.25000000  0.09059055
   0.43248345  0.75000000  0.59059055
   0.93248345  0.75000000  0.90940945
   0.56751655  0.25000000  0.40940945
   0.26027113  0.25000000  0.64237897
   0.23972887  0.75000000  0.14237897
   0.73972887  0.75000000  0.35762103
   0.76027113  0.25000000  0.85762103
   0.60602417  0.25000000  0.60715623
   0.89397583  0.75000000  0.10715623
   0.39397583  0.75000000  0.39284377
   0.10602417  0.25000000  0.89284377
   0.06352933  0.25000000  0.38917350
   0.43647067  0.75000000  0.88917350
   0.93647067  0.75000000  0.61082650
   0.56352933  0.25000000  0.11082650
Al4C3 Pnma - r2SCAN H(P) scan @ 70 GPa (
           1
     8.121119    0.000000    0.000000
     0.000000    2.801639    0.000000
     0.000000    0.000000    9.653724
   Al   C 
    16    12
Direct configuration=    10
   0.26263318  0.25000000  0.29737910
   0.23736682  0.75000000  0.79737910
   0.73736682  0.75000000  0.70262090
   0.76263318  0.25000000  0.20262090
   0.34517334  0.25000000  0.01073921
   0.15482666  0.75000000  0.51073921
   0.65482666  0.75000000  0.98926079
   0.84517334  0.25000000  0.48926079
   0.52270322  0.25000000  0.79380118
   0.97729678  0.75000000  0.29380118
   0.47729678  0.75000000  0.20619882
   0.02270322  0.25000000  0.70619882
   0.06754338  0.25000000  0.09058038
   0.43245662  0.75000000  0.59058038
   0.93245662  0.75000000  0.90941962
   0.56754338  0.25000000  0.40941962
   0.26023512  0.25000000  0.64236464
   0.23976488  0.75000000  0.14236464
   0.73976488  0.75000000  0.35763536
   0.76023512  0.25000000  0.85763536
   0.60600718  0.25000000  0.60715749
   0.89399282  0.75000000  0.10715749
   0.39399282  0.75000000  0.39284251
   0.10600718  0.25000000  0.89284251
   0.06355229  0.25000000  0.38917812
   0.43644771  0.75000000  0.88917812
   0.93644771  0.75000000  0.61082188
   0.56355229  0.25000000  0.11082188
Al4C3 Pnma - r2SCAN H(P) scan @ 70 GPa (
           1
     8.121308    0.000000    0.000000
     0.000000    2.801704    0.000000
     0.000000    0.000000    9.653948
   Al   C 
    16    12
Direct configuration=    11
   0.26270642  0.25000000  0.29738975
   0.23729358  0.75000000  0.79738975
   0.73729358  0.75000000  0.70261025
   0.76270642  0.25000000  0.20261025
   0.34522874  0.25000000  0.01082238
   0.15477126  0.75000000  0.51082238
   0.65477126  0.75000000  0.98917762
   0.84522874  0.25000000  0.48917762
   0.52255355  0.25000000  0.79378517
   0.97744645  0.75000000  0.29378517
   0.47744645  0.75000000  0.20621483
   0.02255355  0.25000000  0.70621483
   0.06770839  0.25000000  0.09055352
   0.43229161  0.75000000  0.59055352
   0.93229161  0.75000000  0.90944648
   0.56770839  0.25000000  0.40944648
   0.26017800  0.25000000  0.64234303
   0.23982200  0.75000000  0.14234303
   0.73982200  0.75000000  0.35765697
   0.76017800  0.25000000  0.85765697
   0.60591163  0.25000000  0.60725261
   0.89408837  0.75000000  0.10725261
   0.39408837  0.75000000  0.39274739
   0.10591163  0.25000000  0.89274739
   0.06358301  0.25000000  0.38919872
   0.43641699  0.75000000  0.88919872
   0.93641699  0.75000000  0.61080128
   0.56358301  0.25000000  0.11080128
Al4C3 Pnma - r2SCAN H(P) scan @ 70 GPa (
           1
     8.121417    0.000000    0.000000
     0.000000    2.801741    0.000000
     0.000000    0.000000    9.654078
   Al   C 
    16    12
Direct configuration=    12
   0.26274877  0.25000000  0.29739591
   0.23725123  0.75000000  0.79739591
   0.73725123  0.75000000  0.70260409
   0.76274877  0.25000000  0.20260409
   0.34526078  0.25000000  0.01087047
   0.15473922  0.75000000  0.51087047
   0.65473922  0.75000000  0.98912953
   0.84526078  0.25000000  0.48912953
   0.52246701  0.25000000  0.79377591
   0.97753299  0.75000000  0.29377591
   0.47753299  0.75000000  0.20622409
   0.02246701  0.25000000  0.70622409
   0.06780380  0.25000000  0.09053798
   0.43219620  0.75000000  0.59053798
   0.93219620  0.75000000  0.90946202
   0.56780380  0.25000000  0.40946202
   0.26014497  0.25000000  0.64233053
   0.23985503  0.75000000  0.14233053
   0.73985503  0.75000000  0.35766947
   0.76014497  0.25000000  0.85766947
   0.60585638  0.25000000  0.60730761
   0.89414362  0.75000000  0.10730761
   0.39414362  0.75000000  0.39269239
   0.10585638  0.25000000  0.89269239
   0.06360077  0.25000000  0.38921063
   0.43639923  0.75000000  0.88921063
   0.93639923  0.75000000  0.61078937
   0.56360077  0.25000000  0.11078937
Al4C3 Pnma - r2SCAN H(P) scan @ 70 GPa (
           1
     8.121376    0.000000    0.000000
     0.000000    2.801727    0.000000
     0.000000    0.000000    9.654029
   Al   C 
    16    12
Direct configuration=    13
   0.26279629  0.25000000  0.29742831
   0.23720371  0.75000000  0.79742831
   0.73720371  0.75000000  0.70257169
   0.76279629  0.25000000  0.20257169
   0.34536875  0.25000000  0.01095848
   0.15463125  0.75000000  0.51095848
   0.65463125  0.75000000  0.98904152
   0.84536875  0.25000000  0.48904152
   0.52226473  0.25000000  0.79374205
   0.97773527  0.75000000  0.29374205
   0.47773527  0.75000000  0.20625795
   0.02226473  0.25000000  0.70625795
   0.06782421  0.25000000  0.09045350
   0.43217579  0.75000000  0.59045350
   0.93217579  0.75000000  0.90954650
   0.56782421  0.25000000  0.40954650
   0.26012254  0.25000000  0.64235639
   0.23987746  0.75000000  0.14235639
   0.73987746  0.75000000  0.35764361
   0.76012254  0.25000000  0.85764361
   0.60569832  0.25000000  0.60733024
   0.89430168  0.75000000  0.10733024
   0.39430168  0.75000000  0.39266976
   0.10569832  0.25000000  0.89266976
   0.06371201  0.25000000  0.38923048
   0.43628799  0.75000000  0.88923048
   0.93628799  0.75000000  0.61076952
   0.56371201  0.25000000  0.11076952
Al4C3 Pnma - r2SCAN H(P) scan @ 70 GPa (
           1
     8.121367    0.000000    0.000000
     0.000000    2.801724    0.000000
     0.000000    0.000000    9.654019
   Al   C 
    16    12
Direct configuration=    14
   0.26280593  0.25000000  0.29743488
   0.23719407  0.75000000  0.79743488
   0.73719407  0.75000000  0.70256512
   0.76280593  0.25000000  0.20256512
   0.34539065  0.25000000  0.01097633
   0.15460935  0.75000000  0.51097633
   0.65460935  0.75000000  0.98902367
   0.84539065  0.25000000  0.48902367
   0.52222370  0.25000000  0.79373518
   0.97777630  0.75000000  0.29373518
   0.47777630  0.75000000  0.20626482
   0.02222370  0.25000000  0.70626482
   0.06782835  0.25000000  0.09043636
   0.43217165  0.75000000  0.59043636
   0.93217165  0.75000000  0.90956364
   0.56782835  0.25000000  0.40956364
   0.26011799  0.25000000  0.64236163
   0.23988201  0.75000000  0.14236163
   0.73988201  0.75000000  0.35763837
   0.76011799  0.25000000  0.85763837
   0.60566626  0.25000000  0.60733483
   0.89433374  0.75000000  0.10733483
   0.39433374  0.75000000  0.39266517
   0.10566626  0.25000000  0.89266517
   0.06373457  0.25000000  0.38923451
   0.43626543  0.75000000  0.88923451
   0.93626543  0.75000000  0.61076549
   0.56373457  0.25000000  0.11076549
Al4C3 Pnma - r2SCAN H(P) scan @ 70 GPa (
           1
     8.121763    0.000000    0.000000
     0.000000    2.801861    0.000000
     0.000000    0.000000    9.654489
   Al   C 
    16    12
Direct configuration=    15
   0.26294675  0.25000000  0.29743693
   0.23705325  0.75000000  0.79743693
   0.73705325  0.75000000  0.70256307
   0.76294675  0.25000000  0.20256307
   0.34543253  0.25000000  0.01104959
   0.15456747  0.75000000  0.51104959
   0.65456747  0.75000000  0.98895041
   0.84543253  0.25000000  0.48895041
   0.52211566  0.25000000  0.79365642
   0.97788434  0.75000000  0.29365642
   0.47788434  0.75000000  0.20634358
   0.02211566  0.25000000  0.70634358
   0.06781170  0.25000000  0.09040259
   0.43218830  0.75000000  0.59040259
   0.93218830  0.75000000  0.90959741
   0.56781170  0.25000000  0.40959741
   0.26007127  0.25000000  0.64242636
   0.23992873  0.75000000  0.14242636
   0.73992873  0.75000000  0.35757364
   0.76007127  0.25000000  0.85757364
   0.60563092  0.25000000  0.60731892
   0.89436908  0.75000000  0.10731892
   0.39436908  0.75000000  0.39268108
   0.10563092  0.25000000  0.89268108
   0.06381128  0.25000000  0.38928825
   0.43618872  0.75000000  0.88928825
   0.93618872  0.75000000  0.61071175
   0.56381128  0.25000000  0.11071175
Al4C3 Pnma - r2SCAN H(P) scan @ 70 GPa (
           1
     8.121608    0.000000    0.000000
     0.000000    2.801807    0.000000
     0.000000    0.000000    9.654304
   Al   C 
    16    12
Direct configuration=    16
   0.26289145  0.25000000  0.29743613
   0.23710855  0.75000000  0.79743613
   0.73710855  0.75000000  0.70256387
   0.76289145  0.25000000  0.20256387
   0.34541608  0.25000000  0.01102082
   0.15458392  0.75000000  0.51102082
   0.65458392  0.75000000  0.98897918
   0.84541608  0.25000000  0.48897918
   0.52215809  0.25000000  0.79368735
   0.97784191  0.75000000  0.29368735
   0.47784191  0.75000000  0.20631265
   0.02215809  0.25000000  0.70631265
   0.06781824  0.25000000  0.09041585
   0.43218176  0.75000000  0.59041585
   0.93218176  0.75000000  0.90958415
   0.56781824  0.25000000  0.40958415
   0.26008962  0.25000000  0.64240094
   0.23991038  0.75000000  0.14240094
   0.73991038  0.75000000  0.35759906
   0.76008962  0.25000000  0.85759906
   0.60564479  0.25000000  0.60732517
   0.89435521  0.75000000  0.10732517
   0.39435521  0.75000000  0.39267483
   0.10564479  0.25000000  0.89267483
   0.06378116  0.25000000  0.38926715
   0.43621884  0.75000000  0.88926715
   0.93621884  0.75000000  0.61073285
   0.56378116  0.25000000  0.11073285
Al4C3 Pnma - r2SCAN H(P) scan @ 70 GPa (
           1
     8.121324    0.000000    0.000000
     0.000000    2.801709    0.000000
     0.000000    0.000000    9.653968
   Al   C 
    16    12
Direct configuration=    17
   0.26295271  0.25000000  0.29744273
   0.23704729  0.75000000  0.79744273
   0.73704729  0.75000000  0.70255727
   0.76295271  0.25000000  0.20255727
   0.34541874  0.25000000  0.01105707
   0.15458126  0.75000000  0.51105707
   0.65458126  0.75000000  0.98894293
   0.84541874  0.25000000  0.48894293
   0.52205983  0.25000000  0.79367533
   0.97794017  0.75000000  0.29367533
   0.47794017  0.75000000  0.20632467
   0.02205983  0.25000000  0.70632467
   0.06784638  0.25000000  0.09044370
   0.43215362  0.75000000  0.59044370
   0.93215362  0.75000000  0.90955630
   0.56784638  0.25000000  0.40955630
   0.26005311  0.25000000  0.64245309
   0.23994689  0.75000000  0.14245309
   0.73994689  0.75000000  0.35754691
   0.76005311  0.25000000  0.85754691
   0.60567616  0.25000000  0.60728016
   0.89432384  0.75000000  0.10728016
   0.39432384  0.75000000  0.39271984
   0.10567616  0.25000000  0.89271984
   0.06381667  0.25000000  0.38926131
   0.43618333  0.75000000  0.88926131
   0.93618333  0.75000000  0.61073869
   0.56381667  0.25000000  0.11073869
