  21  21   0   0
  0.8943916E+01  0.3072668E-09  0.3072668E-09  0.2297128E-08  0.5000000E-15
  1.000000000000000E-004
  CAR 
 Al4C3 R-3m - r2SCAN H(P) scan @ 70 GPa (
     19.57989705     -7.48345775  301     10.38399461      1.00000000
     -7.483  0.0000E+00  0.0000E+00
     -7.393  0.0000E+00  0.0000E+00
     -7.303  0.0000E+00  0.0000E+00
     -7.213  0.0000E+00  0.0000E+00
     -7.123  0.0000E+00  0.0000E+00
     -7.032  0.0000E+00  0.0000E+00
     -6.942  0.0000E+00  0.0000E+00
     -6.852  0.0000E+00  0.0000E+00
     -6.762  0.0000E+00  0.0000E+00
     -6.672  0.0000E+00  0.0000E+00
     -6.581  0.0000E+00  0.0000E+00
     -6.491  0.3340E-14  0.3013E-15
     -6.401  0.5790E-08  0.5224E-09
     -6.311  0.2287E-04  0.2064E-05
     -6.221  0.6505E-03  0.6075E-04
     -6.130  0.2493E-02  0.2857E-03
     -6.040  0.6196E-02  0.8446E-03
     -5.950  0.5150E-02  0.1309E-02
     -5.860  0.4587E-02  0.1723E-02
     -5.769  0.6400E-02  0.2300E-02
     -5.679  0.1023E-01  0.3223E-02
     -5.589  0.5944E-02  0.3759E-02
     -5.499  0.2163E-02  0.3955E-02
     -5.409  0.1748E-02  0.4112E-02
     -5.318  0.1093E-01  0.5098E-02
     -5.228  0.1038E-01  0.6035E-02
     -5.138  0.7137E-02  0.6678E-02
     -5.048  0.6152E-02  0.7233E-02
     -4.958  0.7296E-02  0.7892E-02
     -4.867  0.3401E-02  0.8198E-02
     -4.777  0.6259E-02  0.8763E-02
     -4.687  0.1110E-01  0.9765E-02
     -4.597  0.2312E-01  0.1185E-01
     -4.506  0.1819E-01  0.1349E-01
     -4.416  0.6171E-02  0.1405E-01
     -4.326  0.8415E-02  0.1481E-01
     -4.236  0.1321E-01  0.1600E-01
     -4.146  0.1522E-01  0.1737E-01
     -4.055  0.7276E-02  0.1803E-01
     -3.965  0.1330E-01  0.1923E-01
     -3.875  0.2175E-01  0.2119E-01
     -3.785  0.1669E-01  0.2270E-01
     -3.695  0.1988E-01  0.2449E-01
     -3.604  0.1627E-01  0.2596E-01
     -3.514  0.8786E-02  0.2675E-01
     -3.424  0.1040E-01  0.2769E-01
     -3.334  0.1152E-01  0.2873E-01
     -3.244  0.1343E-01  0.2994E-01
     -3.153  0.2121E-01  0.3185E-01
     -3.063  0.2593E-01  0.3419E-01
     -2.973  0.2551E-01  0.3649E-01
     -2.883  0.3001E-01  0.3920E-01
     -2.792  0.1452E-01  0.4051E-01
     -2.702  0.1635E-01  0.4198E-01
     -2.612  0.2000E-01  0.4379E-01
     -2.522  0.2592E-01  0.4613E-01
     -2.432  0.3244E-01  0.4905E-01
     -2.341  0.1330E-01  0.5025E-01
     -2.251  0.1538E-01  0.5164E-01
     -2.161  0.2505E-01  0.5390E-01
     -2.071  0.3236E-01  0.5682E-01
     -1.981  0.2684E-01  0.5924E-01
     -1.890  0.2235E-01  0.6126E-01
     -1.800  0.1691E-01  0.6278E-01
     -1.710  0.1607E-01  0.6423E-01
     -1.620  0.2931E-01  0.6687E-01
     -1.530  0.2263E-01  0.6892E-01
     -1.439  0.9497E-02  0.6977E-01
     -1.349  0.1607E-01  0.7122E-01
     -1.259  0.2435E-01  0.7342E-01
     -1.169  0.4312E-01  0.7731E-01
     -1.078  0.4057E-01  0.8097E-01
     -0.988  0.6754E-01  0.8706E-01
     -0.898  0.2774E-01  0.8956E-01
     -0.808  0.4735E-02  0.8999E-01
     -0.718  0.9406E-04  0.9000E-01
     -0.627  0.1609E-07  0.9000E-01
     -0.537  0.6086E-14  0.9000E-01
     -0.447  0.0000E+00  0.9000E-01
     -0.357  0.0000E+00  0.9000E-01
     -0.267  0.0000E+00  0.9000E-01
     -0.176  0.0000E+00  0.9000E-01
     -0.086  0.0000E+00  0.9000E-01
      0.004  0.0000E+00  0.9000E-01
      0.094  0.0000E+00  0.9000E-01
      0.184  0.0000E+00  0.9000E-01
      0.275  0.0000E+00  0.9000E-01
      0.365  0.0000E+00  0.9000E-01
      0.455  0.0000E+00  0.9000E-01
      0.545  0.6410E-19  0.9000E-01
      0.636  0.3669E-11  0.9000E-01
      0.726  0.6534E-06  0.9000E-01
      0.816  0.2838E-03  0.9003E-01
      0.906  0.1789E-02  0.9019E-01
      0.996  0.1467E-02  0.9032E-01
      1.087  0.5974E-02  0.9086E-01
      1.177  0.8304E-02  0.9161E-01
      1.267  0.1115E-01  0.9261E-01
      1.357  0.1155E-01  0.9366E-01
      1.447  0.1159E-01  0.9470E-01
      1.538  0.5405E-02  0.9519E-01
      1.628  0.5957E-02  0.9573E-01
      1.718  0.7877E-02  0.9644E-01
      1.808  0.1989E-01  0.9823E-01
      1.899  0.2758E-01  0.1007E+00
      1.989  0.1190E-01  0.1018E+00
      2.079  0.9481E-02  0.1026E+00
      2.169  0.1271E-01  0.1038E+00
      2.259  0.1750E-01  0.1054E+00
      2.350  0.1813E-01  0.1070E+00
      2.440  0.6399E-02  0.1076E+00
      2.530  0.2146E-02  0.1078E+00
      2.620  0.1087E-01  0.1088E+00
      2.710  0.1153E-01  0.1098E+00
      2.801  0.2051E-01  0.1117E+00
      2.891  0.2682E-01  0.1141E+00
      2.981  0.2025E-01  0.1159E+00
      3.071  0.2234E-01  0.1179E+00
      3.161  0.2849E-01  0.1205E+00
      3.252  0.2860E-01  0.1231E+00
      3.342  0.3400E-01  0.1261E+00
      3.432  0.3226E-01  0.1290E+00
      3.522  0.2559E-01  0.1313E+00
      3.613  0.2661E-01  0.1337E+00
      3.703  0.3733E-01  0.1371E+00
      3.793  0.2932E-01  0.1398E+00
      3.883  0.1876E-01  0.1415E+00
      3.973  0.1489E-01  0.1428E+00
      4.064  0.2763E-01  0.1453E+00
      4.154  0.2672E-01  0.1477E+00
      4.244  0.3772E-01  0.1511E+00
      4.334  0.3790E-01  0.1545E+00
      4.424  0.3687E-01  0.1578E+00
      4.515  0.4145E-01  0.1616E+00
      4.605  0.2802E-01  0.1641E+00
      4.695  0.2658E-01  0.1665E+00
      4.785  0.2107E-01  0.1684E+00
      4.875  0.3873E-01  0.1719E+00
      4.966  0.5120E-01  0.1765E+00
      5.056  0.4046E-01  0.1802E+00
      5.146  0.3647E-01  0.1835E+00
      5.236  0.3370E-01  0.1865E+00
      5.327  0.2108E-01  0.1884E+00
      5.417  0.2830E-01  0.1910E+00
      5.507  0.1564E-01  0.1924E+00
      5.597  0.2342E-01  0.1945E+00
      5.687  0.2353E-01  0.1966E+00
      5.778  0.4065E-01  0.2003E+00
      5.868  0.4455E-01  0.2043E+00
      5.958  0.3012E-01  0.2070E+00
      6.048  0.3526E-01  0.2102E+00
      6.138  0.3877E-01  0.2137E+00
      6.229  0.2679E-01  0.2161E+00
      6.319  0.3049E-01  0.2189E+00
      6.409  0.1944E-01  0.2206E+00
      6.499  0.3450E-01  0.2237E+00
      6.589  0.4394E-01  0.2277E+00
      6.680  0.3982E-01  0.2313E+00
      6.770  0.3973E-01  0.2349E+00
      6.860  0.3423E-01  0.2380E+00
      6.950  0.3108E-01  0.2408E+00
      7.041  0.4228E-01  0.2446E+00
      7.131  0.2921E-01  0.2472E+00
      7.221  0.3622E-01  0.2505E+00
      7.311  0.3227E-01  0.2534E+00
      7.401  0.3229E-01  0.2563E+00
      7.492  0.2579E-01  0.2586E+00
      7.582  0.3322E-01  0.2616E+00
      7.672  0.5340E-01  0.2664E+00
      7.762  0.5650E-01  0.2715E+00
      7.852  0.4623E-01  0.2757E+00
      7.943  0.3362E-01  0.2787E+00
      8.033  0.4306E-01  0.2826E+00
      8.123  0.5782E-01  0.2878E+00
      8.213  0.5432E-01  0.2927E+00
      8.303  0.4635E-01  0.2969E+00
      8.394  0.4053E-01  0.3006E+00
      8.484  0.5610E-01  0.3056E+00
      8.574  0.5095E-01  0.3102E+00
      8.664  0.3287E-01  0.3132E+00
      8.755  0.4682E-01  0.3174E+00
      8.845  0.4890E-01  0.3218E+00
      8.935  0.4135E-01  0.3256E+00
      9.025  0.4580E-01  0.3297E+00
      9.115  0.5195E-01  0.3344E+00
      9.206  0.4671E-01  0.3386E+00
      9.296  0.3791E-01  0.3420E+00
      9.386  0.3310E-01  0.3450E+00
      9.476  0.3398E-01  0.3481E+00
      9.566  0.2237E-01  0.3501E+00
      9.657  0.2851E-01  0.3527E+00
      9.747  0.1904E-01  0.3544E+00
      9.837  0.1763E-01  0.3560E+00
      9.927  0.1668E-01  0.3575E+00
     10.018  0.1081E-01  0.3584E+00
     10.108  0.1427E-01  0.3597E+00
     10.198  0.2983E-02  0.3600E+00
     10.288  0.1012E-04  0.3600E+00
     10.378  0.1414E-09  0.3600E+00
     10.469  0.4701E-17  0.3600E+00
     10.559  0.0000E+00  0.3600E+00
     10.649  0.0000E+00  0.3600E+00
     10.739  0.0000E+00  0.3600E+00
     10.829  0.0000E+00  0.3600E+00
     10.920  0.0000E+00  0.3600E+00
     11.010  0.0000E+00  0.3600E+00
     11.100  0.0000E+00  0.3600E+00
     11.190  0.0000E+00  0.3600E+00
     11.280  0.0000E+00  0.3600E+00
     11.371  0.0000E+00  0.3600E+00
     11.461  0.1175E-13  0.3600E+00
     11.551  0.1903E-07  0.3600E+00
     11.641  0.6324E-04  0.3600E+00
     11.732  0.1018E-02  0.3601E+00
     11.822  0.1985E-02  0.3603E+00
     11.912  0.1411E-02  0.3604E+00
     12.002  0.5690E-02  0.3609E+00
     12.092  0.4582E-02  0.3613E+00
     12.183  0.4752E-02  0.3618E+00
     12.273  0.3566E-02  0.3621E+00
     12.363  0.9105E-02  0.3629E+00
     12.453  0.1106E-01  0.3639E+00
     12.543  0.5200E-02  0.3644E+00
     12.634  0.8146E-03  0.3644E+00
     12.724  0.8827E-02  0.3652E+00
     12.814  0.1731E-01  0.3668E+00
     12.904  0.1503E-01  0.3682E+00
     12.994  0.1540E-01  0.3695E+00
     13.085  0.1715E-01  0.3711E+00
     13.175  0.1966E-01  0.3729E+00
     13.265  0.8674E-02  0.3736E+00
     13.355  0.9358E-02  0.3745E+00
     13.446  0.1068E-01  0.3755E+00
     13.536  0.7066E-02  0.3761E+00
     13.626  0.1785E-01  0.3777E+00
     13.716  0.2639E-01  0.3801E+00
     13.806  0.2535E-01  0.3824E+00
     13.897  0.1097E-01  0.3834E+00
     13.987  0.9085E-02  0.3842E+00
     14.077  0.1532E-01  0.3856E+00
     14.167  0.8685E-02  0.3863E+00
     14.257  0.1450E-01  0.3877E+00
     14.348  0.1617E-01  0.3891E+00
     14.438  0.1769E-01  0.3907E+00
     14.528  0.9969E-02  0.3916E+00
     14.618  0.2140E-01  0.3935E+00
     14.708  0.2755E-01  0.3960E+00
     14.799  0.4805E-01  0.4004E+00
     14.889  0.3034E-01  0.4031E+00
     14.979  0.1553E-01  0.4045E+00
     15.069  0.1529E-01  0.4059E+00
     15.160  0.1267E-01  0.4070E+00
     15.250  0.1520E-01  0.4084E+00
     15.340  0.1284E-01  0.4095E+00
     15.430  0.5643E-02  0.4101E+00
     15.520  0.1937E-01  0.4118E+00
     15.611  0.1551E-01  0.4132E+00
     15.701  0.1186E-01  0.4143E+00
     15.791  0.2958E-01  0.4169E+00
     15.881  0.2484E-01  0.4192E+00
     15.971  0.1360E-01  0.4204E+00
     16.062  0.2281E-01  0.4225E+00
     16.152  0.4425E-01  0.4265E+00
     16.242  0.2549E-01  0.4288E+00
     16.332  0.1446E-01  0.4301E+00
     16.423  0.3302E-01  0.4330E+00
     16.513  0.4511E-01  0.4371E+00
     16.603  0.2944E-01  0.4398E+00
     16.693  0.3898E-01  0.4433E+00
     16.783  0.4493E-01  0.4473E+00
     16.874  0.4337E-01  0.4512E+00
     16.964  0.4892E-01  0.4557E+00
     17.054  0.5347E-01  0.4605E+00
     17.144  0.3800E-01  0.4639E+00
     17.234  0.1996E-01  0.4657E+00
     17.325  0.1831E-01  0.4674E+00
     17.415  0.2080E-01  0.4692E+00
     17.505  0.1920E-01  0.4710E+00
     17.595  0.1957E-01  0.4727E+00
     17.685  0.1956E-01  0.4745E+00
     17.776  0.1291E-01  0.4757E+00
     17.866  0.2139E-01  0.4776E+00
     17.956  0.1356E-01  0.4788E+00
     18.046  0.2480E-02  0.4790E+00
     18.137  0.3785E-02  0.4794E+00
     18.227  0.4404E-02  0.4798E+00
     18.317  0.5195E-03  0.4798E+00
     18.407  0.1781E-02  0.4800E+00
     18.497  0.1206E-03  0.4800E+00
     18.588  0.3437E-07  0.4800E+00
     18.678  0.2002E-13  0.4800E+00
     18.768  0.0000E+00  0.4800E+00
     18.858  0.0000E+00  0.4800E+00
     18.948  0.0000E+00  0.4800E+00
     19.039  0.0000E+00  0.4800E+00
     19.129  0.0000E+00  0.4800E+00
     19.219  0.0000E+00  0.4800E+00
     19.309  0.0000E+00  0.4800E+00
     19.399  0.0000E+00  0.4800E+00
     19.490  0.0000E+00  0.4800E+00
     19.580  0.0000E+00  0.4800E+00
