       N       E                     dE             d eps       ncg     rms          rms(c)
DAV:   1    -0.177709429385E+03   -0.17771E+03   -0.34407E+00  3720   0.106E+01    0.778E+00
DAV:   2    -0.165959283972E+03    0.11750E+02   -0.12102E+00  3816   0.674E+00    0.569E+00
DAV:   3    -0.166255707542E+03   -0.29642E+00   -0.16905E-01  4344   0.223E+00    0.451E+00
DAV:   4    -0.166279907434E+03   -0.24200E-01   -0.11304E-01  4320   0.138E+00    0.967E-01
DAV:   5    -0.166280796426E+03   -0.88899E-03   -0.92404E-03  4188   0.441E-01    0.343E-01
DAV:   6    -0.166280825030E+03   -0.28604E-04   -0.24818E-03  4392   0.195E-01    0.194E-01
DAV:   7    -0.166280874529E+03   -0.49499E-04   -0.20840E-04  4404   0.639E-02    0.937E-02
DAV:   8    -0.166280837300E+03    0.37229E-04   -0.75807E-05  4812   0.414E-02    0.250E-02
DAV:   9    -0.166280829207E+03    0.80936E-05   -0.29812E-05  3180   0.239E-02
   1 F= -.84220273E+02 E0= -.84220273E+02  d E =-.842203E+02
       N       E                     dE             d eps       ncg     rms          rms(c)
DAV:   1    -0.164278127607E+03    0.20027E+01   -0.12048E+00  4380   0.556E+00    0.115E+00
DAV:   2    -0.164260221991E+03    0.17906E-01   -0.79070E-02  4380   0.113E+00    0.602E-01
DAV:   3    -0.164259894323E+03    0.32767E-03   -0.12231E-02  4332   0.394E-01    0.230E-01
DAV:   4    -0.164260125268E+03   -0.23094E-03   -0.31154E-04  4392   0.873E-02    0.922E-02
DAV:   5    -0.164260174696E+03   -0.49428E-04   -0.14150E-04  4284   0.503E-02    0.716E-02
DAV:   6    -0.164260213136E+03   -0.38440E-04   -0.17711E-05  2604   0.255E-02    0.266E-02
DAV:   7    -0.164260233478E+03   -0.20343E-04   -0.75118E-06  2112   0.168E-02    0.611E-03
DAV:   8    -0.164260229822E+03    0.36567E-05   -0.12189E-06  1992   0.529E-03
   2 F= -.84164269E+02 E0= -.84164269E+02  d E =0.560034E-01
       N       E                     dE             d eps       ncg     rms          rms(c)
DAV:   1    -0.165687552649E+03   -0.14273E+01   -0.56378E-01  4368   0.376E+00    0.788E-01
DAV:   2    -0.165679460536E+03    0.80921E-02   -0.37246E-02  4380   0.768E-01    0.412E-01
DAV:   3    -0.165678903807E+03    0.55673E-03   -0.58254E-03  4332   0.270E-01    0.157E-01
DAV:   4    -0.165678973100E+03   -0.69293E-04   -0.14537E-04  4332   0.594E-02    0.635E-02
DAV:   5    -0.165678916107E+03    0.56993E-04   -0.68759E-05  4212   0.349E-02    0.496E-02
DAV:   6    -0.165678887552E+03    0.28555E-04   -0.87095E-06  2292   0.177E-02    0.184E-02
DAV:   7    -0.165678873861E+03    0.13691E-04   -0.36116E-06  2136   0.116E-02    0.420E-03
DAV:   8    -0.165678876108E+03   -0.22467E-05   -0.59911E-07  1980   0.369E-03
   3 F= -.84234586E+02 E0= -.84234586E+02  d E =-.143129E-01
       N       E                     dE             d eps       ncg     rms          rms(c)
DAV:   1    -0.165689641475E+03   -0.10768E-01   -0.16948E-02  3720   0.564E-01    0.421E-02
DAV:   2    -0.165689643225E+03   -0.17504E-05   -0.11343E-03  4380   0.148E-01    0.284E-02
DAV:   3    -0.165689628248E+03    0.14977E-04   -0.71135E-05  4224   0.368E-02    0.187E-02
DAV:   4    -0.165689613099E+03    0.15149E-04   -0.14801E-05  2868   0.160E-02    0.833E-03
DAV:   5    -0.165689605380E+03    0.77187E-05   -0.18466E-06  2004   0.686E-03
   4 F= -.84234994E+02 E0= -.84234994E+02  d E =-.408495E-03
       N       E                     dE             d eps       ncg     rms          rms(c)
DAV:   1    -0.165686305481E+03    0.33076E-02   -0.18672E-03  3720   0.187E-01    0.139E-02
DAV:   2    -0.165686307266E+03   -0.17850E-05   -0.12750E-04  4392   0.495E-02    0.968E-03
DAV:   3    -0.165686309166E+03   -0.19000E-05   -0.71613E-06  2316   0.123E-02
   5 F= -.84235110E+02 E0= -.84235110E+02  d E =-.524589E-03
       N       E                     dE             d eps       ncg     rms          rms(c)
DAV:   1    -0.165721628723E+03   -0.35321E-01   -0.16751E-02  3696   0.623E-01    0.364E-02
DAV:   2    -0.165721583733E+03    0.44990E-04   -0.21610E-04  4704   0.757E-02    0.243E-02
DAV:   3    -0.165721575708E+03    0.80251E-05   -0.38641E-05  4320   0.275E-02
   6 F= -.84235022E+02 E0= -.84235022E+02  d E =0.881587E-04
       N       E                     dE             d eps       ncg     rms          rms(c)
DAV:   1    -0.165701576072E+03    0.20008E-01   -0.57375E-03  3648   0.360E-01    0.191E-02
DAV:   2    -0.165701566363E+03    0.97097E-05   -0.81082E-05  4476   0.449E-02
   7 F= -.84235204E+02 E0= -.84235204E+02  d E =-.937686E-04
