Al4C3 R-3m - r2SCAN H(P) scan @ 70 GPa (
           1
     3.072668    0.000000    0.000000
    -1.536334    2.661008    0.000000
     0.000000    0.000000   22.971277
   Al   C 
    12     9
Direct configuration=     1
   0.00000000  0.00000000  0.62936111
   0.00000000  0.00000000  0.37063889
   0.66666669  0.33333334  0.96269443
   0.66666669  0.33333334  0.70397220
   0.33333334  0.66666669  0.29602777
   0.33333334  0.66666669  0.03730555
   0.00000000  0.00000000  0.20599439
   0.00000000  0.00000000  0.79400561
   0.66666669  0.33333334  0.53932770
   0.66666669  0.33333334  0.12733894
   0.33333334  0.66666669  0.87266108
   0.33333334  0.66666669  0.46067227
   0.00000000  0.00000000  0.71666753
   0.00000000  0.00000000  0.28333247
   0.66666669  0.33333334  0.05000086
   0.66666669  0.33333334  0.61666578
   0.33333334  0.66666669  0.38333419
   0.33333334  0.66666669  0.94999916
   0.00000000  0.00000000  0.50000000
   0.66666669  0.33333334  0.83333331
   0.33333334  0.66666669  0.16666667
Al4C3 R-3m - r2SCAN H(P) scan @ 70 GPa (
           1
     3.047949    0.000000    0.000000
    -1.523974    2.639601    0.000000
     0.000000    0.000000   22.786477
   Al   C 
    12     9
Direct configuration=     2
   0.00000000  0.00000000  0.62962702
  -0.00000000  0.00000000  0.37037298
   0.66666669  0.33333334  0.96296033
   0.66666669  0.33333334  0.70370630
   0.33333334  0.66666669  0.29629367
   0.33333334  0.66666669  0.03703965
   0.00000000  0.00000000  0.20604731
   0.00000000  0.00000000  0.79395269
   0.66666669  0.33333334  0.53938063
   0.66666669  0.33333334  0.12728601
   0.33333334  0.66666669  0.87271400
   0.33333334  0.66666669  0.46061934
   0.00000000 -0.00000000  0.71681403
  -0.00000000 -0.00000000  0.28318597
   0.66666669  0.33333334  0.05014736
   0.66666669  0.33333334  0.61651928
   0.33333334  0.66666669  0.38348069
   0.33333334  0.66666669  0.94985266
   0.00000000  0.00000000  0.50000000
   0.66666669  0.33333334  0.83333331
   0.33333334  0.66666669  0.16666667
Al4C3 R-3m - r2SCAN H(P) scan @ 70 GPa (
           1
     3.064957    0.000000    0.000000
    -1.532478    2.654330    0.000000
     0.000000    0.000000   22.913629
   Al   C 
    12     9
Direct configuration=     3
   0.00000000  0.00000000  0.62944258
  -0.00000000  0.00000000  0.37055742
   0.66666669  0.33333334  0.96277589
   0.66666669  0.33333334  0.70389074
   0.33333334  0.66666669  0.29610923
   0.33333334  0.66666669  0.03722409
   0.00000000  0.00000000  0.20601060
   0.00000000  0.00000000  0.79398940
   0.66666669  0.33333334  0.53934392
   0.66666669  0.33333334  0.12732272
   0.33333334  0.66666669  0.87267729
   0.33333334  0.66666669  0.46065605
   0.00000000 -0.00000000  0.71671241
  -0.00000000 -0.00000000  0.28328759
   0.66666669  0.33333334  0.05004574
   0.66666669  0.33333334  0.61662090
   0.33333334  0.66666669  0.38337907
   0.33333334  0.66666669  0.94995427
   0.00000000  0.00000000  0.50000000
   0.66666669  0.33333334  0.83333331
   0.33333334  0.66666669  0.16666667
Al4C3 R-3m - r2SCAN H(P) scan @ 70 GPa (
           1
     3.065086    0.000000    0.000000
    -1.532543    2.654442    0.000000
     0.000000    0.000000   22.914596
   Al   C 
    12     9
Direct configuration=     4
   0.00000000  0.00000000  0.62957382
   0.00000000  0.00000000  0.37042618
   0.66666669  0.33333334  0.96290713
   0.66666669  0.33333334  0.70375950
   0.33333334  0.66666669  0.29624047
   0.33333334  0.66666669  0.03709285
   0.00000000  0.00000000  0.20594274
   0.00000000  0.00000000  0.79405726
   0.66666669  0.33333334  0.53927605
   0.66666669  0.33333334  0.12739059
   0.33333334  0.66666669  0.87260943
   0.33333334  0.66666669  0.46072392
   0.00000000  0.00000000  0.71671426
  -0.00000000 -0.00000000  0.28328574
   0.66666669  0.33333334  0.05004759
   0.66666669  0.33333334  0.61661905
   0.33333334  0.66666669  0.38338092
   0.33333334  0.66666669  0.94995243
   0.00000000  0.00000000  0.50000000
   0.66666669  0.33333334  0.83333331
   0.33333334  0.66666669  0.16666667
Al4C3 R-3m - r2SCAN H(P) scan @ 70 GPa (
           1
     3.065043    0.000000    0.000000
    -1.532522    2.654405    0.000000
     0.000000    0.000000   22.914276
   Al   C 
    12     9
Direct configuration=     5
   0.00000000  0.00000000  0.62953043
   0.00000000  0.00000000  0.37046957
   0.66666669  0.33333334  0.96286374
   0.66666669  0.33333334  0.70380288
   0.33333334  0.66666669  0.29619709
   0.33333334  0.66666669  0.03713624
   0.00000000  0.00000000  0.20596518
   0.00000000  0.00000000  0.79403482
   0.66666669  0.33333334  0.53929849
   0.66666669  0.33333334  0.12736815
   0.33333334  0.66666669  0.87263186
   0.33333334  0.66666669  0.46070148
   0.00000000 -0.00000000  0.71671365
  -0.00000000 -0.00000000  0.28328635
   0.66666669  0.33333334  0.05004698
   0.66666669  0.33333334  0.61661966
   0.33333334  0.66666669  0.38338031
   0.33333334  0.66666669  0.94995304
   0.00000000  0.00000000  0.50000000
   0.66666669  0.33333334  0.83333331
   0.33333334  0.66666669  0.16666667
Al4C3 R-3m - r2SCAN H(P) scan @ 70 GPa (
           1
     3.065487    0.000000    0.000000
    -1.532743    2.654789    0.000000
     0.000000    0.000000   22.917591
   Al   C 
    12     9
Direct configuration=     6
   0.00000000  0.00000000  0.62958768
   0.00000000  0.00000000  0.37041232
   0.66666669  0.33333334  0.96292099
   0.66666669  0.33333334  0.70374563
   0.33333334  0.66666669  0.29625434
   0.33333334  0.66666669  0.03707899
   0.00000000  0.00000000  0.20599562
   0.00000000  0.00000000  0.79400438
   0.66666669  0.33333334  0.53932893
   0.66666669  0.33333334  0.12733771
   0.33333334  0.66666669  0.87266231
   0.33333334  0.66666669  0.46067104
   0.00000000  0.00000000  0.71675956
  -0.00000000 -0.00000000  0.28324044
   0.66666669  0.33333334  0.05009289
   0.66666669  0.33333334  0.61657375
   0.33333334  0.66666669  0.38342622
   0.33333334  0.66666669  0.94990712
   0.00000000  0.00000000  0.50000000
   0.66666669  0.33333334  0.83333331
   0.33333334  0.66666669  0.16666667
Al4C3 R-3m - r2SCAN H(P) scan @ 70 GPa (
           1
     3.065234    0.000000    0.000000
    -1.532617    2.654570    0.000000
     0.000000    0.000000   22.915698
   Al   C 
    12     9
Direct configuration=     7
   0.00000000  0.00000000  0.62955499
   0.00000000  0.00000000  0.37044501
   0.66666669  0.33333334  0.96288830
   0.66666669  0.33333334  0.70377832
   0.33333334  0.66666669  0.29622165
   0.33333334  0.66666669  0.03711168
   0.00000000  0.00000000  0.20597824
   0.00000000  0.00000000  0.79402176
   0.66666669  0.33333334  0.53931155
   0.66666669  0.33333334  0.12735509
   0.33333334  0.66666669  0.87264492
   0.33333334  0.66666669  0.46068842
   0.00000000  0.00000000  0.71673335
  -0.00000000 -0.00000000  0.28326665
   0.66666669  0.33333334  0.05006668
   0.66666669  0.33333334  0.61659997
   0.33333334  0.66666669  0.38340000
   0.33333334  0.66666669  0.94993334
   0.00000000  0.00000000  0.50000000
   0.66666669  0.33333334  0.83333331
   0.33333334  0.66666669  0.16666667
