  28  28   0   0
  0.8420936E+01  0.8623542E-09  0.2908028E-09  0.9402302E-09  0.5000000E-15
  1.000000000000000E-004
  CAR 
 Al4C3 Pnma-III - H(P) scan @ 70 GPa (ISI
     20.99391147     -5.84849467  301     11.96256024      1.00000000
     -5.848  0.0000E+00  0.0000E+00
     -5.759  0.0000E+00  0.0000E+00
     -5.670  0.0000E+00  0.0000E+00
     -5.580  0.0000E+00  0.0000E+00
     -5.491  0.0000E+00  0.0000E+00
     -5.401  0.0000E+00  0.0000E+00
     -5.312  0.0000E+00  0.0000E+00
     -5.222  0.0000E+00  0.0000E+00
     -5.133  0.0000E+00  0.0000E+00
     -5.043  0.0000E+00  0.0000E+00
     -4.954  0.0000E+00  0.0000E+00
     -4.864  0.8017E-14  0.7173E-15
     -4.775  0.1097E-07  0.9816E-09
     -4.685  0.3408E-04  0.3050E-05
     -4.596  0.5776E-03  0.5473E-04
     -4.506  0.2513E-02  0.2796E-03
     -4.417  0.4747E-02  0.7043E-03
     -4.327  0.5473E-02  0.1194E-02
     -4.238  0.4924E-02  0.1635E-02
     -4.148  0.4887E-02  0.2072E-02
     -4.059  0.9415E-02  0.2914E-02
     -3.970  0.1256E-01  0.4038E-02
     -3.880  0.6688E-02  0.4637E-02
     -3.791  0.4210E-02  0.5013E-02
     -3.701  0.1115E-01  0.6011E-02
     -3.612  0.1543E-01  0.7392E-02
     -3.522  0.9844E-02  0.8272E-02
     -3.433  0.7784E-02  0.8969E-02
     -3.343  0.1312E-01  0.1014E-01
     -3.254  0.1650E-01  0.1162E-01
     -3.164  0.1326E-01  0.1281E-01
     -3.075  0.1204E-01  0.1388E-01
     -2.985  0.1278E-01  0.1503E-01
     -2.896  0.1571E-01  0.1643E-01
     -2.806  0.2030E-01  0.1825E-01
     -2.717  0.1301E-01  0.1941E-01
     -2.627  0.9098E-02  0.2023E-01
     -2.538  0.1508E-01  0.2158E-01
     -2.448  0.2399E-01  0.2372E-01
     -2.359  0.1310E-01  0.2489E-01
     -2.270  0.2072E-01  0.2675E-01
     -2.180  0.2043E-01  0.2858E-01
     -2.091  0.7971E-02  0.2929E-01
     -2.001  0.1223E-01  0.3038E-01
     -1.912  0.3185E-01  0.3323E-01
     -1.822  0.2507E-01  0.3548E-01
     -1.733  0.1123E-01  0.3648E-01
     -1.643  0.1256E-01  0.3761E-01
     -1.554  0.2510E-01  0.3985E-01
     -1.464  0.2352E-01  0.4196E-01
     -1.375  0.2328E-01  0.4404E-01
     -1.285  0.2772E-01  0.4652E-01
     -1.196  0.2416E-01  0.4868E-01
     -1.106  0.2638E-01  0.5104E-01
     -1.017  0.3112E-01  0.5383E-01
     -0.927  0.2020E-01  0.5563E-01
     -0.838  0.2202E-01  0.5760E-01
     -0.748  0.2512E-01  0.5985E-01
     -0.659  0.1721E-01  0.6139E-01
     -0.569  0.2990E-01  0.6407E-01
     -0.480  0.4270E-01  0.6789E-01
     -0.391  0.3487E-01  0.7101E-01
     -0.301  0.2548E-01  0.7329E-01
     -0.212  0.2679E-01  0.7568E-01
     -0.122  0.3451E-01  0.7877E-01
     -0.033  0.3977E-01  0.8233E-01
      0.057  0.4130E-01  0.8602E-01
      0.146  0.4551E-01  0.9010E-01
      0.236  0.4452E-01  0.9408E-01
      0.325  0.3396E-01  0.9712E-01
      0.415  0.2818E-01  0.9964E-01
      0.504  0.3128E-01  0.1024E+00
      0.594  0.2330E-01  0.1045E+00
      0.683  0.2447E-01  0.1067E+00
      0.773  0.2481E-01  0.1089E+00
      0.862  0.2094E-01  0.1108E+00
      0.952  0.2082E-01  0.1127E+00
      1.041  0.1403E-01  0.1139E+00
      1.131  0.2198E-01  0.1159E+00
      1.220  0.1237E-01  0.1170E+00
      1.309  0.1528E-01  0.1184E+00
      1.399  0.1389E-01  0.1196E+00
      1.488  0.3662E-02  0.1199E+00
      1.578  0.7183E-03  0.1200E+00
      1.667  0.3025E-05  0.1200E+00
      1.757  0.5028E-10  0.1200E+00
      1.846  0.1692E-17  0.1200E+00
      1.936  0.0000E+00  0.1200E+00
      2.025  0.0000E+00  0.1200E+00
      2.115  0.0000E+00  0.1200E+00
      2.204  0.0000E+00  0.1200E+00
      2.294  0.0000E+00  0.1200E+00
      2.383  0.6087E-13  0.1200E+00
      2.473  0.5118E-07  0.1200E+00
      2.562  0.1003E-03  0.1200E+00
      2.652  0.1029E-02  0.1201E+00
      2.741  0.2443E-02  0.1203E+00
      2.831  0.5355E-02  0.1208E+00
      2.920  0.1001E-01  0.1217E+00
      3.009  0.1136E-01  0.1227E+00
      3.099  0.2107E-01  0.1246E+00
      3.188  0.1048E-01  0.1255E+00
      3.278  0.1621E-01  0.1270E+00
      3.367  0.2403E-01  0.1291E+00
      3.457  0.2824E-01  0.1317E+00
      3.546  0.3109E-01  0.1344E+00
      3.636  0.3142E-01  0.1373E+00
      3.725  0.3330E-01  0.1402E+00
      3.815  0.3966E-01  0.1438E+00
      3.904  0.4419E-01  0.1477E+00
      3.994  0.4317E-01  0.1516E+00
      4.083  0.3501E-01  0.1547E+00
      4.173  0.3344E-01  0.1577E+00
      4.262  0.3283E-01  0.1607E+00
      4.352  0.4212E-01  0.1644E+00
      4.441  0.3903E-01  0.1679E+00
      4.531  0.3427E-01  0.1710E+00
      4.620  0.3124E-01  0.1738E+00
      4.710  0.3290E-01  0.1767E+00
      4.799  0.3860E-01  0.1802E+00
      4.888  0.5073E-01  0.1847E+00
      4.978  0.4056E-01  0.1883E+00
      5.067  0.4009E-01  0.1919E+00
      5.157  0.3971E-01  0.1955E+00
      5.246  0.3396E-01  0.1985E+00
      5.336  0.3733E-01  0.2019E+00
      5.425  0.2411E-01  0.2040E+00
      5.515  0.2588E-01  0.2063E+00
      5.604  0.3056E-01  0.2091E+00
      5.694  0.2895E-01  0.2117E+00
      5.783  0.4764E-01  0.2159E+00
      5.873  0.4946E-01  0.2204E+00
      5.962  0.3641E-01  0.2236E+00
      6.052  0.2488E-01  0.2258E+00
      6.141  0.4308E-01  0.2297E+00
      6.231  0.3042E-01  0.2324E+00
      6.320  0.3415E-01  0.2355E+00
      6.410  0.3113E-01  0.2383E+00
      6.499  0.4036E-01  0.2419E+00
      6.588  0.3763E-01  0.2452E+00
      6.678  0.4108E-01  0.2489E+00
      6.767  0.5392E-01  0.2537E+00
      6.857  0.4370E-01  0.2576E+00
      6.946  0.4392E-01  0.2616E+00
      7.036  0.4139E-01  0.2653E+00
      7.125  0.6093E-01  0.2707E+00
      7.215  0.3194E-01  0.2736E+00
      7.304  0.2273E-01  0.2756E+00
      7.394  0.3399E-01  0.2787E+00
      7.483  0.4571E-01  0.2827E+00
      7.573  0.3802E-01  0.2862E+00
      7.662  0.3489E-01  0.2893E+00
      7.752  0.4810E-01  0.2936E+00
      7.841  0.4838E-01  0.2979E+00
      7.931  0.3611E-01  0.3011E+00
      8.020  0.3534E-01  0.3043E+00
      8.110  0.4291E-01  0.3081E+00
      8.199  0.4115E-01  0.3118E+00
      8.289  0.4903E-01  0.3162E+00
      8.378  0.5071E-01  0.3207E+00
      8.467  0.4626E-01  0.3249E+00
      8.557  0.3357E-01  0.3279E+00
      8.646  0.3392E-01  0.3309E+00
      8.736  0.3892E-01  0.3344E+00
      8.825  0.4636E-01  0.3386E+00
      8.915  0.5454E-01  0.3434E+00
      9.004  0.4587E-01  0.3475E+00
      9.094  0.4249E-01  0.3513E+00
      9.183  0.5136E-01  0.3559E+00
      9.273  0.5701E-01  0.3610E+00
      9.362  0.5891E-01  0.3663E+00
      9.452  0.7366E-01  0.3729E+00
      9.541  0.6391E-01  0.3786E+00
      9.631  0.5457E-01  0.3835E+00
      9.720  0.4899E-01  0.3879E+00
      9.810  0.6150E-01  0.3934E+00
      9.899  0.6176E-01  0.3989E+00
      9.989  0.6063E-01  0.4043E+00
     10.078  0.5504E-01  0.4093E+00
     10.167  0.5097E-01  0.4138E+00
     10.257  0.4490E-01  0.4178E+00
     10.346  0.5868E-01  0.4231E+00
     10.436  0.5986E-01  0.4284E+00
     10.525  0.6038E-01  0.4338E+00
     10.615  0.6254E-01  0.4394E+00
     10.704  0.5159E-01  0.4441E+00
     10.794  0.5448E-01  0.4489E+00
     10.883  0.5977E-01  0.4543E+00
     10.973  0.5103E-01  0.4588E+00
     11.062  0.3988E-01  0.4624E+00
     11.152  0.4704E-01  0.4666E+00
     11.241  0.3692E-01  0.4699E+00
     11.331  0.2659E-01  0.4723E+00
     11.420  0.2400E-01  0.4745E+00
     11.510  0.2068E-01  0.4763E+00
     11.599  0.2513E-01  0.4786E+00
     11.689  0.1232E-01  0.4797E+00
     11.778  0.3652E-02  0.4800E+00
     11.867  0.2137E-03  0.4800E+00
     11.957  0.3746E-06  0.4800E+00
     12.046  0.2372E-11  0.4800E+00
     12.136  0.0000E+00  0.4800E+00
     12.225  0.0000E+00  0.4800E+00
     12.315  0.0000E+00  0.4800E+00
     12.404  0.0000E+00  0.4800E+00
     12.494  0.0000E+00  0.4800E+00
     12.583  0.0000E+00  0.4800E+00
     12.673  0.0000E+00  0.4800E+00
     12.762  0.0000E+00  0.4800E+00
     12.852  0.0000E+00  0.4800E+00
     12.941  0.0000E+00  0.4800E+00
     13.031  0.0000E+00  0.4800E+00
     13.120  0.3333E-14  0.4800E+00
     13.210  0.1013E-07  0.4800E+00
     13.299  0.6728E-04  0.4800E+00
     13.389  0.1788E-02  0.4802E+00
     13.478  0.1975E-02  0.4803E+00
     13.568  0.3132E-02  0.4806E+00
     13.657  0.1339E-01  0.4818E+00
     13.746  0.7022E-02  0.4824E+00
     13.836  0.1083E-01  0.4834E+00
     13.925  0.8265E-02  0.4842E+00
     14.015  0.1297E-01  0.4853E+00
     14.104  0.1810E-01  0.4869E+00
     14.194  0.2517E-01  0.4892E+00
     14.283  0.1635E-01  0.4907E+00
     14.373  0.3238E-01  0.4936E+00
     14.462  0.2526E-01  0.4958E+00
     14.552  0.2097E-01  0.4977E+00
     14.641  0.2597E-01  0.5000E+00
     14.731  0.3085E-01  0.5028E+00
     14.820  0.3416E-01  0.5058E+00
     14.910  0.3828E-01  0.5093E+00
     14.999  0.5127E-01  0.5138E+00
     15.089  0.3171E-01  0.5167E+00
     15.178  0.2421E-01  0.5188E+00
     15.268  0.2549E-01  0.5211E+00
     15.357  0.2745E-01  0.5236E+00
     15.446  0.2331E-01  0.5257E+00
     15.536  0.3596E-01  0.5289E+00
     15.625  0.4150E-01  0.5326E+00
     15.715  0.4679E-01  0.5368E+00
     15.804  0.3332E-01  0.5398E+00
     15.894  0.2938E-01  0.5424E+00
     15.983  0.1525E-01  0.5438E+00
     16.073  0.2906E-01  0.5464E+00
     16.162  0.3605E-01  0.5496E+00
     16.252  0.5165E-01  0.5542E+00
     16.341  0.4850E-01  0.5585E+00
     16.431  0.3524E-01  0.5617E+00
     16.520  0.2126E-01  0.5636E+00
     16.610  0.2602E-01  0.5659E+00
     16.699  0.2667E-01  0.5683E+00
     16.789  0.3209E-01  0.5712E+00
     16.878  0.3596E-01  0.5744E+00
     16.968  0.4452E-01  0.5784E+00
     17.057  0.4928E-01  0.5828E+00
     17.146  0.4833E-01  0.5871E+00
     17.236  0.4415E-01  0.5911E+00
     17.325  0.4592E-01  0.5952E+00
     17.415  0.3514E-01  0.5983E+00
     17.504  0.3844E-01  0.6018E+00
     17.594  0.3566E-01  0.6050E+00
     17.683  0.2861E-01  0.6075E+00
     17.773  0.3879E-01  0.6110E+00
     17.862  0.3774E-01  0.6144E+00
     17.952  0.3406E-01  0.6174E+00
     18.041  0.3346E-01  0.6204E+00
     18.131  0.3755E-01  0.6238E+00
     18.220  0.3425E-01  0.6268E+00
     18.310  0.3533E-01  0.6300E+00
     18.399  0.2741E-01  0.6324E+00
     18.489  0.2360E-01  0.6345E+00
     18.578  0.3090E-01  0.6373E+00
     18.668  0.2851E-01  0.6399E+00
     18.757  0.2834E-01  0.6424E+00
     18.847  0.2856E-01  0.6450E+00
     18.936  0.3140E-01  0.6478E+00
     19.025  0.3812E-01  0.6512E+00
     19.115  0.2874E-01  0.6537E+00
     19.204  0.1790E-01  0.6554E+00
     19.294  0.1948E-01  0.6571E+00
     19.383  0.1073E-01  0.6581E+00
     19.473  0.1010E-01  0.6590E+00
     19.562  0.7249E-02  0.6596E+00
     19.652  0.3338E-02  0.6599E+00
     19.741  0.5474E-03  0.6600E+00
     19.831  0.4883E-03  0.6600E+00
     19.920  0.3406E-04  0.6600E+00
     20.010  0.1097E-07  0.6600E+00
     20.099  0.8017E-14  0.6600E+00
     20.189  0.0000E+00  0.6600E+00
     20.278  0.0000E+00  0.6600E+00
     20.368  0.0000E+00  0.6600E+00
     20.457  0.0000E+00  0.6600E+00
     20.547  0.0000E+00  0.6600E+00
     20.636  0.0000E+00  0.6600E+00
     20.725  0.0000E+00  0.6600E+00
     20.815  0.0000E+00  0.6600E+00
     20.904  0.0000E+00  0.6600E+00
     20.994  0.0000E+00  0.6600E+00
