Al4C3 Pnma-III - H(P) scan @ 70 GPa (ISI
           1
     8.623542    0.000000    0.000000
     0.000000    2.908028    0.000000
     0.000000    0.000000    9.402302
   Al   C 
    16    12
Direct configuration=     1
   0.73673800  0.25000000  0.71308599
   0.76326200  0.75000000  0.21308599
   0.26326200  0.75000000  0.28691401
   0.23673800  0.25000000  0.78691401
   0.60601292  0.25000000  0.46990796
   0.89398708  0.75000000  0.96990796
   0.39398708  0.75000000  0.53009204
   0.10601292  0.25000000  0.03009204
   0.13809377  0.25000000  0.51774520
   0.36190623  0.75000000  0.01774520
   0.86190623  0.75000000  0.48225480
   0.63809377  0.25000000  0.98225480
   0.99416975  0.25000000  0.27905779
   0.50583025  0.75000000  0.77905779
   0.00583025  0.75000000  0.72094221
   0.49416975  0.25000000  0.22094221
   0.92859200  0.25000000  0.61834799
   0.57140800  0.75000000  0.11834799
   0.07140800  0.75000000  0.38165201
   0.42859200  0.25000000  0.88165201
   0.39032089  0.25000000  0.40229500
   0.10967911  0.75000000  0.90229500
   0.60967911  0.75000000  0.59770500
   0.89032089  0.25000000  0.09770500
   0.77436976  0.25000000  0.35333480
   0.72563024  0.75000000  0.85333480
   0.22563024  0.75000000  0.64666520
   0.27436976  0.25000000  0.14666520
Al4C3 Pnma-III - H(P) scan @ 70 GPa (ISI
           1
     8.405354    0.000000    0.000000
     0.000000    2.834451    0.000000
     0.000000    0.000000    9.164410
   Al   C 
    16    12
Direct configuration=     2
   0.73672820  0.25000000  0.71309285
   0.76327180  0.75000000  0.21309285
   0.26327180  0.75000000  0.28690715
   0.23672820  0.25000000  0.78690715
   0.60601964  0.25000000  0.46991260
   0.89398036  0.75000000  0.96991260
   0.39398036  0.75000000  0.53008740
   0.10601964  0.25000000  0.03008740
   0.13808227  0.25000000  0.51776979
   0.36191773  0.75000000  0.01776979
   0.86191773  0.75000000  0.48223021
   0.63808227  0.25000000  0.98223021
   0.99418436  0.25000000  0.27907124
   0.50581564  0.75000000  0.77907124
   0.00581564  0.75000000  0.72092876
   0.49418436  0.25000000  0.22092876
   0.92860279  0.25000000  0.61831253
   0.57139721  0.75000000  0.11831253
   0.07139721  0.75000000  0.38168747
   0.42860279  0.25000000  0.88168747
   0.39031706  0.25000000  0.40230009
   0.10968294  0.75000000  0.90230009
   0.60968294  0.75000000  0.59769991
   0.89031706  0.25000000  0.09769991
   0.77437910  0.25000000  0.35334642
   0.72562090  0.75000000  0.85334642
   0.22562090  0.75000000  0.64665358
   0.27437910  0.25000000  0.14665358
Al4C3 Pnma-III - H(P) scan @ 70 GPa (ISI
           1
     8.554117    0.000000    0.000000
     0.000000    2.884616    0.000000
     0.000000    0.000000    9.326608
   Al   C 
    16    12
Direct configuration=     3
   0.73673505  0.25000000  0.71308805
   0.76326495  0.75000000  0.21308805
   0.26326495  0.75000000  0.28691195
   0.23673505  0.25000000  0.78691195
   0.60601494  0.25000000  0.46990935
   0.89398506  0.75000000  0.96990935
   0.39398506  0.75000000  0.53009065
   0.10601494  0.25000000  0.03009065
   0.13809032  0.25000000  0.51775259
   0.36190968  0.75000000  0.01775259
   0.86190968  0.75000000  0.48224741
   0.63809032  0.25000000  0.98224741
   0.99417414  0.25000000  0.27906183
   0.50582586  0.75000000  0.77906183
   0.00582586  0.75000000  0.72093817
   0.49417414  0.25000000  0.22093817
   0.92859524  0.25000000  0.61833734
   0.57140476  0.75000000  0.11833734
   0.07140476  0.75000000  0.38166266
   0.42859524  0.25000000  0.88166266
   0.39031974  0.25000000  0.40229653
   0.10968026  0.75000000  0.90229653
   0.60968026  0.75000000  0.59770347
   0.89031974  0.25000000  0.09770347
   0.77437257  0.25000000  0.35333829
   0.72562743  0.75000000  0.85333829
   0.22562743  0.75000000  0.64666171
   0.27437257  0.25000000  0.14666171
Al4C3 Pnma-III - H(P) scan @ 70 GPa (ISI
           1
     8.552963    0.000000    0.000000
     0.000000    2.884227    0.000000
     0.000000    0.000000    9.325350
   Al   C 
    16    12
Direct configuration=     4
   0.73673500  0.25000000  0.71308809
   0.76326500  0.75000000  0.21308809
   0.26326500  0.75000000  0.28691191
   0.23673500  0.25000000  0.78691191
   0.60601498  0.25000000  0.46990938
   0.89398502  0.75000000  0.96990938
   0.39398502  0.75000000  0.53009062
   0.10601498  0.25000000  0.03009062
   0.13809025  0.25000000  0.51775272
   0.36190975  0.75000000  0.01775272
   0.86190975  0.75000000  0.48224728
   0.63809025  0.25000000  0.98224728
   0.99417422  0.25000000  0.27906190
   0.50582578  0.75000000  0.77906190
   0.00582578  0.75000000  0.72093810
   0.49417422  0.25000000  0.22093810
   0.92859530  0.25000000  0.61833715
   0.57140470  0.75000000  0.11833715
   0.07140470  0.75000000  0.38166285
   0.42859530  0.25000000  0.88166285
   0.39031972  0.25000000  0.40229656
   0.10968028  0.75000000  0.90229656
   0.60968028  0.75000000  0.59770344
   0.89031972  0.25000000  0.09770344
   0.77437262  0.25000000  0.35333835
   0.72562738  0.75000000  0.85333835
   0.22562738  0.75000000  0.64666165
   0.27437262  0.25000000  0.14666165
Al4C3 Pnma-III - H(P) scan @ 70 GPa (ISI
           1
     8.552793    0.000000    0.000000
     0.000000    2.884170    0.000000
     0.000000    0.000000    9.325164
   Al   C 
    16    12
Direct configuration=     5
   0.73673499  0.25000000  0.71308810
   0.76326501  0.75000000  0.21308810
   0.26326501  0.75000000  0.28691190
   0.23673499  0.25000000  0.78691190
   0.60601498  0.25000000  0.46990938
   0.89398502  0.75000000  0.96990938
   0.39398502  0.75000000  0.53009062
   0.10601498  0.25000000  0.03009062
   0.13809025  0.25000000  0.51775274
   0.36190975  0.75000000  0.01775274
   0.86190975  0.75000000  0.48224726
   0.63809025  0.25000000  0.98224726
   0.99417423  0.25000000  0.27906191
   0.50582577  0.75000000  0.77906191
   0.00582577  0.75000000  0.72093809
   0.49417423  0.25000000  0.22093809
   0.92859531  0.25000000  0.61833712
   0.57140469  0.75000000  0.11833712
   0.07140469  0.75000000  0.38166288
   0.42859531  0.25000000  0.88166288
   0.39031972  0.25000000  0.40229656
   0.10968028  0.75000000  0.90229656
   0.60968028  0.75000000  0.59770344
   0.89031972  0.25000000  0.09770344
   0.77437262  0.25000000  0.35333836
   0.72562738  0.75000000  0.85333836
   0.22562738  0.75000000  0.64666164
   0.27437262  0.25000000  0.14666164
Al4C3 Pnma-III - H(P) scan @ 70 GPa (ISI
           1
     8.552869    0.000000    0.000000
     0.000000    2.884196    0.000000
     0.000000    0.000000    9.325247
   Al   C 
    16    12
Direct configuration=     6
   0.73673500  0.25000000  0.71308809
   0.76326500  0.75000000  0.21308809
   0.26326500  0.75000000  0.28691191
   0.23673500  0.25000000  0.78691191
   0.60601498  0.25000000  0.46990938
   0.89398502  0.75000000  0.96990938
   0.39398502  0.75000000  0.53009062
   0.10601498  0.25000000  0.03009062
   0.13809025  0.25000000  0.51775273
   0.36190975  0.75000000  0.01775273
   0.86190975  0.75000000  0.48224727
   0.63809025  0.25000000  0.98224727
   0.99417422  0.25000000  0.27906191
   0.50582578  0.75000000  0.77906191
   0.00582578  0.75000000  0.72093809
   0.49417422  0.25000000  0.22093809
   0.92859530  0.25000000  0.61833713
   0.57140470  0.75000000  0.11833713
   0.07140470  0.75000000  0.38166287
   0.42859530  0.25000000  0.88166287
   0.39031972  0.25000000  0.40229656
   0.10968028  0.75000000  0.90229656
   0.60968028  0.75000000  0.59770344
   0.89031972  0.25000000  0.09770344
   0.77437262  0.25000000  0.35333836
   0.72562738  0.75000000  0.85333836
   0.22562738  0.75000000  0.64666164
   0.27437262  0.25000000  0.14666164
Al4C3 Pnma-III - H(P) scan @ 70 GPa (ISI
           1
     8.551300    0.000000    0.000000
     0.000000    2.883666    0.000000
     0.000000    0.000000    9.323536
   Al   C 
    16    12
Direct configuration=     7
   0.73649438  0.25000000  0.71304056
   0.76350562  0.75000000  0.21304056
   0.26350562  0.75000000  0.28695944
   0.23649438  0.25000000  0.78695944
   0.60586819  0.25000000  0.46962407
   0.89413181  0.75000000  0.96962407
   0.39413181  0.75000000  0.53037593
   0.10586819  0.25000000  0.03037593
   0.13846741  0.25000000  0.51759722
   0.36153259  0.75000000  0.01759722
   0.86153259  0.75000000  0.48240278
   0.63846741  0.25000000  0.98240278
   0.99450702  0.25000000  0.27864444
   0.50549298  0.75000000  0.77864444
   0.00549298  0.75000000  0.72135556
   0.49450702  0.25000000  0.22135556
   0.92864615  0.25000000  0.61796885
   0.57135385  0.75000000  0.11796885
   0.07135385  0.75000000  0.38203115
   0.42864615  0.25000000  0.88203115
   0.38980189  0.25000000  0.40215365
   0.11019811  0.75000000  0.90215365
   0.61019811  0.75000000  0.59784635
   0.88980189  0.25000000  0.09784635
   0.77441363  0.25000000  0.35317921
   0.72558637  0.75000000  0.85317921
   0.22558637  0.75000000  0.64682079
   0.27441363  0.25000000  0.14682079
Al4C3 Pnma-III - H(P) scan @ 70 GPa (ISI
           1
     8.551394    0.000000    0.000000
     0.000000    2.883698    0.000000
     0.000000    0.000000    9.323639
   Al   C 
    16    12
Direct configuration=     8
   0.73650882  0.25000000  0.71304341
   0.76349118  0.75000000  0.21304341
   0.26349118  0.75000000  0.28695659
   0.23650882  0.25000000  0.78695659
   0.60587700  0.25000000  0.46964120
   0.89412300  0.75000000  0.96964120
   0.39412300  0.75000000  0.53035880
   0.10587700  0.25000000  0.03035880
   0.13844476  0.25000000  0.51760656
   0.36155524  0.75000000  0.01760656
   0.86155524  0.75000000  0.48239344
   0.63844476  0.25000000  0.98239344
   0.99448704  0.25000000  0.27866951
   0.50551296  0.75000000  0.77866951
   0.00551296  0.75000000  0.72133049
   0.49448704  0.25000000  0.22133049
   0.92864310  0.25000000  0.61799096
   0.57135690  0.75000000  0.11799096
   0.07135690  0.75000000  0.38200904
   0.42864310  0.25000000  0.88200904
   0.38983299  0.25000000  0.40216223
   0.11016701  0.75000000  0.90216223
   0.61016701  0.75000000  0.59783777
   0.88983299  0.25000000  0.09783777
   0.77441117  0.25000000  0.35318877
   0.72558883  0.75000000  0.85318877
   0.22558883  0.75000000  0.64681123
   0.27441117  0.25000000  0.14681123
Al4C3 Pnma-III - H(P) scan @ 70 GPa (ISI
           1
     8.550919    0.000000    0.000000
     0.000000    2.883538    0.000000
     0.000000    0.000000    9.323121
   Al   C 
    16    12
Direct configuration=     9
   0.73651213  0.25000000  0.71291331
   0.76348787  0.75000000  0.21291331
   0.26348787  0.75000000  0.28708669
   0.23651213  0.25000000  0.78708669
   0.60578622  0.25000000  0.46942586
   0.89421378  0.75000000  0.96942586
   0.39421378  0.75000000  0.53057414
   0.10578622  0.25000000  0.03057414
   0.13868470  0.25000000  0.51749064
   0.36131530  0.75000000  0.01749064
   0.86131530  0.75000000  0.48250936
   0.63868470  0.25000000  0.98250936
   0.99508845  0.25000000  0.27870292
   0.50491155  0.75000000  0.77870292
   0.00491155  0.75000000  0.72129708
   0.49508845  0.25000000  0.22129708
   0.92865960  0.25000000  0.61796397
   0.57134040  0.75000000  0.11796397
   0.07134040  0.75000000  0.38203603
   0.42865960  0.25000000  0.88203603
   0.38946218  0.25000000  0.40249242
   0.11053782  0.75000000  0.90249242
   0.61053782  0.75000000  0.59750758
   0.88946218  0.25000000  0.09750758
   0.77430897  0.25000000  0.35306767
   0.72569103  0.75000000  0.85306767
   0.22569103  0.75000000  0.64693233
   0.27430897  0.25000000  0.14693233
Al4C3 Pnma-III - H(P) scan @ 70 GPa (ISI
           1
     8.551028    0.000000    0.000000
     0.000000    2.883575    0.000000
     0.000000    0.000000    9.323240
   Al   C 
    16    12
Direct configuration=    10
   0.73651137  0.25000000  0.71294316
   0.76348863  0.75000000  0.21294316
   0.26348863  0.75000000  0.28705684
   0.23651137  0.25000000  0.78705684
   0.60580705  0.25000000  0.46947527
   0.89419295  0.75000000  0.96947527
   0.39419295  0.75000000  0.53052473
   0.10580705  0.25000000  0.03052473
   0.13862965  0.25000000  0.51751724
   0.36137035  0.75000000  0.01751724
   0.86137035  0.75000000  0.48248276
   0.63862965  0.25000000  0.98248276
   0.99495046  0.25000000  0.27869525
   0.50504954  0.75000000  0.77869525
   0.00504954  0.75000000  0.72130475
   0.49495046  0.25000000  0.22130475
   0.92865581  0.25000000  0.61797016
   0.57134419  0.75000000  0.11797016
   0.07134419  0.75000000  0.38202984
   0.42865581  0.25000000  0.88202984
   0.38954726  0.25000000  0.40241666
   0.11045274  0.75000000  0.90241666
   0.61045274  0.75000000  0.59758334
   0.88954726  0.25000000  0.09758334
   0.77433241  0.25000000  0.35309545
   0.72566759  0.75000000  0.85309545
   0.22566759  0.75000000  0.64690455
   0.27433241  0.25000000  0.14690455
Al4C3 Pnma-III - H(P) scan @ 70 GPa (ISI
           1
     8.550622    0.000000    0.000000
     0.000000    2.883438    0.000000
     0.000000    0.000000    9.322797
   Al   C 
    16    12
Direct configuration=    11
   0.73642664  0.25000000  0.71287602
   0.76357336  0.75000000  0.21287602
   0.26357336  0.75000000  0.28712398
   0.23642664  0.25000000  0.78712398
   0.60572788  0.25000000  0.46943653
   0.89427212  0.75000000  0.96943653
   0.39427212  0.75000000  0.53056347
   0.10572788  0.25000000  0.03056347
   0.13869364  0.25000000  0.51761632
   0.36130636  0.75000000  0.01761632
   0.86130636  0.75000000  0.48238368
   0.63869364  0.25000000  0.98238368
   0.99497078  0.25000000  0.27866072
   0.50502922  0.75000000  0.77866072
   0.00502922  0.75000000  0.72133928
   0.49497078  0.25000000  0.22133928
   0.92866688  0.25000000  0.61799387
   0.57133312  0.75000000  0.11799387
   0.07133312  0.75000000  0.38200613
   0.42866688  0.25000000  0.88200613
   0.38956591  0.25000000  0.40254308
   0.11043409  0.75000000  0.90254308
   0.61043409  0.75000000  0.59745692
   0.88956591  0.25000000  0.09745692
   0.77434523  0.25000000  0.35297197
   0.72565477  0.75000000  0.85297197
   0.22565477  0.75000000  0.64702803
   0.27434523  0.25000000  0.14702803
Al4C3 Pnma-III - H(P) scan @ 70 GPa (ISI
           1
     8.550589    0.000000    0.000000
     0.000000    2.883427    0.000000
     0.000000    0.000000    9.322761
   Al   C 
    16    12
Direct configuration=    12
   0.73641980  0.25000000  0.71287060
   0.76358020  0.75000000  0.21287060
   0.26358020  0.75000000  0.28712940
   0.23641980  0.25000000  0.78712940
   0.60572149  0.25000000  0.46943341
   0.89427851  0.75000000  0.96943341
   0.39427851  0.75000000  0.53056659
   0.10572149  0.25000000  0.03056659
   0.13869880  0.25000000  0.51762432
   0.36130120  0.75000000  0.01762432
   0.86130120  0.75000000  0.48237568
   0.63869880  0.25000000  0.98237568
   0.99497242  0.25000000  0.27865794
   0.50502758  0.75000000  0.77865794
   0.00502758  0.75000000  0.72134206
   0.49497242  0.25000000  0.22134206
   0.92866777  0.25000000  0.61799578
   0.57133223  0.75000000  0.11799578
   0.07133223  0.75000000  0.38200422
   0.42866777  0.25000000  0.88200422
   0.38956742  0.25000000  0.40255327
   0.11043258  0.75000000  0.90255327
   0.61043258  0.75000000  0.59744673
   0.88956742  0.25000000  0.09744673
   0.77434626  0.25000000  0.35296201
   0.72565374  0.75000000  0.85296201
   0.22565374  0.75000000  0.64703799
   0.27434626  0.25000000  0.14703799
Al4C3 Pnma-III - H(P) scan @ 70 GPa (ISI
           1
     8.550840    0.000000    0.000000
     0.000000    2.883511    0.000000
     0.000000    0.000000    9.323034
   Al   C 
    16    12
Direct configuration=    13
   0.73635827  0.25000000  0.71273230
   0.76364173  0.75000000  0.21273230
   0.26364173  0.75000000  0.28726770
   0.23635827  0.25000000  0.78726770
   0.60578087  0.25000000  0.46930982
   0.89421913  0.75000000  0.96930982
   0.39421913  0.75000000  0.53069018
   0.10578087  0.25000000  0.03069018
   0.13870132  0.25000000  0.51772215
   0.36129868  0.75000000  0.01772215
   0.86129868  0.75000000  0.48227785
   0.63870132  0.25000000  0.98227785
   0.99497767  0.25000000  0.27862226
   0.50502233  0.75000000  0.77862226
   0.00502233  0.75000000  0.72137774
   0.49497767  0.25000000  0.22137774
   0.92864644  0.25000000  0.61799627
   0.57135356  0.75000000  0.11799627
   0.07135356  0.75000000  0.38200373
   0.42864644  0.25000000  0.88200373
   0.38958916  0.25000000  0.40261915
   0.11041084  0.75000000  0.90261915
   0.61041084  0.75000000  0.59738085
   0.88958916  0.25000000  0.09738085
   0.77429408  0.25000000  0.35287611
   0.72570592  0.75000000  0.85287611
   0.22570592  0.75000000  0.64712389
   0.27429408  0.25000000  0.14712389
Al4C3 Pnma-III - H(P) scan @ 70 GPa (ISI
           1
     8.550849    0.000000    0.000000
     0.000000    2.883514    0.000000
     0.000000    0.000000    9.323045
   Al   C 
    16    12
Direct configuration=    14
   0.73635588  0.25000000  0.71272692
   0.76364412  0.75000000  0.21272692
   0.26364412  0.75000000  0.28727308
   0.23635588  0.25000000  0.78727308
   0.60578318  0.25000000  0.46930502
   0.89421682  0.75000000  0.96930502
   0.39421682  0.75000000  0.53069498
   0.10578318  0.25000000  0.03069498
   0.13870141  0.25000000  0.51772596
   0.36129859  0.75000000  0.01772596
   0.86129859  0.75000000  0.48227404
   0.63870141  0.25000000  0.98227404
   0.99497787  0.25000000  0.27862088
   0.50502213  0.75000000  0.77862088
   0.00502213  0.75000000  0.72137912
   0.49497787  0.25000000  0.22137912
   0.92864562  0.25000000  0.61799629
   0.57135438  0.75000000  0.11799629
   0.07135438  0.75000000  0.38200371
   0.42864562  0.25000000  0.88200371
   0.38959000  0.25000000  0.40262171
   0.11041000  0.75000000  0.90262171
   0.61041000  0.75000000  0.59737829
   0.88959000  0.25000000  0.09737829
   0.77429205  0.25000000  0.35287278
   0.72570795  0.75000000  0.85287278
   0.22570795  0.75000000  0.64712722
   0.27429205  0.25000000  0.14712722
Al4C3 Pnma-III - H(P) scan @ 70 GPa (ISI
           1
     8.550677    0.000000    0.000000
     0.000000    2.883456    0.000000
     0.000000    0.000000    9.322857
   Al   C 
    16    12
Direct configuration=    15
   0.73633447  0.25000000  0.71259940
   0.76366553  0.75000000  0.21259940
   0.26366553  0.75000000  0.28740060
   0.23633447  0.25000000  0.78740060
   0.60577611  0.25000000  0.46926041
   0.89422389  0.75000000  0.96926041
   0.39422389  0.75000000  0.53073959
   0.10577611  0.25000000  0.03073959
   0.13862612  0.25000000  0.51775864
   0.36137388  0.75000000  0.01775864
   0.86137388  0.75000000  0.48224136
   0.63862612  0.25000000  0.98224136
   0.99499839  0.25000000  0.27863829
   0.50500161  0.75000000  0.77863829
   0.00500161  0.75000000  0.72136171
   0.49499839  0.25000000  0.22136171
   0.92864293  0.25000000  0.61795512
   0.57135707  0.75000000  0.11795512
   0.07135707  0.75000000  0.38204488
   0.42864293  0.25000000  0.88204488
   0.38959032  0.25000000  0.40263177
   0.11040968  0.75000000  0.90263177
   0.61040968  0.75000000  0.59736823
   0.88959032  0.25000000  0.09736823
   0.77431714  0.25000000  0.35278948
   0.72568286  0.75000000  0.85278948
   0.22568286  0.75000000  0.64721052
   0.27431714  0.25000000  0.14721052
