SYSTEM = Al4C3 Pbam - 800eV/0.05 H(P) scan @ 70 GPa, r2SCAN (ISIF=8)

# electronic
PREC    = Accurate
ENCUT   = 800
EDIFF   = 1E-5
ISMEAR  = 0
SIGMA   = 0.05

# meta-GGA: r2SCAN, restarting from the PBE WAVECAR/CHGCAR at this same
# pressure (previous step in the chain) -- VASP's recommended way to get
# robust meta-GGA SCF convergence
METAGGA  = R2scan
LASPH    = .TRUE.
ADDGRID  = .TRUE.
LMIXTAU  = .TRUE.
ISTART   = 1
ICHARG   = 1

# k-points (same finer mesh as the PBE step, for a like-for-like comparison)
KSPACING = 0.05
KGAMMA   = .TRUE.

# ionic + volume relaxation under external pressure, cell shape fixed
IBRION  = 2
ISIF    = 8
NSW     = 200
EDIFFG  = -0.01
PSTRESS = 700.0        ! kBar = 70 GPa

# parallelization (per earlier benchmark: KPAR>1 outperforms NPAR>1)
KPAR    = 8

# output
LWAVE   = .TRUE.
LCHARG  = .TRUE.
