  28  28   0   0
  0.8916262E+01  0.6296709E-09  0.6296709E-09  0.6296709E-09  0.5000000E-15
  1.000000000000000E-004
  CAR 
 Al4C3 I-43d - r2SCAN H(P) scan @ 20 GPa 
     18.88564930     -6.79035744  301     11.70171658      1.00000000
     -6.790  0.0000E+00  0.0000E+00
     -6.705  0.0000E+00  0.0000E+00
     -6.619  0.0000E+00  0.0000E+00
     -6.534  0.0000E+00  0.0000E+00
     -6.448  0.0000E+00  0.0000E+00
     -6.362  0.0000E+00  0.0000E+00
     -6.277  0.0000E+00  0.0000E+00
     -6.191  0.0000E+00  0.0000E+00
     -6.106  0.0000E+00  0.0000E+00
     -6.020  0.0000E+00  0.0000E+00
     -5.934  0.0000E+00  0.0000E+00
     -5.849  0.8169E-13  0.6992E-14
     -5.763  0.3485E-07  0.2982E-08
     -5.678  0.5766E-04  0.4938E-05
     -5.592  0.7070E-03  0.6545E-04
     -5.507  0.1702E-02  0.2112E-03
     -5.421  0.4098E-02  0.5619E-03
     -5.335  0.7129E-02  0.1172E-02
     -5.250  0.5053E-02  0.1605E-02
     -5.164  0.5827E-02  0.2103E-02
     -5.079  0.3205E-02  0.2378E-02
     -4.993  0.4419E-02  0.2756E-02
     -4.907  0.1693E-01  0.4205E-02
     -4.822  0.1104E-01  0.5150E-02
     -4.736  0.1493E-01  0.6427E-02
     -4.651  0.6249E-03  0.6481E-02
     -4.565  0.2307E-02  0.6678E-02
     -4.480  0.8725E-02  0.7425E-02
     -4.394  0.1711E-01  0.8889E-02
     -4.308  0.1411E-01  0.1010E-01
     -4.223  0.1758E-01  0.1160E-01
     -4.137  0.1352E-01  0.1276E-01
     -4.052  0.1154E-01  0.1375E-01
     -3.966  0.6090E-02  0.1427E-01
     -3.880  0.1153E-01  0.1525E-01
     -3.795  0.1627E-01  0.1665E-01
     -3.709  0.3490E-01  0.1963E-01
     -3.624  0.5204E-02  0.2008E-01
     -3.538  0.4808E-03  0.2012E-01
     -3.452  0.4774E-02  0.2053E-01
     -3.367  0.2424E-01  0.2260E-01
     -3.281  0.2555E-01  0.2479E-01
     -3.196  0.2653E-01  0.2706E-01
     -3.110  0.1777E-01  0.2858E-01
     -3.025  0.1220E-01  0.2963E-01
     -2.939  0.1881E-01  0.3124E-01
     -2.853  0.3328E-01  0.3408E-01
     -2.768  0.2299E-01  0.3605E-01
     -2.682  0.9572E-02  0.3687E-01
     -2.597  0.1281E-02  0.3698E-01
     -2.511  0.1657E-01  0.3840E-01
     -2.425  0.1438E-01  0.3963E-01
     -2.340  0.2961E-01  0.4216E-01
     -2.254  0.4764E-01  0.4624E-01
     -2.169  0.2716E-01  0.4857E-01
     -2.083  0.1326E-01  0.4970E-01
     -1.998  0.3857E-01  0.5300E-01
     -1.912  0.2889E-01  0.5547E-01
     -1.826  0.3844E-01  0.5876E-01
     -1.741  0.5680E-02  0.5925E-01
     -1.655  0.3149E-01  0.6195E-01
     -1.570  0.4875E-01  0.6612E-01
     -1.484  0.5346E-01  0.7069E-01
     -1.398  0.4894E-01  0.7488E-01
     -1.313  0.1863E-01  0.7648E-01
     -1.227  0.2061E-01  0.7824E-01
     -1.142  0.3255E-01  0.8103E-01
     -1.056  0.2879E-01  0.8349E-01
     -0.970  0.1269E-01  0.8458E-01
     -0.885  0.2743E-01  0.8692E-01
     -0.799  0.3212E-02  0.8720E-01
     -0.714  0.6731E-02  0.8778E-01
     -0.628  0.3770E-01  0.9100E-01
     -0.543  0.6123E-02  0.9153E-01
     -0.457  0.1088E-01  0.9246E-01
     -0.371  0.3844E-01  0.9575E-01
     -0.286  0.4577E-01  0.9966E-01
     -0.200  0.4998E-01  0.1039E+00
     -0.115  0.5298E-01  0.1085E+00
     -0.029  0.2053E-01  0.1102E+00
      0.057  0.6055E-01  0.1154E+00
      0.142  0.2333E-01  0.1174E+00
      0.228  0.3186E-03  0.1174E+00
      0.313  0.4960E-03  0.1175E+00
      0.399  0.1317E-01  0.1186E+00
      0.485  0.1534E-01  0.1199E+00
      0.570  0.9020E-03  0.1200E+00
      0.656  0.5070E-06  0.1200E+00
      0.741  0.1126E-11  0.1200E+00
      0.827  0.0000E+00  0.1200E+00
      0.912  0.0000E+00  0.1200E+00
      0.998  0.0000E+00  0.1200E+00
      1.084  0.0000E+00  0.1200E+00
      1.169  0.0000E+00  0.1200E+00
      1.255  0.0000E+00  0.1200E+00
      1.340  0.0000E+00  0.1200E+00
      1.426  0.0000E+00  0.1200E+00
      1.512  0.0000E+00  0.1200E+00
      1.597  0.0000E+00  0.1200E+00
      1.683  0.0000E+00  0.1200E+00
      1.768  0.0000E+00  0.1200E+00
      1.854  0.0000E+00  0.1200E+00
      1.939  0.5170E-11  0.1200E+00
      2.025  0.1552E-05  0.1200E+00
      2.111  0.1843E-02  0.1202E+00
      2.196  0.1753E-01  0.1217E+00
      2.282  0.1881E-01  0.1233E+00
      2.367  0.1706E-01  0.1247E+00
      2.453  0.4708E-01  0.1288E+00
      2.539  0.3253E-01  0.1315E+00
      2.624  0.3625E-01  0.1346E+00
      2.710  0.1903E-01  0.1363E+00
      2.795  0.2172E-01  0.1381E+00
      2.881  0.4611E-01  0.1421E+00
      2.967  0.5592E-01  0.1469E+00
      3.052  0.2294E-01  0.1488E+00
      3.138  0.2651E-01  0.1511E+00
      3.223  0.3073E-01  0.1537E+00
      3.309  0.2389E-01  0.1558E+00
      3.394  0.2004E-01  0.1575E+00
      3.480  0.1706E-01  0.1589E+00
      3.566  0.2257E-01  0.1609E+00
      3.651  0.4982E-01  0.1651E+00
      3.737  0.5791E-01  0.1701E+00
      3.822  0.1786E-01  0.1716E+00
      3.908  0.1024E-01  0.1725E+00
      3.994  0.2700E-01  0.1748E+00
      4.079  0.2032E-01  0.1766E+00
      4.165  0.3598E-01  0.1796E+00
      4.250  0.7620E-01  0.1862E+00
      4.336  0.9254E-01  0.1941E+00
      4.421  0.6184E-01  0.1994E+00
      4.507  0.1533E-01  0.2007E+00
      4.593  0.4005E-02  0.2010E+00
      4.678  0.3092E-01  0.2037E+00
      4.764  0.3558E-01  0.2067E+00
      4.849  0.3637E-01  0.2098E+00
      4.935  0.4992E-01  0.2141E+00
      5.021  0.3980E-01  0.2175E+00
      5.106  0.1150E-01  0.2185E+00
      5.192  0.2020E-01  0.2202E+00
      5.277  0.4609E-01  0.2242E+00
      5.363  0.3278E-01  0.2270E+00
      5.449  0.3280E-01  0.2298E+00
      5.534  0.3982E-01  0.2332E+00
      5.620  0.2867E-01  0.2356E+00
      5.705  0.1284E-01  0.2367E+00
      5.791  0.2503E-01  0.2389E+00
      5.876  0.6088E-01  0.2441E+00
      5.962  0.2968E-01  0.2466E+00
      6.048  0.4184E-01  0.2502E+00
      6.133  0.5322E-01  0.2548E+00
      6.219  0.6823E-01  0.2606E+00
      6.304  0.6181E-01  0.2659E+00
      6.390  0.2795E-01  0.2683E+00
      6.476  0.2556E-01  0.2705E+00
      6.561  0.6843E-01  0.2763E+00
      6.647  0.3903E-01  0.2797E+00
      6.732  0.3724E-01  0.2829E+00
      6.818  0.2710E-01  0.2852E+00
      6.904  0.2372E-01  0.2872E+00
      6.989  0.5332E-01  0.2918E+00
      7.075  0.6632E-01  0.2974E+00
      7.160  0.5685E-01  0.3023E+00
      7.246  0.2357E-01  0.3043E+00
      7.331  0.9968E-02  0.3052E+00
      7.417  0.4537E-01  0.3091E+00
      7.503  0.7443E-01  0.3154E+00
      7.588  0.4664E-01  0.3194E+00
      7.674  0.4793E-02  0.3198E+00
      7.759  0.2268E-01  0.3218E+00
      7.845  0.3289E-01  0.3246E+00
      7.931  0.5140E-01  0.3290E+00
      8.016  0.3220E-01  0.3317E+00
      8.102  0.1785E-01  0.3333E+00
      8.187  0.5848E-01  0.3383E+00
      8.273  0.7779E-01  0.3449E+00
      8.358  0.4266E-01  0.3486E+00
      8.444  0.3758E-01  0.3518E+00
      8.530  0.3927E-01  0.3552E+00
      8.615  0.3214E-01  0.3579E+00
      8.701  0.5048E-01  0.3622E+00
      8.786  0.6026E-01  0.3674E+00
      8.872  0.3797E-01  0.3706E+00
      8.958  0.3334E-01  0.3735E+00
      9.043  0.3090E-01  0.3761E+00
      9.129  0.6781E-01  0.3819E+00
      9.214  0.3133E-01  0.3846E+00
      9.300  0.3268E-01  0.3874E+00
      9.386  0.2284E-01  0.3894E+00
      9.471  0.9118E-01  0.3972E+00
      9.557  0.8464E-01  0.4044E+00
      9.642  0.7599E-01  0.4109E+00
      9.728  0.3755E-01  0.4141E+00
      9.813  0.4724E-01  0.4182E+00
      9.899  0.3807E-01  0.4214E+00
      9.985  0.4469E-01  0.4253E+00
     10.070  0.1298E-01  0.4264E+00
     10.156  0.8741E-02  0.4271E+00
     10.241  0.2110E-01  0.4289E+00
     10.327  0.7190E-01  0.4351E+00
     10.413  0.8047E-01  0.4420E+00
     10.498  0.6013E-01  0.4471E+00
     10.584  0.3096E-01  0.4498E+00
     10.669  0.7125E-01  0.4559E+00
     10.755  0.1378E+00  0.4677E+00
     10.841  0.7064E-01  0.4737E+00
     10.926  0.3379E-01  0.4766E+00
     11.012  0.1408E-01  0.4778E+00
     11.097  0.1050E-01  0.4787E+00
     11.183  0.1106E-02  0.4788E+00
     11.268  0.2650E-02  0.4790E+00
     11.354  0.8071E-02  0.4797E+00
     11.440  0.1491E-02  0.4798E+00
     11.525  0.1745E-02  0.4800E+00
     11.611  0.5563E-04  0.4800E+00
     11.696  0.1058E-07  0.4800E+00
     11.782  0.7367E-14  0.4800E+00
     11.868  0.0000E+00  0.4800E+00
     11.953  0.0000E+00  0.4800E+00
     12.039  0.0000E+00  0.4800E+00
     12.124  0.0000E+00  0.4800E+00
     12.210  0.0000E+00  0.4800E+00
     12.295  0.0000E+00  0.4800E+00
     12.381  0.0000E+00  0.4800E+00
     12.467  0.0000E+00  0.4800E+00
     12.552  0.0000E+00  0.4800E+00
     12.638  0.0000E+00  0.4800E+00
     12.723  0.0000E+00  0.4800E+00
     12.809  0.0000E+00  0.4800E+00
     12.895  0.0000E+00  0.4800E+00
     12.980  0.0000E+00  0.4800E+00
     13.066  0.0000E+00  0.4800E+00
     13.151  0.0000E+00  0.4800E+00
     13.237  0.0000E+00  0.4800E+00
     13.323  0.3487E-14  0.4800E+00
     13.408  0.8846E-08  0.4800E+00
     13.494  0.8048E-04  0.4800E+00
     13.579  0.4062E-02  0.4804E+00
     13.665  0.1040E-01  0.4812E+00
     13.750  0.2622E-01  0.4835E+00
     13.836  0.1878E-01  0.4851E+00
     13.922  0.4165E-02  0.4855E+00
     14.007  0.2539E-01  0.4876E+00
     14.093  0.5384E-01  0.4922E+00
     14.178  0.3994E-01  0.4957E+00
     14.264  0.5136E-01  0.5000E+00
     14.350  0.6258E-01  0.5054E+00
     14.435  0.6275E-01  0.5108E+00
     14.521  0.2879E-01  0.5132E+00
     14.606  0.2286E-01  0.5152E+00
     14.692  0.2742E-01  0.5175E+00
     14.777  0.7622E-01  0.5241E+00
     14.863  0.1537E-01  0.5254E+00
     14.949  0.3094E-01  0.5280E+00
     15.034  0.7224E-01  0.5342E+00
     15.120  0.6815E-01  0.5400E+00
     15.205  0.5183E-01  0.5445E+00
     15.291  0.7444E-01  0.5509E+00
     15.377  0.3179E-01  0.5536E+00
     15.462  0.1733E-01  0.5551E+00
     15.548  0.2481E-01  0.5572E+00
     15.633  0.3324E-01  0.5600E+00
     15.719  0.4659E-01  0.5640E+00
     15.805  0.3704E-01  0.5672E+00
     15.890  0.9897E-01  0.5757E+00
     15.976  0.8683E-01  0.5831E+00
     16.061  0.7490E-01  0.5895E+00
     16.147  0.8774E-01  0.5970E+00
     16.232  0.5388E-01  0.6016E+00
     16.318  0.4221E-01  0.6052E+00
     16.404  0.3429E-01  0.6082E+00
     16.489  0.4370E-01  0.6119E+00
     16.575  0.3777E-01  0.6151E+00
     16.660  0.3732E-01  0.6183E+00
     16.746  0.2355E-01  0.6203E+00
     16.832  0.3614E-01  0.6234E+00
     16.917  0.3845E-01  0.6267E+00
     17.003  0.5953E-01  0.6318E+00
     17.088  0.4662E-01  0.6358E+00
     17.174  0.7576E-01  0.6423E+00
     17.260  0.4756E-01  0.6464E+00
     17.345  0.1513E-01  0.6477E+00
     17.431  0.2970E-01  0.6502E+00
     17.516  0.6486E-01  0.6558E+00
     17.602  0.2046E-01  0.6575E+00
     17.687  0.1881E-01  0.6591E+00
     17.773  0.9616E-02  0.6599E+00
     17.859  0.6925E-03  0.6600E+00
     17.944  0.4182E-06  0.6600E+00
     18.030  0.9803E-12  0.6600E+00
     18.115  0.0000E+00  0.6600E+00
     18.201  0.0000E+00  0.6600E+00
     18.287  0.0000E+00  0.6600E+00
     18.372  0.0000E+00  0.6600E+00
     18.458  0.0000E+00  0.6600E+00
     18.543  0.0000E+00  0.6600E+00
     18.629  0.0000E+00  0.6600E+00
     18.714  0.0000E+00  0.6600E+00
     18.800  0.0000E+00  0.6600E+00
     18.886  0.0000E+00  0.6600E+00
