  28  28   0   0
  0.7180246E+01  0.5858222E-09  0.5858222E-09  0.5858222E-09  0.5000000E-15
  1.000000000000000E-004
  CAR 
 Al4C3 I-43d - relax @ 50 GPa (ISIF=8)   
     19.92600003     -5.49971482  301     12.81209690      1.00000000
     -5.500  0.0000E+00  0.0000E+00
     -5.415  0.0000E+00  0.0000E+00
     -5.330  0.0000E+00  0.0000E+00
     -5.245  0.0000E+00  0.0000E+00
     -5.161  0.0000E+00  0.0000E+00
     -5.076  0.0000E+00  0.0000E+00
     -4.991  0.0000E+00  0.0000E+00
     -4.906  0.0000E+00  0.0000E+00
     -4.822  0.0000E+00  0.0000E+00
     -4.737  0.0000E+00  0.0000E+00
     -4.652  0.0000E+00  0.0000E+00
     -4.567  0.5040E-14  0.4272E-15
     -4.483  0.3121E-08  0.2645E-09
     -4.398  0.1149E-04  0.9741E-06
     -4.313  0.6026E-03  0.5204E-04
     -4.228  0.2425E-02  0.2576E-03
     -4.144  0.3745E-02  0.5750E-03
     -4.059  0.4682E-02  0.9718E-03
     -3.974  0.5463E-02  0.1435E-02
     -3.889  0.6151E-02  0.1956E-02
     -3.805  0.6776E-02  0.2530E-02
     -3.720  0.7355E-02  0.3154E-02
     -3.635  0.7897E-02  0.3823E-02
     -3.550  0.8409E-02  0.4536E-02
     -3.466  0.8897E-02  0.5290E-02
     -3.381  0.9369E-02  0.6084E-02
     -3.296  0.9831E-02  0.6917E-02
     -3.211  0.1028E-01  0.7788E-02
     -3.127  0.1069E-01  0.8694E-02
     -3.042  0.1109E-01  0.9634E-02
     -2.957  0.1154E-01  0.1061E-01
     -2.872  0.1195E-01  0.1163E-01
     -2.788  0.1229E-01  0.1267E-01
     -2.703  0.1271E-01  0.1374E-01
     -2.618  0.1314E-01  0.1486E-01
     -2.533  0.1343E-01  0.1600E-01
     -2.449  0.1390E-01  0.1718E-01
     -2.364  0.1427E-01  0.1838E-01
     -2.279  0.1458E-01  0.1962E-01
     -2.194  0.1509E-01  0.2090E-01
     -2.110  0.1530E-01  0.2220E-01
     -2.025  0.1582E-01  0.2354E-01
     -1.940  0.1614E-01  0.2491E-01
     -1.855  0.1656E-01  0.2631E-01
     -1.771  0.1698E-01  0.2775E-01
     -1.686  0.1725E-01  0.2921E-01
     -1.601  0.1783E-01  0.3072E-01
     -1.516  0.1809E-01  0.3225E-01
     -1.432  0.1872E-01  0.3384E-01
     -1.347  0.1887E-01  0.3544E-01
     -1.262  0.1962E-01  0.3710E-01
     -1.177  0.1987E-01  0.3879E-01
     -1.093  0.2062E-01  0.4053E-01
     -1.008  0.2080E-01  0.4230E-01
     -0.923  0.2172E-01  0.4414E-01
     -0.838  0.2203E-01  0.4601E-01
     -0.754  0.2293E-01  0.4795E-01
     -0.669  0.2332E-01  0.4993E-01
     -0.584  0.2450E-01  0.5200E-01
     -0.499  0.2507E-01  0.5413E-01
     -0.415  0.2635E-01  0.5636E-01
     -0.330  0.2742E-01  0.5868E-01
     -0.245  0.2936E-01  0.6117E-01
     -0.160  0.3139E-01  0.6383E-01
     -0.076  0.3545E-01  0.6684E-01
      0.009  0.4237E-01  0.7043E-01
      0.094  0.4374E-01  0.7413E-01
      0.179  0.4041E-01  0.7756E-01
      0.263  0.2965E-01  0.8007E-01
      0.348  0.1917E-01  0.8170E-01
      0.433  0.1577E-01  0.8303E-01
      0.518  0.1432E-01  0.8425E-01
      0.602  0.1331E-01  0.8537E-01
      0.687  0.1270E-01  0.8645E-01
      0.772  0.1282E-01  0.8754E-01
      0.857  0.1483E-01  0.8879E-01
      0.941  0.1924E-01  0.9042E-01
      1.026  0.2683E-01  0.9270E-01
      1.111  0.3206E-01  0.9542E-01
      1.196  0.3076E-01  0.9802E-01
      1.280  0.3322E-01  0.1008E+00
      1.365  0.4017E-01  0.1042E+00
      1.450  0.4369E-01  0.1079E+00
      1.535  0.4127E-01  0.1114E+00
      1.619  0.2813E-01  0.1138E+00
      1.704  0.1829E-01  0.1154E+00
      1.789  0.1369E-01  0.1165E+00
      1.874  0.1137E-01  0.1175E+00
      1.958  0.9425E-02  0.1183E+00
      2.043  0.7660E-02  0.1189E+00
      2.128  0.5976E-02  0.1195E+00
      2.213  0.4227E-02  0.1198E+00
      2.298  0.1996E-02  0.1200E+00
      2.382  0.1991E-03  0.1200E+00
      2.467  0.7005E-06  0.1200E+00
      2.552  0.2181E-10  0.1200E+00
      2.637  0.3383E-17  0.1200E+00
      2.721  0.0000E+00  0.1200E+00
      2.806  0.2265E-16  0.1200E+00
      2.891  0.9359E-10  0.1200E+00
      2.976  0.1981E-05  0.1200E+00
      3.060  0.4032E-03  0.1200E+00
      3.145  0.3410E-02  0.1203E+00
      3.230  0.7315E-02  0.1209E+00
      3.315  0.1698E-01  0.1224E+00
      3.399  0.3604E-01  0.1254E+00
      3.484  0.3433E-01  0.1283E+00
      3.569  0.2873E-01  0.1308E+00
      3.654  0.2330E-01  0.1328E+00
      3.738  0.2204E-01  0.1346E+00
      3.823  0.2804E-01  0.1370E+00
      3.908  0.3053E-01  0.1396E+00
      3.993  0.3167E-01  0.1423E+00
      4.077  0.3530E-01  0.1453E+00
      4.162  0.4016E-01  0.1487E+00
      4.247  0.3370E-01  0.1515E+00
      4.332  0.2807E-01  0.1539E+00
      4.416  0.2582E-01  0.1561E+00
      4.501  0.2466E-01  0.1582E+00
      4.586  0.2415E-01  0.1602E+00
      4.671  0.2442E-01  0.1623E+00
      4.755  0.2503E-01  0.1644E+00
      4.840  0.2973E-01  0.1669E+00
      4.925  0.4205E-01  0.1705E+00
      5.010  0.4235E-01  0.1741E+00
      5.094  0.3643E-01  0.1772E+00
      5.179  0.3645E-01  0.1803E+00
      5.264  0.4108E-01  0.1837E+00
      5.349  0.4235E-01  0.1873E+00
      5.433  0.3903E-01  0.1906E+00
      5.518  0.3648E-01  0.1937E+00
      5.603  0.3621E-01  0.1968E+00
      5.688  0.3693E-01  0.1999E+00
      5.772  0.3679E-01  0.2031E+00
      5.857  0.3625E-01  0.2061E+00
      5.942  0.3368E-01  0.2090E+00
      6.027  0.3139E-01  0.2116E+00
      6.111  0.3108E-01  0.2143E+00
      6.196  0.3226E-01  0.2170E+00
      6.281  0.3127E-01  0.2197E+00
      6.366  0.3136E-01  0.2223E+00
      6.450  0.3220E-01  0.2250E+00
      6.535  0.3468E-01  0.2280E+00
      6.620  0.3479E-01  0.2309E+00
      6.705  0.3394E-01  0.2338E+00
      6.789  0.3434E-01  0.2367E+00
      6.874  0.3543E-01  0.2397E+00
      6.959  0.3595E-01  0.2428E+00
      7.044  0.3514E-01  0.2457E+00
      7.128  0.3660E-01  0.2489E+00
      7.213  0.3616E-01  0.2519E+00
      7.298  0.4402E-01  0.2556E+00
      7.383  0.4792E-01  0.2597E+00
      7.467  0.4636E-01  0.2636E+00
      7.552  0.4879E-01  0.2678E+00
      7.637  0.5367E-01  0.2723E+00
      7.722  0.4707E-01  0.2763E+00
      7.806  0.4236E-01  0.2799E+00
      7.891  0.4207E-01  0.2835E+00
      7.976  0.3877E-01  0.2868E+00
      8.061  0.3597E-01  0.2898E+00
      8.145  0.3562E-01  0.2928E+00
      8.230  0.3964E-01  0.2962E+00
      8.315  0.3796E-01  0.2994E+00
      8.400  0.3552E-01  0.3024E+00
      8.484  0.3676E-01  0.3055E+00
      8.569  0.4151E-01  0.3090E+00
      8.654  0.5050E-01  0.3133E+00
      8.739  0.4724E-01  0.3173E+00
      8.823  0.2764E-01  0.3197E+00
      8.908  0.2438E-01  0.3217E+00
      8.993  0.3244E-01  0.3245E+00
      9.078  0.3673E-01  0.3276E+00
      9.162  0.3355E-01  0.3304E+00
      9.247  0.3460E-01  0.3334E+00
      9.332  0.4425E-01  0.3371E+00
      9.417  0.5844E-01  0.3421E+00
      9.501  0.5569E-01  0.3468E+00
      9.586  0.4269E-01  0.3504E+00
      9.671  0.4035E-01  0.3538E+00
      9.756  0.4386E-01  0.3575E+00
      9.840  0.4413E-01  0.3613E+00
      9.925  0.4185E-01  0.3648E+00
     10.010  0.4348E-01  0.3685E+00
     10.095  0.4846E-01  0.3726E+00
     10.179  0.4474E-01  0.3764E+00
     10.264  0.4040E-01  0.3798E+00
     10.349  0.4226E-01  0.3834E+00
     10.434  0.5602E-01  0.3882E+00
     10.518  0.6130E-01  0.3934E+00
     10.603  0.6097E-01  0.3985E+00
     10.688  0.5932E-01  0.4036E+00
     10.773  0.5004E-01  0.4078E+00
     10.857  0.4387E-01  0.4115E+00
     10.942  0.4165E-01  0.4151E+00
     11.027  0.3925E-01  0.4184E+00
     11.112  0.3662E-01  0.4215E+00
     11.197  0.3741E-01  0.4247E+00
     11.281  0.3992E-01  0.4280E+00
     11.366  0.4323E-01  0.4317E+00
     11.451  0.4228E-01  0.4353E+00
     11.536  0.4478E-01  0.4391E+00
     11.620  0.5260E-01  0.4435E+00
     11.705  0.6765E-01  0.4493E+00
     11.790  0.9524E-01  0.4573E+00
     11.875  0.1107E+00  0.4667E+00
     11.959  0.7016E-01  0.4727E+00
     12.044  0.3263E-01  0.4754E+00
     12.129  0.1539E-01  0.4767E+00
     12.214  0.1178E-01  0.4777E+00
     12.298  0.9335E-02  0.4785E+00
     12.383  0.7211E-02  0.4791E+00
     12.468  0.5389E-02  0.4796E+00
     12.553  0.3522E-02  0.4799E+00
     12.637  0.1210E-02  0.4800E+00
     12.722  0.5262E-04  0.4800E+00
     12.807  0.4818E-07  0.4800E+00
     12.892  0.3146E-12  0.4800E+00
     12.976  0.5054E-20  0.4800E+00
     13.061  0.0000E+00  0.4800E+00
     13.146  0.0000E+00  0.4800E+00
     13.231  0.0000E+00  0.4800E+00
     13.315  0.0000E+00  0.4800E+00
     13.400  0.0000E+00  0.4800E+00
     13.485  0.0000E+00  0.4800E+00
     13.570  0.0000E+00  0.4800E+00
     13.654  0.0000E+00  0.4800E+00
     13.739  0.0000E+00  0.4800E+00
     13.824  0.0000E+00  0.4800E+00
     13.909  0.0000E+00  0.4800E+00
     13.993  0.0000E+00  0.4800E+00
     14.078  0.0000E+00  0.4800E+00
     14.163  0.0000E+00  0.4800E+00
     14.248  0.0000E+00  0.4800E+00
     14.332  0.3738E-13  0.4800E+00
     14.417  0.1343E-07  0.4800E+00
     14.502  0.3048E-04  0.4800E+00
     14.587  0.1150E-02  0.4801E+00
     14.671  0.4138E-02  0.4805E+00
     14.756  0.6681E-02  0.4810E+00
     14.841  0.9281E-02  0.4818E+00
     14.926  0.1310E-01  0.4829E+00
     15.010  0.2456E-01  0.4850E+00
     15.095  0.4625E-01  0.4889E+00
     15.180  0.4733E-01  0.4929E+00
     15.265  0.5429E-01  0.4975E+00
     15.349  0.5109E-01  0.5019E+00
     15.434  0.4309E-01  0.5055E+00
     15.519  0.3675E-01  0.5086E+00
     15.604  0.3983E-01  0.5120E+00
     15.688  0.3917E-01  0.5153E+00
     15.773  0.3000E-01  0.5179E+00
     15.858  0.3611E-01  0.5209E+00
     15.943  0.4204E-01  0.5245E+00
     16.027  0.4316E-01  0.5281E+00
     16.112  0.5291E-01  0.5326E+00
     16.197  0.5993E-01  0.5377E+00
     16.282  0.5716E-01  0.5426E+00
     16.366  0.5046E-01  0.5468E+00
     16.451  0.4089E-01  0.5503E+00
     16.536  0.3965E-01  0.5537E+00
     16.621  0.4102E-01  0.5571E+00
     16.705  0.4191E-01  0.5607E+00
     16.790  0.4722E-01  0.5647E+00
     16.875  0.5583E-01  0.5694E+00
     16.960  0.5678E-01  0.5742E+00
     17.044  0.5797E-01  0.5791E+00
     17.129  0.6911E-01  0.5850E+00
     17.214  0.6543E-01  0.5905E+00
     17.299  0.5857E-01  0.5955E+00
     17.383  0.5582E-01  0.6002E+00
     17.468  0.5703E-01  0.6051E+00
     17.553  0.4565E-01  0.6089E+00
     17.638  0.3688E-01  0.6121E+00
     17.722  0.3670E-01  0.6152E+00
     17.807  0.3641E-01  0.6183E+00
     17.892  0.3182E-01  0.6210E+00
     17.977  0.2828E-01  0.6234E+00
     18.061  0.3188E-01  0.6261E+00
     18.146  0.3764E-01  0.6292E+00
     18.231  0.3611E-01  0.6323E+00
     18.316  0.3353E-01  0.6351E+00
     18.400  0.2509E-01  0.6373E+00
     18.485  0.1607E-01  0.6386E+00
     18.570  0.8711E-02  0.6394E+00
     18.655  0.4064E-02  0.6397E+00
     18.739  0.2579E-02  0.6399E+00
     18.824  0.7013E-03  0.6400E+00
     18.909  0.1469E-04  0.6400E+00
     18.994  0.4628E-08  0.6400E+00
     19.078  0.8483E-14  0.6400E+00
     19.163  0.0000E+00  0.6400E+00
     19.248  0.0000E+00  0.6400E+00
     19.333  0.0000E+00  0.6400E+00
     19.417  0.0000E+00  0.6400E+00
     19.502  0.0000E+00  0.6400E+00
     19.587  0.0000E+00  0.6400E+00
     19.672  0.0000E+00  0.6400E+00
     19.756  0.0000E+00  0.6400E+00
     19.841  0.0000E+00  0.6400E+00
     19.926  0.0000E+00  0.6400E+00
