       N       E                     dE             d eps       ncg     rms          rms(c)
DAV:   1     0.364491867409E+03    0.36449E+03   -0.48550E+04170240   0.155E+03
DAV:   2    -0.135622811555E+03   -0.50011E+03   -0.47022E+03213312   0.258E+02
DAV:   3    -0.165877096370E+03   -0.30254E+02   -0.29915E+02204056   0.597E+01
DAV:   4    -0.166356339731E+03   -0.47924E+00   -0.47703E+00204328   0.806E+00
DAV:   5    -0.166364693005E+03   -0.83533E-02   -0.83484E-02199576   0.103E+00    0.275E+01
DAV:   6    -0.144123573056E+03    0.22241E+02   -0.63991E+01192624   0.238E+01    0.998E+00
DAV:   7    -0.143164779767E+03    0.95879E+00   -0.50919E+00207912   0.696E+00    0.573E+00
DAV:   8    -0.143008952919E+03    0.15583E+00   -0.23802E-01193952   0.191E+00    0.848E-01
DAV:   9    -0.142998195750E+03    0.10757E-01   -0.35876E-02201104   0.590E-01    0.302E-01
DAV:  10    -0.142998206059E+03   -0.10308E-04   -0.32121E-03203552   0.183E-01    0.131E-01
DAV:  11    -0.142998114449E+03    0.91610E-04   -0.32950E-04201072   0.575E-02    0.343E-02
DAV:  12    -0.142998113728E+03    0.72052E-06   -0.40526E-06115432   0.910E-03
   1 F= -.80256340E+02 E0= -.80256340E+02  d E =-.802563E+02
       N       E                     dE             d eps       ncg     rms          rms(c)
DAV:   1    -0.166314464402E+03   -0.23316E+02   -0.23103E+02187488   0.571E+01    0.164E+01
DAV:   2    -0.160395906621E+03    0.59186E+01   -0.19656E+01199672   0.136E+01    0.644E+00
DAV:   3    -0.160146995790E+03    0.24891E+00   -0.14308E+00203304   0.356E+00    0.231E+00
DAV:   4    -0.160058551674E+03    0.88444E-01   -0.15363E-01202976   0.109E+00    0.763E-01
DAV:   5    -0.160045696737E+03    0.12855E-01   -0.44837E-02199448   0.588E-01    0.370E-01
DAV:   6    -0.160044369186E+03    0.13276E-02   -0.33230E-03200056   0.177E-01    0.173E-01
DAV:   7    -0.160044261254E+03    0.10793E-03   -0.10998E-03200240   0.931E-02    0.228E-02
DAV:   8    -0.160044258663E+03    0.25914E-05   -0.24428E-05139376   0.169E-02
   2 F= -.74688586E+02 E0= -.74688586E+02  d E =0.556775E+01
       N       E                     dE             d eps       ncg     rms          rms(c)
DAV:   1    -0.156700837658E+03    0.33434E+01   -0.10262E+02185512   0.434E+01    0.101E+01
DAV:   2    -0.154556506754E+03    0.21443E+01   -0.64705E+00198632   0.830E+00    0.452E+00
DAV:   3    -0.154397630907E+03    0.15888E+00   -0.65083E-01197416   0.252E+00    0.145E+00
DAV:   4    -0.154364695577E+03    0.32935E-01   -0.46500E-02199424   0.642E-01    0.527E-01
DAV:   5    -0.154359804009E+03    0.48916E-02   -0.81758E-03198264   0.284E-01    0.310E-01
DAV:   6    -0.154359520507E+03    0.28350E-03   -0.61479E-04199424   0.776E-02    0.783E-02
DAV:   7    -0.154359487420E+03    0.33087E-04   -0.21934E-04196720   0.440E-02    0.146E-02
DAV:   8    -0.154359487679E+03   -0.25965E-06   -0.43595E-06114088   0.769E-03
   3 F= -.83687449E+02 E0= -.83687449E+02  d E =-.343111E+01
       N       E                     dE             d eps       ncg     rms          rms(c)
DAV:   1    -0.153960227212E+03    0.39926E+00   -0.89242E-02187392   0.125E+00    0.311E-01
DAV:   2    -0.153958261904E+03    0.19653E-02   -0.57806E-03199744   0.246E-01    0.137E-01
DAV:   3    -0.153958145176E+03    0.11673E-03   -0.58339E-04199248   0.744E-02    0.437E-02
DAV:   4    -0.153958126745E+03    0.18431E-04   -0.42723E-05173328   0.195E-02    0.148E-02
DAV:   5    -0.153958128427E+03   -0.16827E-05   -0.73927E-06107704   0.904E-03
   4 F= -.83698007E+02 E0= -.83698007E+02  d E =-.344167E+01
       N       E                     dE             d eps       ncg     rms          rms(c)
DAV:   1    -0.153918947201E+03    0.39180E-01   -0.81279E-04189080   0.118E-01    0.268E-02
DAV:   2    -0.153918934758E+03    0.12443E-04   -0.46133E-05192680   0.223E-02    0.109E-02
DAV:   3    -0.153918935472E+03   -0.71473E-06   -0.44490E-06100152   0.678E-03
   5 F= -.83698095E+02 E0= -.83698095E+02  d E =-.344176E+01
       N       E                     dE             d eps       ncg     rms          rms(c)
DAV:   1    -0.154024942342E+03   -0.10601E+00   -0.31505E-01171320   0.219E+00    0.226E-01
DAV:   2    -0.154023883817E+03    0.10585E-02   -0.80786E-03205256   0.337E-01    0.104E-01
DAV:   3    -0.154023757051E+03    0.12677E-03   -0.73142E-04203512   0.905E-02    0.532E-02
DAV:   4    -0.154023748851E+03    0.81996E-05   -0.10268E-04202056   0.327E-02    0.191E-02
DAV:   5    -0.154023746706E+03    0.21454E-05   -0.14065E-05115872   0.132E-02
   6 F= -.83741446E+02 E0= -.83741446E+02  d E =-.433504E-01
       N       E                     dE             d eps       ncg     rms          rms(c)
DAV:   1    -0.154133822588E+03   -0.11007E+00   -0.60891E-01171024   0.305E+00    0.321E-01
DAV:   2    -0.154131596948E+03    0.22256E-02   -0.15879E-02205440   0.470E-01    0.144E-01
DAV:   3    -0.154131354025E+03    0.24292E-03   -0.15026E-03203408   0.129E-01    0.741E-02
DAV:   4    -0.154131338964E+03    0.15061E-04   -0.21072E-04202304   0.464E-02    0.276E-02
DAV:   5    -0.154131334634E+03    0.43298E-05   -0.29671E-05130264   0.190E-02
   7 F= -.83763605E+02 E0= -.83763605E+02  d E =-.655093E-01
