Al4C3 I-43d polymorph (findsym-output, from 100 GPa structure) - relax @ 50 GPa
1.0
        5.8582215309         0.0000000000         0.0000000000
        0.0000000000         5.8582215309         0.0000000000
        0.0000000000         0.0000000000         5.8582215309
   Al    C
   16   12
Direct
     0.316229999         0.316229999         0.316229999
     0.183770001         0.683770001         0.816229999
     0.683770001         0.816229999         0.183770001
     0.816229999         0.183770001         0.683770001
     0.566229999         0.566229999         0.566229999
     0.933770001         0.433770001         0.066229999
     0.066229999         0.933770001         0.433770001
     0.433770001         0.066229999         0.933770001
     0.816229999         0.816229999         0.816229999
     0.683770001         0.183770001         0.316229999
     0.183770001         0.316229999         0.683770001
     0.316229999         0.683770001         0.183770001
     0.066229999         0.066229999         0.066229999
     0.433770001         0.933770001         0.566229999
     0.566229999         0.433770001         0.933770001
     0.933770001         0.566229999         0.433770001
     0.375000000         0.000000000         0.250000000
     0.125000000         0.000000000         0.750000000
     0.625000000         0.500000000         0.250000000
     0.875000000         0.500000000         0.750000000
     0.250000000         0.375000000         0.000000000
     0.750000000         0.125000000         0.000000000
     0.250000000         0.625000000         0.500000000
     0.750000000         0.875000000         0.500000000
     0.000000000         0.250000000         0.375000000
     0.000000000         0.750000000         0.125000000
     0.500000000         0.250000000         0.625000000
     0.500000000         0.750000000         0.875000000
