Al4C3 I-43d - relax @ 50 GPa (ISIF=8)   
           1
     5.858222    0.000000    0.000000
     0.000000    5.858222    0.000000
     0.000000    0.000000    5.858222
   Al   C 
    16    12
Direct configuration=     1
   0.31623000  0.31623000  0.31623000
   0.18377000  0.68377000  0.81623000
   0.68377000  0.81623000  0.18377000
   0.81623000  0.18377000  0.68377000
   0.56623000  0.56623000  0.56623000
   0.93377000  0.43377000  0.06623000
   0.06623000  0.93377000  0.43377000
   0.43377000  0.06623000  0.93377000
   0.81623000  0.81623000  0.81623000
   0.68377000  0.18377000  0.31623000
   0.18377000  0.31623000  0.68377000
   0.31623000  0.68377000  0.18377000
   0.06623000  0.06623000  0.06623000
   0.43377000  0.93377000  0.56623000
   0.56623000  0.43377000  0.93377000
   0.93377000  0.56623000  0.43377000
   0.37500000  0.00000000  0.25000000
   0.12500000  0.00000000  0.75000000
   0.62500000  0.50000000  0.25000000
   0.87500000  0.50000000  0.75000000
   0.25000000  0.37500000  0.00000000
   0.75000000  0.12500000  0.00000000
   0.25000000  0.62500000  0.50000000
   0.75000000  0.87500000  0.50000000
   0.00000000  0.25000000  0.37500000
   0.00000000  0.75000000  0.12500000
   0.50000000  0.25000000  0.62500000
   0.50000000  0.75000000  0.87500000
Al4C3 I-43d - relax @ 50 GPa (ISIF=8)   
           1
     6.491190    0.000000    0.000000
     0.000000    6.491190    0.000000
     0.000000    0.000000    6.491190
   Al   C 
    16    12
Direct configuration=     2
   0.31623127  0.31623127  0.31623127
   0.18376873  0.68376873  0.81623127
   0.68376873  0.81623127  0.18376873
   0.81623127  0.18376873  0.68376873
   0.56623127  0.56623127  0.56623127
   0.93376873  0.43376873  0.06623127
   0.06623127  0.93376873  0.43376873
   0.43376873  0.06623127  0.93376873
   0.81623127  0.81623127  0.81623127
   0.68376873  0.18376873  0.31623127
   0.18376873  0.31623127  0.68376873
   0.31623127  0.68376873  0.18376873
   0.06623127  0.06623127  0.06623127
   0.43376873  0.93376873  0.56623127
   0.56623127  0.43376873  0.93376873
   0.93376873  0.56623127  0.43376873
   0.37500000  0.00000000  0.25000000
   0.12500000  0.00000000  0.75000000
   0.62500000  0.50000000  0.25000000
   0.87500000  0.50000000  0.75000000
   0.25000000  0.37500000  0.00000000
   0.75000000  0.12500000  0.00000000
   0.25000000  0.62500000  0.50000000
   0.75000000  0.87500000  0.50000000
   0.00000000  0.25000000  0.37500000
   0.00000000  0.75000000  0.12500000
   0.50000000  0.25000000  0.62500000
   0.50000000  0.75000000  0.87500000
Al4C3 I-43d - relax @ 50 GPa (ISIF=8)   
           1
     6.095314    0.000000    0.000000
     0.000000    6.095314    0.000000
     0.000000    0.000000    6.095314
   Al   C 
    16    12
Direct configuration=     3
   0.31623055  0.31623055  0.31623055
   0.18376945  0.68376945  0.81623055
   0.68376945  0.81623055  0.18376945
   0.81623055  0.18376945  0.68376945
   0.56623055  0.56623055  0.56623055
   0.93376945  0.43376945  0.06623055
   0.06623055  0.93376945  0.43376945
   0.43376945  0.06623055  0.93376945
   0.81623055  0.81623055  0.81623055
   0.68376945  0.18376945  0.31623055
   0.18376945  0.31623055  0.68376945
   0.31623055  0.68376945  0.18376945
   0.06623055  0.06623055  0.06623055
   0.43376945  0.93376945  0.56623055
   0.56623055  0.43376945  0.93376945
   0.93376945  0.56623055  0.43376945
   0.37500000  0.00000000  0.25000000
   0.12500000  0.00000000  0.75000000
   0.62500000  0.50000000  0.25000000
   0.87500000  0.50000000  0.75000000
   0.25000000  0.37500000  0.00000000
   0.75000000  0.12500000  0.00000000
   0.25000000  0.62500000  0.50000000
   0.75000000  0.87500000  0.50000000
   0.00000000  0.25000000  0.37500000
   0.00000000  0.75000000  0.12500000
   0.50000000  0.25000000  0.62500000
   0.50000000  0.75000000  0.87500000
Al4C3 I-43d - relax @ 50 GPa (ISIF=8)   
           1
     6.083448    0.000000    0.000000
     0.000000    6.083448    0.000000
     0.000000    0.000000    6.083448
   Al   C 
    16    12
Direct configuration=     4
   0.31623053  0.31623053  0.31623053
   0.18376947  0.68376947  0.81623053
   0.68376947  0.81623053  0.18376947
   0.81623053  0.18376947  0.68376947
   0.56623053  0.56623053  0.56623053
   0.93376947  0.43376947  0.06623053
   0.06623053  0.93376947  0.43376947
   0.43376947  0.06623053  0.93376947
   0.81623053  0.81623053  0.81623053
   0.68376947  0.18376947  0.31623053
   0.18376947  0.31623053  0.68376947
   0.31623053  0.68376947  0.18376947
   0.06623053  0.06623053  0.06623053
   0.43376947  0.93376947  0.56623053
   0.56623053  0.43376947  0.93376947
   0.93376947  0.56623053  0.43376947
   0.37500000  0.00000000  0.25000000
   0.12500000  0.00000000  0.75000000
   0.62500000  0.50000000  0.25000000
   0.87500000  0.50000000  0.75000000
   0.25000000  0.37500000  0.00000000
   0.75000000  0.12500000  0.00000000
   0.25000000  0.62500000  0.50000000
   0.75000000  0.87500000  0.50000000
   0.00000000  0.25000000  0.37500000
   0.00000000  0.75000000  0.12500000
   0.50000000  0.25000000  0.62500000
   0.50000000  0.75000000  0.87500000
Al4C3 I-43d - relax @ 50 GPa (ISIF=8)   
           1
     6.082314    0.000000    0.000000
     0.000000    6.082314    0.000000
     0.000000    0.000000    6.082314
   Al   C 
    16    12
Direct configuration=     5
   0.31623053  0.31623053  0.31623053
   0.18376947  0.68376947  0.81623053
   0.68376947  0.81623053  0.18376947
   0.81623053  0.18376947  0.68376947
   0.56623053  0.56623053  0.56623053
   0.93376947  0.43376947  0.06623053
   0.06623053  0.93376947  0.43376947
   0.43376947  0.06623053  0.93376947
   0.81623053  0.81623053  0.81623053
   0.68376947  0.18376947  0.31623053
   0.18376947  0.31623053  0.68376947
   0.31623053  0.68376947  0.18376947
   0.06623053  0.06623053  0.06623053
   0.43376947  0.93376947  0.56623053
   0.56623053  0.43376947  0.93376947
   0.93376947  0.56623053  0.43376947
   0.37500000  0.00000000  0.25000000
   0.12500000  0.00000000  0.75000000
   0.62500000  0.50000000  0.25000000
   0.87500000  0.50000000  0.75000000
   0.25000000  0.37500000  0.00000000
   0.75000000  0.12500000  0.00000000
   0.25000000  0.62500000  0.50000000
   0.75000000  0.87500000  0.50000000
   0.00000000  0.25000000  0.37500000
   0.00000000  0.75000000  0.12500000
   0.50000000  0.25000000  0.62500000
   0.50000000  0.75000000  0.87500000
Al4C3 I-43d - relax @ 50 GPa (ISIF=8)   
           1
     6.084088    0.000000    0.000000
     0.000000    6.084088    0.000000
     0.000000    0.000000    6.084088
   Al   C 
    16    12
Direct configuration=     6
   0.31509171  0.31509171  0.31509171
   0.18490829  0.68490829  0.81509171
   0.68490829  0.81509171  0.18490829
   0.81509171  0.18490829  0.68490829
   0.56509171  0.56509171  0.56509171
   0.93490829  0.43490829  0.06509171
   0.06509171  0.93490829  0.43490829
   0.43490829  0.06509171  0.93490829
   0.81509171  0.81509171  0.81509171
   0.68490829  0.18490829  0.31509171
   0.18490829  0.31509171  0.68490829
   0.31509171  0.68490829  0.18490829
   0.06509171  0.06509171  0.06509171
   0.43490829  0.93490829  0.56509171
   0.56509171  0.43490829  0.93490829
   0.93490829  0.56509171  0.43490829
   0.37500000  0.00000000  0.25000000
   0.12500000  0.00000000  0.75000000
   0.62500000  0.50000000  0.25000000
   0.87500000  0.50000000  0.75000000
   0.25000000  0.37500000  0.00000000
   0.75000000  0.12500000  0.00000000
   0.25000000  0.62500000  0.50000000
   0.75000000  0.87500000  0.50000000
   0.00000000  0.25000000  0.37500000
   0.00000000  0.75000000  0.12500000
   0.50000000  0.25000000  0.62500000
   0.50000000  0.75000000  0.87500000
Al4C3 I-43d - relax @ 50 GPa (ISIF=8)   
           1
     6.086553    0.000000    0.000000
     0.000000    6.086553    0.000000
     0.000000    0.000000    6.086553
   Al   C 
    16    12
Direct configuration=     7
   0.31351034  0.31351034  0.31351034
   0.18648966  0.68648966  0.81351034
   0.68648966  0.81351034  0.18648966
   0.81351034  0.18648966  0.68648966
   0.56351034  0.56351034  0.56351034
   0.93648966  0.43648966  0.06351034
   0.06351034  0.93648966  0.43648966
   0.43648966  0.06351034  0.93648966
   0.81351034  0.81351034  0.81351034
   0.68648966  0.18648966  0.31351034
   0.18648966  0.31351034  0.68648966
   0.31351034  0.68648966  0.18648966
   0.06351034  0.06351034  0.06351034
   0.43648966  0.93648966  0.56351034
   0.56351034  0.43648966  0.93648966
   0.93648966  0.56351034  0.43648966
   0.37500000  0.00000000  0.25000000
   0.12500000  0.00000000  0.75000000
   0.62500000  0.50000000  0.25000000
   0.87500000  0.50000000  0.75000000
   0.25000000  0.37500000  0.00000000
   0.75000000  0.12500000  0.00000000
   0.25000000  0.62500000  0.50000000
   0.75000000  0.87500000  0.50000000
   0.00000000  0.25000000  0.37500000
   0.00000000  0.75000000  0.12500000
   0.50000000  0.25000000  0.62500000
   0.50000000  0.75000000  0.87500000
